6
pbc=[F, F, F] list_num_par=6 frozen=false iter=20000 energy=-1.26974174 Lattice="15.00000000 0.00000000 0.00000000 0.00000000 15.00000000 0.00000000 0.00000000 0.00000000 15.00000000" energy_frozen_part=0.00000000 Properties=species:S:1:pos:R:3:velocities:R:3:Z:I:1
H         2.40962453       3.91149563       3.38779386         0.00000000       0.00000000       0.00000000          1
H         5.08435563       3.51745297       2.68434064         0.00000000       0.00000000       0.00000000          1
H         3.49169428       5.26519203       1.19669260         0.00000000       0.00000000       0.00000000          1
H         2.85219507       6.66629301       3.52740244         0.00000000       0.00000000       0.00000000          1
H         5.52692129       6.27224861       2.82395543         0.00000000       0.00000000       0.00000000          1
H         4.44485229       4.91855295       5.01505781         0.00000000       0.00000000       0.00000000          1
6
pbc=[F, F, F] list_num_par=6 frozen=false iter=20000 energy=-1.26974174 Lattice="15.00000000 0.00000000 0.00000000 0.00000000 15.00000000 0.00000000 0.00000000 0.00000000 15.00000000" energy_frozen_part=0.00000000 Properties=species:S:1:pos:R:3:velocities:R:3:Z:I:1
H         2.40965241       3.91155666       3.38780976         0.00000000       0.00000000       0.00000000          1
H         5.08440732       3.51747721       2.68449222         0.00000000       0.00000000       0.00000000          1
H         3.49179810       5.26513237       1.19667427         0.00000000       0.00000000       0.00000000          1
H         2.85219733       6.66636989       3.52727230         0.00000000       0.00000000       0.00000000          1
H         5.52695135       6.27228970       2.82396249         0.00000000       0.00000000       0.00000000          1
H         4.44480010       4.91871878       5.01509884         0.00000000       0.00000000       0.00000000          1
6
pbc=[F, F, F] list_num_par=6 frozen=false iter=20000 energy=-1.26974174 Lattice="15.00000000 0.00000000 0.00000000 0.00000000 15.00000000 0.00000000 0.00000000 0.00000000 15.00000000" energy_frozen_part=0.00000000 Properties=species:S:1:pos:R:3:velocities:R:3:Z:I:1
H         2.40969774       3.91125182       3.38796319         0.00000000       0.00000000       0.00000000          1
H         5.08444512       3.51739506       2.68449913         0.00000000       0.00000000       0.00000000          1
H         3.49163918       5.26497403       1.19681042         0.00000000       0.00000000       0.00000000          1
H         2.85203673       6.66608866       3.52748662         0.00000000       0.00000000       0.00000000          1
H         5.52679192       6.27223570       2.82403063         0.00000000       0.00000000       0.00000000          1
H         4.44485483       4.91851858       5.01518273         0.00000000       0.00000000       0.00000000          1
6
pbc=[F, F, F] list_num_par=6 frozen=false iter=20000 energy=-1.26974174 Lattice="15.00000000 0.00000000 0.00000000 0.00000000 15.00000000 0.00000000 0.00000000 0.00000000 15.00000000" energy_frozen_part=0.00000000 Properties=species:S:1:pos:R:3:velocities:R:3:Z:I:1
H         2.40968088       3.91127723       3.38794975         0.00000000       0.00000000       0.00000000          1
H         5.08441774       3.51741223       2.68444804         0.00000000       0.00000000       0.00000000          1
H         3.49160312       5.26502997       1.19680880         0.00000000       0.00000000       0.00000000          1
H         2.85203968       6.66611271       3.52752149         0.00000000       0.00000000       0.00000000          1
H         5.52678676       6.27224993       2.82402311         0.00000000       0.00000000       0.00000000          1
H         4.44486461       4.91850741       5.01515754         0.00000000       0.00000000       0.00000000          1
6
pbc=[F, F, F] list_num_par=6 frozen=false iter=20000 energy=-1.26974174 Lattice="15.00000000 0.00000000 0.00000000 0.00000000 15.00000000 0.00000000 0.00000000 0.00000000 15.00000000" energy_frozen_part=0.00000000 Properties=species:S:1:pos:R:3:velocities:R:3:Z:I:1
H         2.40198166       3.91610436       3.38650858         0.00000000       0.00000000       0.00000000          1
H         5.07825580       3.51242851       2.69451367         0.00000000       0.00000000       0.00000000          1
H         3.49547121       5.25796981       1.19380261         0.00000000       0.00000000       0.00000000          1
H         2.85098534       6.67034340       3.51632733         0.00000000       0.00000000       0.00000000          1
H         5.52725844       6.26666629       2.82433384         0.00000000       0.00000000       0.00000000          1
H         4.43377093       4.92480074       5.01704069         0.00000000       0.00000000       0.00000000          1
6
pbc=[F, F, F] list_num_par=6 frozen=false iter=20000 energy=-1.26974174 Lattice="15.00000000 0.00000000 0.00000000 0.00000000 15.00000000 0.00000000 0.00000000 0.00000000 15.00000000" energy_frozen_part=0.00000000 Properties=species:S:1:pos:R:3:velocities:R:3:Z:I:1
H         2.40963383       3.91148362       3.38778584         0.00000000       0.00000000       0.00000000          1
H         5.08435941       3.51745368       2.68434068         0.00000000       0.00000000       0.00000000          1
H         3.49170098       5.26519810       1.19669521         0.00000000       0.00000000       0.00000000          1
H         2.85218376       6.66629240       3.52741253         0.00000000       0.00000000       0.00000000          1
H         5.52691435       6.27225318       2.82396591         0.00000000       0.00000000       0.00000000          1
H         4.44485044       4.91854551       5.01505730         0.00000000       0.00000000       0.00000000          1
6
pbc=[F, F, F] list_num_par=6 frozen=false iter=20000 energy=-1.26974174 Lattice="15.00000000 0.00000000 0.00000000 0.00000000 15.00000000 0.00000000 0.00000000 0.00000000 15.00000000" energy_frozen_part=0.00000000 Properties=species:S:1:pos:R:3:velocities:R:3:Z:I:1
H         2.40199897       3.91608660       3.38652066         0.00000000       0.00000000       0.00000000          1
H         5.07827522       3.51243722       2.69451638         0.00000000       0.00000000       0.00000000          1
H         3.49546775       5.25795845       1.19381183         0.00000000       0.00000000       0.00000000          1
H         2.85097338       6.67033159       3.51633392         0.00000000       0.00000000       0.00000000          1
H         5.52725866       6.26667863       2.82433209         0.00000000       0.00000000       0.00000000          1
H         4.43378735       4.92480464       5.01704497         0.00000000       0.00000000       0.00000000          1
6
pbc=[F, F, F] list_num_par=6 frozen=false iter=20000 energy=-1.26974174 Lattice="15.00000000 0.00000000 0.00000000 0.00000000 15.00000000 0.00000000 0.00000000 0.00000000 15.00000000" energy_frozen_part=0.00000000 Properties=species:S:1:pos:R:3:velocities:R:3:Z:I:1
H         2.40970240       3.91123787       3.38795567         0.00000000       0.00000000       0.00000000          1
H         5.08446863       3.51738567       2.68451301         0.00000000       0.00000000       0.00000000          1
H         3.49165197       5.26495217       1.19680921         0.00000000       0.00000000       0.00000000          1
H         2.85203840       6.66607553       3.52748316         0.00000000       0.00000000       0.00000000          1
H         5.52679747       6.27223128       2.82403215         0.00000000       0.00000000       0.00000000          1
H         4.44485250       4.91851354       5.01517950         0.00000000       0.00000000       0.00000000          1
6
pbc=[F, F, F] list_num_par=6 frozen=false iter=20000 energy=-1.26974174 Lattice="15.00000000 0.00000000 0.00000000 0.00000000 15.00000000 0.00000000 0.00000000 0.00000000 15.00000000" energy_frozen_part=0.00000000 Properties=species:S:1:pos:R:3:velocities:R:3:Z:I:1
H         2.40969116       3.91129475       3.38794975         0.00000000       0.00000000       0.00000000          1
H         5.08442848       3.51742934       2.68444918         0.00000000       0.00000000       0.00000000          1
H         3.49160872       5.26503454       1.19680629         0.00000000       0.00000000       0.00000000          1
H         2.85206232       6.66613309       3.52751382         0.00000000       0.00000000       0.00000000          1
H         5.52680045       6.27226068       2.82401687         0.00000000       0.00000000       0.00000000          1
H         4.44487430       4.91851586       5.01515983         0.00000000       0.00000000       0.00000000          1
6
pbc=[F, F, F] list_num_par=6 frozen=false iter=20000 energy=-1.26974174 Lattice="15.00000000 0.00000000 0.00000000 0.00000000 15.00000000 0.00000000 0.00000000 0.00000000 15.00000000" energy_frozen_part=0.00000000 Properties=species:S:1:pos:R:3:velocities:R:3:Z:I:1
H         2.40963874       3.91148775       3.38777075         0.00000000       0.00000000       0.00000000          1
H         5.08436949       3.51746200       2.68431055         0.00000000       0.00000000       0.00000000          1
H         3.49169455       5.26520634       1.19668591         0.00000000       0.00000000       0.00000000          1
H         2.85219184       6.66629246       3.52740744         0.00000000       0.00000000       0.00000000          1
H         5.52691844       6.27226466       2.82394682         0.00000000       0.00000000       0.00000000          1
H         4.44486285       4.91854632       5.01503543         0.00000000       0.00000000       0.00000000          1
6
pbc=[F, F, F] list_num_par=6 frozen=false iter=20000 energy=-1.26974174 Lattice="15.00000000 0.00000000 0.00000000 0.00000000 15.00000000 0.00000000 0.00000000 0.00000000 15.00000000" energy_frozen_part=0.00000000 Properties=species:S:1:pos:R:3:velocities:R:3:Z:I:1
H         2.40209632       3.91596190       3.38653924         0.00000000       0.00000000       0.00000000          1
H         5.07843019       3.51241902       2.69467242         0.00000000       0.00000000       0.00000000          1
H         3.49560287       5.25782464       1.19384118         0.00000000       0.00000000       0.00000000          1
H         2.85092858       6.67023558       3.51629225         0.00000000       0.00000000       0.00000000          1
H         5.52726102       6.26669086       2.82442565         0.00000000       0.00000000       0.00000000          1
H         4.43376204       4.92483259       5.01712123         0.00000000       0.00000000       0.00000000          1
6
pbc=[F, F, F] list_num_par=6 frozen=false iter=20000 energy=-1.26974174 Lattice="15.00000000 0.00000000 0.00000000 0.00000000 15.00000000 0.00000000 0.00000000 0.00000000 15.00000000" energy_frozen_part=0.00000000 Properties=species:S:1:pos:R:3:velocities:R:3:Z:I:1
H         2.40198062       3.91608923       3.38651832         0.00000000       0.00000000       0.00000000          1
H         5.07826401       3.51242737       2.69451319         0.00000000       0.00000000       0.00000000          1
H         3.49545971       5.25797305       1.19381625         0.00000000       0.00000000       0.00000000          1
H         2.85097181       6.67033458       3.51634334         0.00000000       0.00000000       0.00000000          1
H         5.52725516       6.26666739       2.82434233         0.00000000       0.00000000       0.00000000          1
H         4.43377303       4.92478912       5.01704930         0.00000000       0.00000000       0.00000000          1
6
pbc=[F, F, F] list_num_par=6 frozen=false iter=20000 energy=-1.26974174 Lattice="15.00000000 0.00000000 0.00000000 0.00000000 15.00000000 0.00000000 0.00000000 0.00000000 15.00000000" energy_frozen_part=0.00000000 Properties=species:S:1:pos:R:3:velocities:R:3:Z:I:1
H         2.40967922       3.91127867       3.38793832         0.00000000       0.00000000       0.00000000          1
H         5.08441908       3.51742472       2.68444125         0.00000000       0.00000000       0.00000000          1
H         3.49160029       5.26504391       1.19680935         0.00000000       0.00000000       0.00000000          1
H         2.85204832       6.66611754       3.52752932         0.00000000       0.00000000       0.00000000          1
H         5.52678563       6.27226235       2.82402069         0.00000000       0.00000000       0.00000000          1
H         4.44486081       4.91849987       5.01515784         0.00000000       0.00000000       0.00000000          1
6
pbc=[F, F, F] list_num_par=6 frozen=false iter=20000 energy=-1.26974174 Lattice="15.00000000 0.00000000 0.00000000 0.00000000 15.00000000 0.00000000 0.00000000 0.00000000 15.00000000" energy_frozen_part=0.00000000 Properties=species:S:1:pos:R:3:velocities:R:3:Z:I:1
H         2.40193907       3.91608205       3.38655102         0.00000000       0.00000000       0.00000000          1
H         5.07823298       3.51241168       2.69460086         0.00000000       0.00000000       0.00000000          1
H         3.49546019       5.25793661       1.19384495         0.00000000       0.00000000       0.00000000          1
H         2.85092731       6.67032199       3.51634950         0.00000000       0.00000000       0.00000000          1
H         5.52722631       6.26665041       2.82440894         0.00000000       0.00000000       0.00000000          1
H         4.43370101       4.92479585       5.01710485         0.00000000       0.00000000       0.00000000          1
6
pbc=[F, F, F] list_num_par=6 frozen=false iter=20000 energy=-1.26974174 Lattice="15.00000000 0.00000000 0.00000000 0.00000000 15.00000000 0.00000000 0.00000000 0.00000000 15.00000000" energy_frozen_part=0.00000000 Properties=species:S:1:pos:R:3:velocities:R:3:Z:I:1
H         2.40963972       3.91156487       3.38781751         0.00000000       0.00000000       0.00000000          1
H         5.08439206       3.51748205       2.68448861         0.00000000       0.00000000       0.00000000          1
H         3.49178986       5.26513529       1.19667720         0.00000000       0.00000000       0.00000000          1
H         2.85219928       6.66637046       3.52728709         0.00000000       0.00000000       0.00000000          1
H         5.52694960       6.27228904       2.82396079         0.00000000       0.00000000       0.00000000          1
H         4.44480151       4.91871812       5.01510461         0.00000000       0.00000000       0.00000000          1
6
pbc=[F, F, F] list_num_par=6 frozen=false iter=20000 energy=-1.26974174 Lattice="15.00000000 0.00000000 0.00000000 0.00000000 15.00000000 0.00000000 0.00000000 0.00000000 15.00000000" energy_frozen_part=0.00000000 Properties=species:S:1:pos:R:3:velocities:R:3:Z:I:1
H         2.40199293       3.91607167       3.38652754         0.00000000       0.00000000       0.00000000          1
H         5.07826930       3.51239790       2.69452959         0.00000000       0.00000000       0.00000000          1
H         3.49546513       5.25793343       1.19381459         0.00000000       0.00000000       0.00000000          1
H         2.85099352       6.67031470       3.51633501         0.00000000       0.00000000       0.00000000          1
H         5.52727359       6.26663770       2.82433307         0.00000000       0.00000000       0.00000000          1
H         4.43378922       4.92478084       5.01704731         0.00000000       0.00000000       0.00000000          1
6
pbc=[F, F, F] list_num_par=6 frozen=false iter=20000 energy=-1.26974174 Lattice="15.00000000 0.00000000 0.00000000 0.00000000 15.00000000 0.00000000 0.00000000 0.00000000 15.00000000" energy_frozen_part=0.00000000 Properties=species:S:1:pos:R:3:velocities:R:3:Z:I:1
H         2.40974952       3.91146000       3.38779260         0.00000000       0.00000000       0.00000000          1
H         5.08449013       3.51746597       2.68438768         0.00000000       0.00000000       0.00000000          1
H         3.49180658       5.26513430       1.19667123         0.00000000       0.00000000       0.00000000          1
H         2.85223150       6.66627068       3.52734811         0.00000000       0.00000000       0.00000000          1
H         5.52697903       6.27227931       2.82394243         0.00000000       0.00000000       0.00000000          1
H         4.44492437       4.91860167       5.01506137         0.00000000       0.00000000       0.00000000          1
6
pbc=[F, F, F] list_num_par=6 frozen=false iter=20000 energy=-1.26974174 Lattice="15.00000000 0.00000000 0.00000000 0.00000000 15.00000000 0.00000000 0.00000000 0.00000000 15.00000000" energy_frozen_part=0.00000000 Properties=species:S:1:pos:R:3:velocities:R:3:Z:I:1
H         2.40969147       3.91128562       3.38794382         0.00000000       0.00000000       0.00000000          1
H         5.08443611       3.51743177       2.68444114         0.00000000       0.00000000       0.00000000          1
H         3.49160519       5.26503826       1.19680901         0.00000000       0.00000000       0.00000000          1
H         2.85205095       6.66612314       3.52752034         0.00000000       0.00000000       0.00000000          1
H         5.52678970       6.27227048       2.82401334         0.00000000       0.00000000       0.00000000          1
H         4.44488222       4.91850901       5.01515456         0.00000000       0.00000000       0.00000000          1
6
pbc=[F, F, F] list_num_par=6 frozen=false iter=20000 energy=-1.26974174 Lattice="15.00000000 0.00000000 0.00000000 0.00000000 15.00000000 0.00000000 0.00000000 0.00000000 15.00000000" energy_frozen_part=0.00000000 Properties=species:S:1:pos:R:3:velocities:R:3:Z:I:1
H         2.41010507       3.89682757       3.37563262         0.00000000       0.00000000       0.00000000          1
H         5.08191645       3.51534086       2.65440163         0.00000000       0.00000000       0.00000000          1
H         3.47645023       5.27022840       1.18908644         0.00000000       0.00000000       0.00000000          1
H         2.84621306       6.65164931       3.53402568         0.00000000       0.00000000       0.00000000          1
H         5.51802402       6.27015772       2.81278982         0.00000000       0.00000000       0.00000000          1
H         4.45167645       4.89676512       4.99933779         0.00000000       0.00000000       0.00000000          1
6
pbc=[F, F, F] list_num_par=6 frozen=false iter=20000 energy=-1.26974174 Lattice="15.00000000 0.00000000 0.00000000 0.00000000 15.00000000 0.00000000 0.00000000 0.00000000 15.00000000" energy_frozen_part=0.00000000 Properties=species:S:1:pos:R:3:velocities:R:3:Z:I:1
H         2.40194783       3.91611004       3.38655453         0.00000000       0.00000000       0.00000000          1
H         5.07821831       3.51238211       2.69456183         0.00000000       0.00000000       0.00000000          1
H         3.49544548       5.25790302       1.19380839         0.00000000       0.00000000       0.00000000          1
H         2.85098607       6.67034195       3.51629692         0.00000000       0.00000000       0.00000000          1
H         5.52726073       6.26661316       2.82430672         0.00000000       0.00000000       0.00000000          1
H         4.43375833       4.92481406       5.01705476         0.00000000       0.00000000       0.00000000          1
6
pbc=[F, F, F] list_num_par=6 frozen=false iter=20000 energy=-1.26974174 Lattice="15.00000000 0.00000000 0.00000000 0.00000000 15.00000000 0.00000000 0.00000000 0.00000000 15.00000000" energy_frozen_part=0.00000000 Properties=species:S:1:pos:R:3:velocities:R:3:Z:I:1
H         2.40963106       3.91148946       3.38778108         0.00000000       0.00000000       0.00000000          1
H         5.08436579       3.51746235       2.68433407         0.00000000       0.00000000       0.00000000          1
H         3.49168921       5.26520163       1.19669365         0.00000000       0.00000000       0.00000000          1
H         2.85217652       6.66629592       3.52741067         0.00000000       0.00000000       0.00000000          1
H         5.52690617       6.27226602       2.82396210         0.00000000       0.00000000       0.00000000          1
H         4.44484835       4.91855682       5.01505622         0.00000000       0.00000000       0.00000000          1
6
pbc=[F, F, F] list_num_par=6 frozen=false iter=20000 energy=-1.26974174 Lattice="15.00000000 0.00000000 0.00000000 0.00000000 15.00000000 0.00000000 0.00000000 0.00000000 15.00000000" energy_frozen_part=0.00000000 Properties=species:S:1:pos:R:3:velocities:R:3:Z:I:1
H         2.40961379       3.91150728       3.38779134         0.00000000       0.00000000       0.00000000          1
H         5.08434130       3.51745624       2.68432526         0.00000000       0.00000000       0.00000000          1
H         3.49167484       5.26520688       1.19668929         0.00000000       0.00000000       0.00000000          1
H         2.85217993       6.66630374       3.52740593         0.00000000       0.00000000       0.00000000          1
H         5.52690646       6.27225987       2.82394859         0.00000000       0.00000000       0.00000000          1
H         4.44484264       4.91856035       5.01504500         0.00000000       0.00000000       0.00000000          1
6
pbc=[F, F, F] list_num_par=6 frozen=false iter=20000 energy=-1.26974174 Lattice="15.00000000 0.00000000 0.00000000 0.00000000 15.00000000 0.00000000 0.00000000 0.00000000 15.00000000" energy_frozen_part=0.00000000 Properties=species:S:1:pos:R:3:velocities:R:3:Z:I:1
H         2.40963880       3.91154475       3.38782599         0.00000000       0.00000000       0.00000000          1
H         5.08439637       3.51747201       2.68446903         0.00000000       0.00000000       0.00000000          1
H         3.49176048       5.26512503       1.19667876         0.00000000       0.00000000       0.00000000          1
H         2.85218776       6.66635556       3.52730065         0.00000000       0.00000000       0.00000000          1
H         5.52693638       6.27227933       2.82394404         0.00000000       0.00000000       0.00000000          1
H         4.44481787       4.91869736       5.01508663         0.00000000       0.00000000       0.00000000          1
6
pbc=[F, F, F] list_num_par=6 frozen=false iter=20000 energy=-1.26974174 Lattice="15.00000000 0.00000000 0.00000000 0.00000000 15.00000000 0.00000000 0.00000000 0.00000000 15.00000000" energy_frozen_part=0.00000000 Properties=species:S:1:pos:R:3:velocities:R:3:Z:I:1
H         8.05923562       8.24376983       2.06333114         0.00000000       0.00000000       0.00000000          1
H         5.97457705       9.46236823       3.46813590         0.00000000       0.00000000       0.00000000          1
H         5.71929502       8.98244661       0.72791737         0.00000000       0.00000000       0.00000000          1
H         6.00891425      11.59751868       1.66695150         0.00000000       0.00000000       0.00000000          1
H         8.34885767      10.85884019       3.00236220         0.00000000       0.00000000       0.00000000          1
H         8.09357530      10.37891263       0.26214286         0.00000000       0.00000000       0.00000000          1
6
pbc=[F, F, F] list_num_par=6 frozen=false iter=20000 energy=-1.26974174 Lattice="15.00000000 0.00000000 0.00000000 0.00000000 15.00000000 0.00000000 0.00000000 0.00000000 15.00000000" energy_frozen_part=0.00000000 Properties=species:S:1:pos:R:3:velocities:R:3:Z:I:1
H         2.40969677       3.91124202       3.38795395         0.00000000       0.00000000       0.00000000          1
H         5.08445620       3.51740848       2.68447884         0.00000000       0.00000000       0.00000000          1
H         3.49162705       5.26498448       1.19681278         0.00000000       0.00000000       0.00000000          1
H         2.85202497       6.66608610       3.52749664         0.00000000       0.00000000       0.00000000          1
H         5.52678157       6.27224999       2.82403969         0.00000000       0.00000000       0.00000000          1
H         4.44484721       4.91850490       5.01517175         0.00000000       0.00000000       0.00000000          1
6
pbc=[F, F, F] list_num_par=6 frozen=false iter=20000 energy=-1.26974174 Lattice="15.00000000 0.00000000 0.00000000 0.00000000 15.00000000 0.00000000 0.00000000 0.00000000 15.00000000" energy_frozen_part=0.00000000 Properties=species:S:1:pos:R:3:velocities:R:3:Z:I:1
H         2.40962488       3.91147605       3.38786124         0.00000000       0.00000000       0.00000000          1
H         5.08434379       3.51747870       2.68434044         0.00000000       0.00000000       0.00000000          1
H         3.49160580       5.26517597       1.19671511         0.00000000       0.00000000       0.00000000          1
H         2.85213586       6.66628562       3.52743742         0.00000000       0.00000000       0.00000000          1
H         5.52685084       6.27228541       2.82390962         0.00000000       0.00000000       0.00000000          1
H         4.44487566       4.91858511       5.01505728         0.00000000       0.00000000       0.00000000          1
6
pbc=[F, F, F] list_num_par=6 frozen=false iter=20000 energy=-1.26974174 Lattice="15.00000000 0.00000000 0.00000000 0.00000000 15.00000000 0.00000000 0.00000000 0.00000000 15.00000000" energy_frozen_part=0.00000000 Properties=species:S:1:pos:R:3:velocities:R:3:Z:I:1
H         2.40199658       3.91609378       3.38652832         0.00000000       0.00000000       0.00000000          1
H         5.07827430       3.51243764       2.69452367         0.00000000       0.00000000       0.00000000          1
H         3.49547198       5.25796543       1.19380967         0.00000000       0.00000000       0.00000000          1
H         2.85097389       6.67033370       3.51633905         0.00000000       0.00000000       0.00000000          1
H         5.52725974       6.26668150       2.82434329         0.00000000       0.00000000       0.00000000          1
H         4.43378373       4.92480729       5.01705303         0.00000000       0.00000000       0.00000000          1
6
pbc=[F, F, F] list_num_par=6 frozen=false iter=20000 energy=-1.26974174 Lattice="15.00000000 0.00000000 0.00000000 0.00000000 15.00000000 0.00000000 0.00000000 0.00000000 15.00000000" energy_frozen_part=0.00000000 Properties=species:S:1:pos:R:3:velocities:R:3:Z:I:1
H         2.40964216       3.91156374       3.38781057         0.00000000       0.00000000       0.00000000          1
H         5.08439524       3.51748629       2.68448338         0.00000000       0.00000000       0.00000000          1
H         3.49178260       5.26514580       1.19667817         0.00000000       0.00000000       0.00000000          1
H         2.85219226       6.66637202       3.52729370         0.00000000       0.00000000       0.00000000          1
H         5.52694864       6.27229331       2.82395590         0.00000000       0.00000000       0.00000000          1
H         4.44480403       4.91872171       5.01509947         0.00000000       0.00000000       0.00000000          1
6
pbc=[F, F, F] list_num_par=6 frozen=false iter=20000 energy=-1.26974174 Lattice="15.00000000 0.00000000 0.00000000 0.00000000 15.00000000 0.00000000 0.00000000 0.00000000 15.00000000" energy_frozen_part=0.00000000 Properties=species:S:1:pos:R:3:velocities:R:3:Z:I:1
H         2.40208548       3.91596110       3.38652509         0.00000000       0.00000000       0.00000000          1
H         5.07841328       3.51241550       2.69465608         0.00000000       0.00000000       0.00000000          1
H         3.49559311       5.25784207       1.19383200         0.00000000       0.00000000       0.00000000          1
H         2.85093019       6.67023127       3.51630441         0.00000000       0.00000000       0.00000000          1
H         5.52725934       6.26668248       2.82443546         0.00000000       0.00000000       0.00000000          1
H         4.43375273       4.92480554       5.01712051         0.00000000       0.00000000       0.00000000          1
6
pbc=[F, F, F] list_num_par=6 frozen=false iter=20000 energy=-1.26974174 Lattice="15.00000000 0.00000000 0.00000000 0.00000000 15.00000000 0.00000000 0.00000000 0.00000000 15.00000000" energy_frozen_part=0.00000000 Properties=species:S:1:pos:R:3:velocities:R:3:Z:I:1
H         2.40969261       3.91127290       3.38795913         0.00000000       0.00000000       0.00000000          1
H         5.08443477       3.51742941       2.68444999         0.00000000       0.00000000       0.00000000          1
H         3.49160268       5.26503281       1.19681665         0.00000000       0.00000000       0.00000000          1
H         2.85204456       6.66611091       3.52752737         0.00000000       0.00000000       0.00000000          1
H         5.52679046       6.27227023       2.82401926         0.00000000       0.00000000       0.00000000          1
H         4.44487585       4.91851492       5.01516544         0.00000000       0.00000000       0.00000000          1
6
pbc=[F, F, F] list_num_par=6 frozen=false iter=20000 energy=-1.26974174 Lattice="15.00000000 0.00000000 0.00000000 0.00000000 15.00000000 0.00000000 0.00000000 0.00000000 15.00000000" energy_frozen_part=0.00000000 Properties=species:S:1:pos:R:3:velocities:R:3:Z:I:1
H         2.41010778       3.89683531       3.37563786         0.00000000       0.00000000       0.00000000          1
H         5.08191172       3.51533646       2.65439595         0.00000000       0.00000000       0.00000000          1
H         3.47644886       5.27023157       1.18908530         0.00000000       0.00000000       0.00000000          1
H         2.84621349       6.65165362       3.53402938         0.00000000       0.00000000       0.00000000          1
H         5.51802191       6.27015395       2.81278381         0.00000000       0.00000000       0.00000000          1
H         4.45168229       4.89676158       4.99933919         0.00000000       0.00000000       0.00000000          1
6
pbc=[F, F, F] list_num_par=6 frozen=false iter=20000 energy=-1.26974174 Lattice="15.00000000 0.00000000 0.00000000 0.00000000 15.00000000 0.00000000 0.00000000 0.00000000 15.00000000" energy_frozen_part=0.00000000 Properties=species:S:1:pos:R:3:velocities:R:3:Z:I:1
H         2.40208953       3.91596236       3.38653055         0.00000000       0.00000000       0.00000000          1
H         5.07842006       3.51241560       2.69466164         0.00000000       0.00000000       0.00000000          1
H         3.49559722       5.25783088       1.19383527         0.00000000       0.00000000       0.00000000          1
H         2.85092989       6.67022380       3.51630345         0.00000000       0.00000000       0.00000000          1
H         5.52726554       6.26668635       2.82443208         0.00000000       0.00000000       0.00000000          1
H         4.43376111       4.92480694       5.01712248         0.00000000       0.00000000       0.00000000          1
6
pbc=[F, F, F] list_num_par=6 frozen=false iter=20000 energy=-1.26974174 Lattice="15.00000000 0.00000000 0.00000000 0.00000000 15.00000000 0.00000000 0.00000000 0.00000000 15.00000000" energy_frozen_part=0.00000000 Properties=species:S:1:pos:R:3:velocities:R:3:Z:I:1
H         2.40968696       3.91128640       3.38793994         0.00000000       0.00000000       0.00000000          1
H         5.08443246       3.51743160       2.68443939         0.00000000       0.00000000       0.00000000          1
H         3.49161300       5.26504393       1.19681100         0.00000000       0.00000000       0.00000000          1
H         2.85205071       6.66612244       3.52751968         0.00000000       0.00000000       0.00000000          1
H         5.52679608       6.27226357       2.82402021         0.00000000       0.00000000       0.00000000          1
H         4.44486826       4.91850347       5.01515789         0.00000000       0.00000000       0.00000000          1
6
pbc=[F, F, F] list_num_par=6 frozen=false iter=20000 energy=-1.26974174 Lattice="15.00000000 0.00000000 0.00000000 0.00000000 15.00000000 0.00000000 0.00000000 0.00000000 15.00000000" energy_frozen_part=0.00000000 Properties=species:S:1:pos:R:3:velocities:R:3:Z:I:1
H         2.40964546       3.91149388       3.38777689         0.00000000       0.00000000       0.00000000          1
H         5.08437367       3.51746328       2.68431335         0.00000000       0.00000000       0.00000000          1
H         3.49169657       5.26521012       1.19668349         0.00000000       0.00000000       0.00000000          1
H         2.85219014       6.66629896       3.52740266         0.00000000       0.00000000       0.00000000          1
H         5.52691290       6.27227368       2.82394126         0.00000000       0.00000000       0.00000000          1
H         4.44486864       4.91855274       5.01503473         0.00000000       0.00000000       0.00000000          1
6
pbc=[F, F, F] list_num_par=6 frozen=false iter=20000 energy=-1.26974174 Lattice="15.00000000 0.00000000 0.00000000 0.00000000 15.00000000 0.00000000 0.00000000 0.00000000 15.00000000" energy_frozen_part=0.00000000 Properties=species:S:1:pos:R:3:velocities:R:3:Z:I:1
H         2.40962276       3.91160078       3.38780388         0.00000000       0.00000000       0.00000000          1
H         5.08437241       3.51748366       2.68448079         0.00000000       0.00000000       0.00000000          1
H         3.49178477       5.26514771       1.19666525         0.00000000       0.00000000       0.00000000          1
H         2.85220775       6.66640863       3.52726028         0.00000000       0.00000000       0.00000000          1
H         5.52695854       6.27229137       2.82393567         0.00000000       0.00000000       0.00000000          1
H         4.44479875       4.91873724       5.01508133         0.00000000       0.00000000       0.00000000          1
6
pbc=[F, F, F] list_num_par=6 frozen=false iter=20000 energy=-1.26974174 Lattice="15.00000000 0.00000000 0.00000000 0.00000000 15.00000000 0.00000000 0.00000000 0.00000000 15.00000000" energy_frozen_part=0.00000000 Properties=species:S:1:pos:R:3:velocities:R:3:Z:I:1
H         2.40963823       3.91147741       3.38777602         0.00000000       0.00000000       0.00000000          1
H         5.08436863       3.51746151       2.68433360         0.00000000       0.00000000       0.00000000          1
H         3.49168954       5.26520590       1.19669657         0.00000000       0.00000000       0.00000000          1
H         2.85217173       6.66627892       3.52742610         0.00000000       0.00000000       0.00000000          1
H         5.52690478       6.27226091       2.82397561         0.00000000       0.00000000       0.00000000          1
H         4.44484837       4.91853332       5.01505904         0.00000000       0.00000000       0.00000000          1
6
pbc=[F, F, F] list_num_par=6 frozen=false iter=20000 energy=-1.26974174 Lattice="15.00000000 0.00000000 0.00000000 0.00000000 15.00000000 0.00000000 0.00000000 0.00000000 15.00000000" energy_frozen_part=0.00000000 Properties=species:S:1:pos:R:3:velocities:R:3:Z:I:1
H         8.05923323       8.24377972       2.06332545         0.00000000       0.00000000       0.00000000          1
H         5.97457483       9.46238048       3.46813803         0.00000000       0.00000000       0.00000000          1
H         5.71929465       8.98245739       0.72791621         0.00000000       0.00000000       0.00000000          1
H         6.00892545      11.59752772       1.66695976         0.00000000       0.00000000       0.00000000          1
H         8.34885672      10.85885122       3.00236876         0.00000000       0.00000000       0.00000000          1
H         8.09357867      10.37892782       0.26214691         0.00000000       0.00000000       0.00000000          1
6
pbc=[F, F, F] list_num_par=6 frozen=false iter=20000 energy=-1.26974174 Lattice="15.00000000 0.00000000 0.00000000 0.00000000 15.00000000 0.00000000 0.00000000 0.00000000 15.00000000" energy_frozen_part=0.00000000 Properties=species:S:1:pos:R:3:velocities:R:3:Z:I:1
H         2.40969718       3.91124053       3.38779504         0.00000000       0.00000000       0.00000000          1
H         5.08444512       3.51741330       2.68430701         0.00000000       0.00000000       0.00000000          1
H         3.49163717       5.26505346       1.19669878         0.00000000       0.00000000       0.00000000          1
H         2.85205962       6.66607408       3.52744227         0.00000000       0.00000000       0.00000000          1
H         5.52680802       6.27224215       2.82395545         0.00000000       0.00000000       0.00000000          1
H         4.44486377       4.91842786       5.01505266         0.00000000       0.00000000       0.00000000          1
6
pbc=[F, F, F] list_num_par=6 frozen=false iter=20000 energy=-1.26974174 Lattice="15.00000000 0.00000000 0.00000000 0.00000000 15.00000000 0.00000000 0.00000000 0.00000000 15.00000000" energy_frozen_part=0.00000000 Properties=species:S:1:pos:R:3:velocities:R:3:Z:I:1
H         2.40195355       3.91608958       3.38656149         0.00000000       0.00000000       0.00000000          1
H         5.07823575       3.51238157       2.69459975         0.00000000       0.00000000       0.00000000          1
H         3.49550514       5.25798731       1.19390197         0.00000000       0.00000000       0.00000000          1
H         2.85100809       6.67032286       3.51644252         0.00000000       0.00000000       0.00000000          1
H         5.52729324       6.26660880       2.82448644         0.00000000       0.00000000       0.00000000          1
H         4.43373281       4.92472041       5.01714508         0.00000000       0.00000000       0.00000000          1
6
pbc=[F, F, F] list_num_par=6 frozen=false iter=20000 energy=-1.26974174 Lattice="15.00000000 0.00000000 0.00000000 0.00000000 15.00000000 0.00000000 0.00000000 0.00000000 15.00000000" energy_frozen_part=0.00000000 Properties=species:S:1:pos:R:3:velocities:R:3:Z:I:1
H         2.40209073       3.91598215       3.38652735         0.00000000       0.00000000       0.00000000          1
H         5.07841528       3.51242347       2.69463453         0.00000000       0.00000000       0.00000000          1
H         3.49559435       5.25785084       1.19382373         0.00000000       0.00000000       0.00000000          1
H         2.85095539       6.67024699       3.51629995         0.00000000       0.00000000       0.00000000          1
H         5.52728188       6.26668386       2.82441130         0.00000000       0.00000000       0.00000000          1
H         4.43377552       4.92481300       5.01711042         0.00000000       0.00000000       0.00000000          1
6
pbc=[F, F, F] list_num_par=6 frozen=false iter=20000 energy=-1.26974174 Lattice="15.00000000 0.00000000 0.00000000 0.00000000 15.00000000 0.00000000 0.00000000 0.00000000 15.00000000" energy_frozen_part=0.00000000 Properties=species:S:1:pos:R:3:velocities:R:3:Z:I:1
H         2.40198148       3.91609277       3.38651694         0.00000000       0.00000000       0.00000000          1
H         5.07825947       3.51243377       2.69451999         0.00000000       0.00000000       0.00000000          1
H         3.49547052       5.25797491       1.19381045         0.00000000       0.00000000       0.00000000          1
H         2.85097852       6.67033309       3.51633917         0.00000000       0.00000000       0.00000000          1
H         5.52725830       6.26667213       2.82435084         0.00000000       0.00000000       0.00000000          1
H         4.43377266       4.92479105       5.01705162         0.00000000       0.00000000       0.00000000          1
6
pbc=[F, F, F] list_num_par=6 frozen=false iter=20000 energy=-1.26974174 Lattice="15.00000000 0.00000000 0.00000000 0.00000000 15.00000000 0.00000000 0.00000000 0.00000000 15.00000000" energy_frozen_part=0.00000000 Properties=species:S:1:pos:R:3:velocities:R:3:Z:I:1
H         2.40964662       3.91159392       3.38782230         0.00000000       0.00000000       0.00000000          1
H         5.08440221       3.51749545       2.68450741         0.00000000       0.00000000       0.00000000          1
H         3.49181029       5.26514096       1.19667463         0.00000000       0.00000000       0.00000000          1
H         2.85220776       6.66640354       3.52725911         0.00000000       0.00000000       0.00000000          1
H         5.52696577       6.27230050       2.82395767         0.00000000       0.00000000       0.00000000          1
H         4.44480294       4.91875819       5.01509836         0.00000000       0.00000000       0.00000000          1
6
pbc=[F, F, F] list_num_par=6 frozen=false iter=20000 energy=-1.26974174 Lattice="15.00000000 0.00000000 0.00000000 0.00000000 15.00000000 0.00000000 0.00000000 0.00000000 15.00000000" energy_frozen_part=0.00000000 Properties=species:S:1:pos:R:3:velocities:R:3:Z:I:1
H         2.40969671       3.91128399       3.38794275         0.00000000       0.00000000       0.00000000          1
H         5.08443626       3.51743541       2.68445695         0.00000000       0.00000000       0.00000000          1
H         3.49162816       5.26504493       1.19681056         0.00000000       0.00000000       0.00000000          1
H         2.85204979       6.66612114       3.52751810         0.00000000       0.00000000       0.00000000          1
H         5.52679795       6.27226726       2.82403731         0.00000000       0.00000000       0.00000000          1
H         4.44486256       4.91851517       5.01516482         0.00000000       0.00000000       0.00000000          1
6
pbc=[F, F, F] list_num_par=6 frozen=false iter=20000 energy=-1.26974174 Lattice="15.00000000 0.00000000 0.00000000 0.00000000 15.00000000 0.00000000 0.00000000 0.00000000 15.00000000" energy_frozen_part=0.00000000 Properties=species:S:1:pos:R:3:velocities:R:3:Z:I:1
H         2.40209402       3.91597910       3.38652694         0.00000000       0.00000000       0.00000000          1
H         5.07841678       3.51242051       2.69464130         0.00000000       0.00000000       0.00000000          1
H         3.49559275       5.25784270       1.19382878         0.00000000       0.00000000       0.00000000          1
H         2.85095691       6.67024789       3.51629518         0.00000000       0.00000000       0.00000000          1
H         5.52728153       6.26667971       2.82441074         0.00000000       0.00000000       0.00000000          1
H         4.43377475       4.92482085       5.01710792         0.00000000       0.00000000       0.00000000          1
6
pbc=[F, F, F] list_num_par=6 frozen=false iter=20000 energy=-1.26974174 Lattice="15.00000000 0.00000000 0.00000000 0.00000000 15.00000000 0.00000000 0.00000000 0.00000000 15.00000000" energy_frozen_part=0.00000000 Properties=species:S:1:pos:R:3:velocities:R:3:Z:I:1
H         2.41010472       3.89683616       3.37563025         0.00000000       0.00000000       0.00000000          1
H         5.08191963       3.51533308       2.65439488         0.00000000       0.00000000       0.00000000          1
H         3.47646221       5.27022416       1.18909101         0.00000000       0.00000000       0.00000000          1
H         2.84621549       6.65164933       3.53403178         0.00000000       0.00000000       0.00000000          1
H         5.51802610       6.27015059       2.81280207         0.00000000       0.00000000       0.00000000          1
H         4.45167599       4.89675237       4.99933704         0.00000000       0.00000000       0.00000000          1
6
pbc=[F, F, F] list_num_par=6 frozen=false iter=20000 energy=-1.26974174 Lattice="15.00000000 0.00000000 0.00000000 0.00000000 15.00000000 0.00000000 0.00000000 0.00000000 15.00000000" energy_frozen_part=0.00000000 Properties=species:S:1:pos:R:3:velocities:R:3:Z:I:1
H         2.40195876       3.91606534       3.38654674         0.00000000       0.00000000       0.00000000          1
H         5.07823861       3.51237087       2.69458074         0.00000000       0.00000000       0.00000000          1
H         3.49547356       5.25792019       1.19384890         0.00000000       0.00000000       0.00000000          1
H         2.85097060       6.67030425       3.51636260         0.00000000       0.00000000       0.00000000          1
H         5.52725058       6.26660471       2.82440124         0.00000000       0.00000000       0.00000000          1
H         4.43373386       4.92475162       5.01709678         0.00000000       0.00000000       0.00000000          1
6
pbc=[F, F, F] list_num_par=6 frozen=false iter=20000 energy=-1.26974174 Lattice="15.00000000 0.00000000 0.00000000 0.00000000 15.00000000 0.00000000 0.00000000 0.00000000 15.00000000" energy_frozen_part=0.00000000 Properties=species:S:1:pos:R:3:velocities:R:3:Z:I:1
H         2.40195168       3.91607850       3.38653712         0.00000000       0.00000000       0.00000000          1
H         5.07823154       3.51238516       2.69456972         0.00000000       0.00000000       0.00000000          1
H         3.49547058       5.25793914       1.19384747         0.00000000       0.00000000       0.00000000          1
H         2.85097256       6.67031432       3.51636454         0.00000000       0.00000000       0.00000000          1
H         5.52725373       6.26661772       2.82440666         0.00000000       0.00000000       0.00000000          1
H         4.43372912       4.92475546       5.01709740         0.00000000       0.00000000       0.00000000          1
6
pbc=[F, F, F] list_num_par=6 frozen=false iter=20000 energy=-1.26974174 Lattice="15.00000000 0.00000000 0.00000000 0.00000000 15.00000000 0.00000000 0.00000000 0.00000000 15.00000000" energy_frozen_part=0.00000000 Properties=species:S:1:pos:R:3:velocities:R:3:Z:I:1
H         2.40208569       3.91599098       3.38652322         0.00000000       0.00000000       0.00000000          1
H         5.07840490       3.51241931       2.69464157         0.00000000       0.00000000       0.00000000          1
H         3.49559406       5.25784935       1.19382133         0.00000000       0.00000000       0.00000000          1
H         2.85096242       6.67024902       3.51629423         0.00000000       0.00000000       0.00000000          1
H         5.52728092       6.26667690       2.82440780         0.00000000       0.00000000       0.00000000          1
H         4.43377249       4.92481172       5.01710810         0.00000000       0.00000000       0.00000000          1
6
pbc=[F, F, F] list_num_par=6 frozen=false iter=20000 energy=-1.26974174 Lattice="15.00000000 0.00000000 0.00000000 0.00000000 15.00000000 0.00000000 0.00000000 0.00000000 15.00000000" energy_frozen_part=0.00000000 Properties=species:S:1:pos:R:3:velocities:R:3:Z:I:1
H         2.40197941       3.91605932       3.38651116         0.00000000       0.00000000       0.00000000          1
H         5.07828028       3.51240822       2.69457477         0.00000000       0.00000000       0.00000000          1
H         3.49552073       5.25797995       1.19386142         0.00000000       0.00000000       0.00000000          1
H         2.85097717       6.67029234       3.51640709         0.00000000       0.00000000       0.00000000          1
H         5.52727170       6.26664246       2.82446215         0.00000000       0.00000000       0.00000000          1
H         4.43374079       4.92472486       5.01711686         0.00000000       0.00000000       0.00000000          1
6
pbc=[F, F, F] list_num_par=6 frozen=false iter=20000 energy=-1.26974174 Lattice="15.00000000 0.00000000 0.00000000 0.00000000 15.00000000 0.00000000 0.00000000 0.00000000 15.00000000" energy_frozen_part=0.00000000 Properties=species:S:1:pos:R:3:velocities:R:3:Z:I:1
H         8.05920267       8.24374859       2.06317410         0.00000000       0.00000000       0.00000000          1
H         5.97454934       9.46232652       3.46802204         0.00000000       0.00000000       0.00000000          1
H         5.71925788       8.98246216       0.72779575         0.00000000       0.00000000       0.00000000          1
H         6.00889200      11.59751894       1.66688401         0.00000000       0.00000000       0.00000000          1
H         8.34882937      10.85880166       3.00227279         0.00000000       0.00000000       0.00000000          1
H         8.09354331      10.37894207       0.26204579         0.00000000       0.00000000       0.00000000          1
6
pbc=[F, F, F] list_num_par=6 frozen=false iter=20000 energy=-1.26974174 Lattice="15.00000000 0.00000000 0.00000000 0.00000000 15.00000000 0.00000000 0.00000000 0.00000000 15.00000000" energy_frozen_part=0.00000000 Properties=species:S:1:pos:R:3:velocities:R:3:Z:I:1
H         2.40969228       3.91146036       3.38791213         0.00000000       0.00000000       0.00000000          1
H         5.08439045       3.51739883       2.68435802         0.00000000       0.00000000       0.00000000          1
H         3.49166271       5.26511369       1.19673560         0.00000000       0.00000000       0.00000000          1
H         2.85225234       6.66626221       3.52744866         0.00000000       0.00000000       0.00000000          1
H         5.52695102       6.27220458       2.82389927         0.00000000       0.00000000       0.00000000          1
H         4.44498056       4.91855085       5.01506516         0.00000000       0.00000000       0.00000000          1
6
pbc=[F, F, F] list_num_par=6 frozen=false iter=20000 energy=-1.26974174 Lattice="15.00000000 0.00000000 0.00000000 0.00000000 15.00000000 0.00000000 0.00000000 0.00000000 15.00000000" energy_frozen_part=0.00000000 Properties=species:S:1:pos:R:3:velocities:R:3:Z:I:1
H         2.40968387       3.91145980       3.38785434         0.00000000       0.00000000       0.00000000          1
H         5.08438871       3.51738693       2.68436023         0.00000000       0.00000000       0.00000000          1
H         3.49171654       5.26512106       1.19671202         0.00000000       0.00000000       0.00000000          1
H         2.85226940       6.66625714       3.52742119         0.00000000       0.00000000       0.00000000          1
H         5.52698028       6.27218244       2.82392973         0.00000000       0.00000000       0.00000000          1
H         4.44494015       4.91852659       5.01507017         0.00000000       0.00000000       0.00000000          1
6
pbc=[F, F, F] list_num_par=6 frozen=false iter=20000 energy=-1.26974174 Lattice="15.00000000 0.00000000 0.00000000 0.00000000 15.00000000 0.00000000 0.00000000 0.00000000 15.00000000" energy_frozen_part=0.00000000 Properties=species:S:1:pos:R:3:velocities:R:3:Z:I:1
H         2.40194799       3.91609051       3.38653138         0.00000000       0.00000000       0.00000000          1
H         5.07823173       3.51238597       2.69456661         0.00000000       0.00000000       0.00000000          1
H         3.49547093       5.25795395       1.19384670         0.00000000       0.00000000       0.00000000          1
H         2.85097109       6.67032335       3.51636741         0.00000000       0.00000000       0.00000000          1
H         5.52725331       6.26662590       2.82440717         0.00000000       0.00000000       0.00000000          1
H         4.43372774       4.92475610       5.01709385         0.00000000       0.00000000       0.00000000          1
6
pbc=[F, F, F] list_num_par=6 frozen=false iter=20000 energy=-1.26974174 Lattice="15.00000000 0.00000000 0.00000000 0.00000000 15.00000000 0.00000000 0.00000000 0.00000000 15.00000000" energy_frozen_part=0.00000000 Properties=species:S:1:pos:R:3:velocities:R:3:Z:I:1
H         2.40198050       3.91606005       3.38650844         0.00000000       0.00000000       0.00000000          1
H         5.07828148       3.51240296       2.69456464         0.00000000       0.00000000       0.00000000          1
H         3.49552643       5.25798650       1.19386191         0.00000000       0.00000000       0.00000000          1
H         2.85097811       6.67028893       3.51641157         0.00000000       0.00000000       0.00000000          1
H         5.52727617       6.26663871       2.82447077         0.00000000       0.00000000       0.00000000          1
H         4.43373359       4.92470915       5.01711187         0.00000000       0.00000000       0.00000000          1
6
pbc=[F, F, F] list_num_par=6 frozen=false iter=20000 energy=-1.26974174 Lattice="15.00000000 0.00000000 0.00000000 0.00000000 15.00000000 0.00000000 0.00000000 0.00000000 15.00000000" energy_frozen_part=0.00000000 Properties=species:S:1:pos:R:3:velocities:R:3:Z:I:1
H         2.41010352       3.89683082       3.37563568         0.00000000       0.00000000       0.00000000          1
H         5.08191092       3.51533004       2.65440754         0.00000000       0.00000000       0.00000000          1
H         3.47645774       5.27022476       1.18909604         0.00000000       0.00000000       0.00000000          1
H         2.84621684       6.65164240       3.53403157         0.00000000       0.00000000       0.00000000          1
H         5.51802580       6.27014383       2.81280439         0.00000000       0.00000000       0.00000000          1
H         4.45167427       4.89675589       4.99934679         0.00000000       0.00000000       0.00000000          1
6
pbc=[F, F, F] list_num_par=6 frozen=false iter=20000 energy=-1.26974174 Lattice="15.00000000 0.00000000 0.00000000 0.00000000 15.00000000 0.00000000 0.00000000 0.00000000 15.00000000" energy_frozen_part=0.00000000 Properties=species:S:1:pos:R:3:velocities:R:3:Z:I:1
H         2.40968836       3.91129625       3.38794072         0.00000000       0.00000000       0.00000000          1
H         5.08443682       3.51744180       2.68445153         0.00000000       0.00000000       0.00000000          1
H         3.49162310       5.26506256       1.19681776         0.00000000       0.00000000       0.00000000          1
H         2.85205005       6.66612731       3.52753824         0.00000000       0.00000000       0.00000000          1
H         5.52679384       6.27227010       2.82404986         0.00000000       0.00000000       0.00000000          1
H         4.44485944       4.91850838       5.01516998         0.00000000       0.00000000       0.00000000          1
6
pbc=[F, F, F] list_num_par=6 frozen=false iter=20000 energy=-1.26974174 Lattice="15.00000000 0.00000000 0.00000000 0.00000000 15.00000000 0.00000000 0.00000000 0.00000000 15.00000000" energy_frozen_part=0.00000000 Properties=species:S:1:pos:R:3:velocities:R:3:Z:I:1
H         2.40969081       3.91128456       3.38794406         0.00000000       0.00000000       0.00000000          1
H         5.08443586       3.51743669       2.68444898         0.00000000       0.00000000       0.00000000          1
H         3.49161734       5.26506131       1.19681901         0.00000000       0.00000000       0.00000000          1
H         2.85205157       6.66612647       3.52754389         0.00000000       0.00000000       0.00000000          1
H         5.52679665       6.27226987       2.82404558         0.00000000       0.00000000       0.00000000          1
H         4.44486671       4.91849882       5.01517099         0.00000000       0.00000000       0.00000000          1
6
pbc=[F, F, F] list_num_par=6 frozen=false iter=20000 energy=-1.26974174 Lattice="15.00000000 0.00000000 0.00000000 0.00000000 15.00000000 0.00000000 0.00000000 0.00000000 15.00000000" energy_frozen_part=0.00000000 Properties=species:S:1:pos:R:3:velocities:R:3:Z:I:1
H         2.40198552       3.91607480       3.38653652         0.00000000       0.00000000       0.00000000          1
H         5.07826090       3.51239128       2.69452884         0.00000000       0.00000000       0.00000000          1
H         3.49546472       5.25792752       1.19382038         0.00000000       0.00000000       0.00000000          1
H         2.85099329       6.67031699       3.51633224         0.00000000       0.00000000       0.00000000          1
H         5.52726762       6.26663070       2.82433279         0.00000000       0.00000000       0.00000000          1
H         4.43379053       4.92478123       5.01704767         0.00000000       0.00000000       0.00000000          1
6
pbc=[F, F, F] list_num_par=6 frozen=false iter=20000 energy=-1.26974174 Lattice="15.00000000 0.00000000 0.00000000 0.00000000 15.00000000 0.00000000 0.00000000 0.00000000 15.00000000" energy_frozen_part=0.00000000 Properties=species:S:1:pos:R:3:velocities:R:3:Z:I:1
H         2.40970438       3.91123360       3.38796182         0.00000000       0.00000000       0.00000000          1
H         5.08446443       3.51737808       2.68451579         0.00000000       0.00000000       0.00000000          1
H         3.49164668       5.26493400       1.19680771         0.00000000       0.00000000       0.00000000          1
H         2.85203704       6.66608195       3.52746444         0.00000000       0.00000000       0.00000000          1
H         5.52679883       6.27221950       2.82402012         0.00000000       0.00000000       0.00000000          1
H         4.44485208       4.91852663       5.01517726         0.00000000       0.00000000       0.00000000          1
6
pbc=[F, F, F] list_num_par=6 frozen=false iter=20000 energy=-1.26974174 Lattice="15.00000000 0.00000000 0.00000000 0.00000000 15.00000000 0.00000000 0.00000000 0.00000000 15.00000000" energy_frozen_part=0.00000000 Properties=species:S:1:pos:R:3:velocities:R:3:Z:I:1
H         2.40194441       3.91607067       3.38654370         0.00000000       0.00000000       0.00000000          1
H         5.07822496       3.51238631       2.69455829         0.00000000       0.00000000       0.00000000          1
H         3.49545388       5.25794058       1.19384004         0.00000000       0.00000000       0.00000000          1
H         2.85096552       6.67030823       3.51636790         0.00000000       0.00000000       0.00000000          1
H         5.52724260       6.26662253       2.82437957         0.00000000       0.00000000       0.00000000          1
H         4.43373977       4.92475758       5.01708127         0.00000000       0.00000000       0.00000000          1
6
pbc=[F, F, F] list_num_par=6 frozen=false iter=20000 energy=-1.26974174 Lattice="15.00000000 0.00000000 0.00000000 0.00000000 15.00000000 0.00000000 0.00000000 0.00000000 15.00000000" energy_frozen_part=0.00000000 Properties=species:S:1:pos:R:3:velocities:R:3:Z:I:1
H         2.40197831       3.91608836       3.38650464         0.00000000       0.00000000       0.00000000          1
H         5.07826012       3.51243300       2.69452058         0.00000000       0.00000000       0.00000000          1
H         3.49547103       5.25797893       1.19381106         0.00000000       0.00000000       0.00000000          1
H         2.85097548       6.67032918       3.51634268         0.00000000       0.00000000       0.00000000          1
H         5.52725528       6.26666824       2.82435972         0.00000000       0.00000000       0.00000000          1
H         4.43376420       4.92478370       5.01705560         0.00000000       0.00000000       0.00000000          1
6
pbc=[F, F, F] list_num_par=6 frozen=false iter=20000 energy=-1.26974174 Lattice="15.00000000 0.00000000 0.00000000 0.00000000 15.00000000 0.00000000 0.00000000 0.00000000 15.00000000" energy_frozen_part=0.00000000 Properties=species:S:1:pos:R:3:velocities:R:3:Z:I:1
H         2.40963115       3.91151359       3.38780229         0.00000000       0.00000000       0.00000000          1
H         5.08435861       3.51747548       2.68433798         0.00000000       0.00000000       0.00000000          1
H         3.49168844       5.26521044       1.19669372         0.00000000       0.00000000       0.00000000          1
H         2.85218808       6.66631974       3.52741289         0.00000000       0.00000000       0.00000000          1
H         5.52691454       6.27227657       2.82395205         0.00000000       0.00000000       0.00000000          1
H         4.44486273       4.91857713       5.01505264         0.00000000       0.00000000       0.00000000          1
6
pbc=[F, F, F] list_num_par=6 frozen=false iter=20000 energy=-1.26974174 Lattice="15.00000000 0.00000000 0.00000000 0.00000000 15.00000000 0.00000000 0.00000000 0.00000000 15.00000000" energy_frozen_part=0.00000000 Properties=species:S:1:pos:R:3:velocities:R:3:Z:I:1
H         2.40194431       3.91608487       3.38653994         0.00000000       0.00000000       0.00000000          1
H         5.07823752       3.51238686       2.69461951         0.00000000       0.00000000       0.00000000          1
H         3.49551032       5.25796327       1.19387647         0.00000000       0.00000000       0.00000000          1
H         2.85096747       6.67031453       3.51639691         0.00000000       0.00000000       0.00000000          1
H         5.52726664       6.26662685       2.82447745         0.00000000       0.00000000       0.00000000          1
H         4.43370043       4.92475050       5.01713894         0.00000000       0.00000000       0.00000000          1
6
pbc=[F, F, F] list_num_par=6 frozen=false iter=20000 energy=-1.26974174 Lattice="15.00000000 0.00000000 0.00000000 0.00000000 15.00000000 0.00000000 0.00000000 0.00000000 15.00000000" energy_frozen_part=0.00000000 Properties=species:S:1:pos:R:3:velocities:R:3:Z:I:1
H         2.40964826       3.91155634       3.38780696         0.00000000       0.00000000       0.00000000          1
H         5.08440335       3.51747746       2.68445494         0.00000000       0.00000000       0.00000000          1
H         3.49178023       5.26514917       1.19666728         0.00000000       0.00000000       0.00000000          1
H         2.85220437       6.66636302       3.52729310         0.00000000       0.00000000       0.00000000          1
H         5.52695263       6.27228666       2.82394533         0.00000000       0.00000000       0.00000000          1
H         4.44482315       4.91869551       5.01507952         0.00000000       0.00000000       0.00000000          1
6
pbc=[F, F, F] list_num_par=6 frozen=false iter=20000 energy=-1.26974174 Lattice="15.00000000 0.00000000 0.00000000 0.00000000 15.00000000 0.00000000 0.00000000 0.00000000 15.00000000" energy_frozen_part=0.00000000 Properties=species:S:1:pos:R:3:velocities:R:3:Z:I:1
H         2.40208609       3.91595796       3.38653400         0.00000000       0.00000000       0.00000000          1
H         5.07842146       3.51242012       2.69466532         0.00000000       0.00000000       0.00000000          1
H         3.49559141       5.25783038       1.19383433         0.00000000       0.00000000       0.00000000          1
H         2.85092304       6.67022216       3.51629908         0.00000000       0.00000000       0.00000000          1
H         5.52725614       6.26669259       2.82443382         0.00000000       0.00000000       0.00000000          1
H         4.43375037       4.92481381       5.01712766         0.00000000       0.00000000       0.00000000          1
6
pbc=[F, F, F] list_num_par=6 frozen=false iter=20000 energy=-1.26974174 Lattice="15.00000000 0.00000000 0.00000000 0.00000000 15.00000000 0.00000000 0.00000000 0.00000000 15.00000000" energy_frozen_part=0.00000000 Properties=species:S:1:pos:R:3:velocities:R:3:Z:I:1
H         2.40968688       3.91128576       3.38794371         0.00000000       0.00000000       0.00000000          1
H         5.08443195       3.51743570       2.68445834         0.00000000       0.00000000       0.00000000          1
H         3.49161481       5.26504800       1.19681877         0.00000000       0.00000000       0.00000000          1
H         2.85204935       6.66612729       3.52752690         0.00000000       0.00000000       0.00000000          1
H         5.52679816       6.27226837       2.82403594         0.00000000       0.00000000       0.00000000          1
H         4.44485927       4.91851110       5.01516582         0.00000000       0.00000000       0.00000000          1
6
pbc=[F, F, F] list_num_par=6 frozen=false iter=20000 energy=-1.26974174 Lattice="15.00000000 0.00000000 0.00000000 0.00000000 15.00000000 0.00000000 0.00000000 0.00000000 15.00000000" energy_frozen_part=0.00000000 Properties=species:S:1:pos:R:3:velocities:R:3:Z:I:1
H         2.40968916       3.91129185       3.38794051         0.00000000       0.00000000       0.00000000          1
H         5.08443700       3.51743800       2.68444365         0.00000000       0.00000000       0.00000000          1
H         3.49162716       5.26505771       1.19681643         0.00000000       0.00000000       0.00000000          1
H         2.85205862       6.66612743       3.52753290         0.00000000       0.00000000       0.00000000          1
H         5.52680173       6.27227549       2.82403846         0.00000000       0.00000000       0.00000000          1
H         4.44486644       4.91850542       5.01515931         0.00000000       0.00000000       0.00000000          1
6
pbc=[F, F, F] list_num_par=6 frozen=false iter=20000 energy=-1.26974174 Lattice="15.00000000 0.00000000 0.00000000 0.00000000 15.00000000 0.00000000 0.00000000 0.00000000 15.00000000" energy_frozen_part=0.00000000 Properties=species:S:1:pos:R:3:velocities:R:3:Z:I:1
H         2.41010161       3.89684299       3.37563697         0.00000000       0.00000000       0.00000000          1
H         5.08190689       3.51533065       2.65440910         0.00000000       0.00000000       0.00000000          1
H         3.47646012       5.27023198       1.18909162         0.00000000       0.00000000       0.00000000          1
H         2.84621639       6.65165178       3.53403305         0.00000000       0.00000000       0.00000000          1
H         5.51802428       6.27014538       2.81281125         0.00000000       0.00000000       0.00000000          1
H         4.45166983       4.89676191       4.99935081         0.00000000       0.00000000       0.00000000          1
6
pbc=[F, F, F] list_num_par=6 frozen=false iter=20000 energy=-1.26974174 Lattice="15.00000000 0.00000000 0.00000000 0.00000000 15.00000000 0.00000000 0.00000000 0.00000000 15.00000000" energy_frozen_part=0.00000000 Properties=species:S:1:pos:R:3:velocities:R:3:Z:I:1
H         2.40968692       3.91145682       3.38789564         0.00000000       0.00000000       0.00000000          1
H         5.08439106       3.51741299       2.68434012         0.00000000       0.00000000       0.00000000          1
H         3.49166035       5.26512767       1.19672997         0.00000000       0.00000000       0.00000000          1
H         2.85224830       6.66625787       3.52744580         0.00000000       0.00000000       0.00000000          1
H         5.52694809       6.27221758       2.82389443         0.00000000       0.00000000       0.00000000          1
H         4.44497554       4.91854709       5.01506314         0.00000000       0.00000000       0.00000000          1
6
pbc=[F, F, F] list_num_par=6 frozen=false iter=20000 energy=-1.26974174 Lattice="15.00000000 0.00000000 0.00000000 0.00000000 15.00000000 0.00000000 0.00000000 0.00000000 15.00000000" energy_frozen_part=0.00000000 Properties=species:S:1:pos:R:3:velocities:R:3:Z:I:1
H         2.40963611       3.91150097       3.38777970         0.00000000       0.00000000       0.00000000          1
H         5.08436694       3.51746835       2.68433636         0.00000000       0.00000000       0.00000000          1
H         3.49169678       5.26519373       1.19667353         0.00000000       0.00000000       0.00000000          1
H         2.85218973       6.66630208       3.52737946         0.00000000       0.00000000       0.00000000          1
H         5.52691910       6.27227123       2.82393427         0.00000000       0.00000000       0.00000000          1
H         4.44486086       4.91857670       5.01504031         0.00000000       0.00000000       0.00000000          1
6
pbc=[F, F, F] list_num_par=6 frozen=false iter=20000 energy=-1.26974174 Lattice="15.00000000 0.00000000 0.00000000 0.00000000 15.00000000 0.00000000 0.00000000 0.00000000 15.00000000" energy_frozen_part=0.00000000 Properties=species:S:1:pos:R:3:velocities:R:3:Z:I:1
H         2.40208508       3.91596409       3.38653442         0.00000000       0.00000000       0.00000000          1
H         5.07841519       3.51242881       2.69467118         0.00000000       0.00000000       0.00000000          1
H         3.49559071       5.25783483       1.19383653         0.00000000       0.00000000       0.00000000          1
H         2.85091836       6.67023208       3.51630027         0.00000000       0.00000000       0.00000000          1
H         5.52725287       6.26669749       2.82443173         0.00000000       0.00000000       0.00000000          1
H         4.43375399       4.92482443       5.01712952         0.00000000       0.00000000       0.00000000          1
6
pbc=[F, F, F] list_num_par=6 frozen=false iter=20000 energy=-1.26974174 Lattice="15.00000000 0.00000000 0.00000000 0.00000000 15.00000000 0.00000000 0.00000000 0.00000000 15.00000000" energy_frozen_part=0.00000000 Properties=species:S:1:pos:R:3:velocities:R:3:Z:I:1
H         2.40962243       3.91148593       3.38786235         0.00000000       0.00000000       0.00000000          1
H         5.08433818       3.51747713       2.68432973         0.00000000       0.00000000       0.00000000          1
H         3.49159410       5.26518192       1.19672332         0.00000000       0.00000000       0.00000000          1
H         2.85214075       6.66629699       3.52744801         0.00000000       0.00000000       0.00000000          1
H         5.52685469       6.27228869       2.82391092         0.00000000       0.00000000       0.00000000          1
H         4.44487935       4.91859112       5.01505394         0.00000000       0.00000000       0.00000000          1
6
pbc=[F, F, F] list_num_par=6 frozen=false iter=20000 energy=-1.26974174 Lattice="15.00000000 0.00000000 0.00000000 0.00000000 15.00000000 0.00000000 0.00000000 0.00000000 15.00000000" energy_frozen_part=0.00000000 Properties=species:S:1:pos:R:3:velocities:R:3:Z:I:1
H         2.40991447       3.91037726       3.38785527         0.00000000       0.00000000       0.00000000          1
H         5.08439455       3.51706892       2.68305116         0.00000000       0.00000000       0.00000000          1
H         3.49083842       5.26532465       1.19696035         0.00000000       0.00000000       0.00000000          1
H         2.85213149       6.66517197       3.52865061         0.00000000       0.00000000       0.00000000          1
H         5.52661176       6.27186744       2.82384764         0.00000000       0.00000000       0.00000000          1
H         4.44569369       4.91691196       5.01474289         0.00000000       0.00000000       0.00000000          1
6
pbc=[F, F, F] list_num_par=6 frozen=false iter=20000 energy=-1.26974174 Lattice="15.00000000 0.00000000 0.00000000 0.00000000 15.00000000 0.00000000 0.00000000 0.00000000 15.00000000" energy_frozen_part=0.00000000 Properties=species:S:1:pos:R:3:velocities:R:3:Z:I:1
H         2.40963575       3.91148693       3.38778898         0.00000000       0.00000000       0.00000000          1
H         5.08436419       3.51746097       2.68434265         0.00000000       0.00000000       0.00000000          1
H         3.49168937       5.26519461       1.19669329         0.00000000       0.00000000       0.00000000          1
H         2.85217638       6.66629018       3.52740412         0.00000000       0.00000000       0.00000000          1
H         5.52690364       6.27226749       2.82395371         0.00000000       0.00000000       0.00000000          1
H         4.44485566       4.91856197       5.01505514         0.00000000       0.00000000       0.00000000          1
6
pbc=[F, F, F] list_num_par=6 frozen=false iter=20000 energy=-1.26974174 Lattice="15.00000000 0.00000000 0.00000000 0.00000000 15.00000000 0.00000000 0.00000000 0.00000000 15.00000000" energy_frozen_part=0.00000000 Properties=species:S:1:pos:R:3:velocities:R:3:Z:I:1
H         2.40967561       3.91146230       3.38785454         0.00000000       0.00000000       0.00000000          1
H         5.08438851       3.51738750       2.68436098         0.00000000       0.00000000       0.00000000          1
H         3.49171394       5.26514318       1.19673225         0.00000000       0.00000000       0.00000000          1
H         2.85226262       6.66625903       3.52745260         0.00000000       0.00000000       0.00000000          1
H         5.52697062       6.27219225       2.82396189         0.00000000       0.00000000       0.00000000          1
H         4.44493108       4.91850621       5.01508388         0.00000000       0.00000000       0.00000000          1
6
pbc=[F, F, F] list_num_par=6 frozen=false iter=20000 energy=-1.26974174 Lattice="15.00000000 0.00000000 0.00000000 0.00000000 15.00000000 0.00000000 0.00000000 0.00000000 15.00000000" energy_frozen_part=0.00000000 Properties=species:S:1:pos:R:3:velocities:R:3:Z:I:1
H         2.40196966       3.91607347       3.38652503         0.00000000       0.00000000       0.00000000          1
H         5.07824219       3.51238929       2.69451182         0.00000000       0.00000000       0.00000000          1
H         3.49544627       5.25794104       1.19381801         0.00000000       0.00000000       0.00000000          1
H         2.85097700       6.67030447       3.51635585         0.00000000       0.00000000       0.00000000          1
H         5.52725259       6.26662687       2.82433937         0.00000000       0.00000000       0.00000000          1
H         4.43378199       4.92475546       5.01704414         0.00000000       0.00000000       0.00000000          1
6
pbc=[F, F, F] list_num_par=6 frozen=false iter=20000 energy=-1.26974174 Lattice="15.00000000 0.00000000 0.00000000 0.00000000 15.00000000 0.00000000 0.00000000 0.00000000 15.00000000" energy_frozen_part=0.00000000 Properties=species:S:1:pos:R:3:velocities:R:3:Z:I:1
H         2.40208771       3.91596068       3.38653275         0.00000000       0.00000000       0.00000000          1
H         5.07841710       3.51242407       2.69466596         0.00000000       0.00000000       0.00000000          1
H         3.49559791       5.25784084       1.19384422         0.00000000       0.00000000       0.00000000          1
H         2.85092719       6.67023313       3.51630424         0.00000000       0.00000000       0.00000000          1
H         5.52726205       6.26668721       2.82444623         0.00000000       0.00000000       0.00000000          1
H         4.43374937       4.92481667       5.01713265         0.00000000       0.00000000       0.00000000          1
6
pbc=[F, F, F] list_num_par=6 frozen=false iter=20000 energy=-1.26974174 Lattice="15.00000000 0.00000000 0.00000000 0.00000000 15.00000000 0.00000000 0.00000000 0.00000000 15.00000000" energy_frozen_part=0.00000000 Properties=species:S:1:pos:R:3:velocities:R:3:Z:I:1
H         2.40199809       3.91606857       3.38652464         0.00000000       0.00000000       0.00000000          1
H         5.07828181       3.51240863       2.69452566         0.00000000       0.00000000       0.00000000          1
H         3.49547479       5.25793370       1.19380977         0.00000000       0.00000000       0.00000000          1
H         2.85098463       6.67031316       3.51633253         0.00000000       0.00000000       0.00000000          1
H         5.52726412       6.26665160       2.82432668         0.00000000       0.00000000       0.00000000          1
H         4.43378971       4.92478394       5.01704963         0.00000000       0.00000000       0.00000000          1
6
pbc=[F, F, F] list_num_par=6 frozen=false iter=20000 energy=-1.26974174 Lattice="15.00000000 0.00000000 0.00000000 0.00000000 15.00000000 0.00000000 0.00000000 0.00000000 15.00000000" energy_frozen_part=0.00000000 Properties=species:S:1:pos:R:3:velocities:R:3:Z:I:1
H         8.05922848       8.24377015       2.06331969         0.00000000       0.00000000       0.00000000          1
H         5.97456979       9.46237275       3.46812503         0.00000000       0.00000000       0.00000000          1
H         5.71928842       8.98246194       0.72791235         0.00000000       0.00000000       0.00000000          1
H         6.00892077      11.59753338       1.66695884         0.00000000       0.00000000       0.00000000          1
H         8.34885201      10.85883888       3.00237604         0.00000000       0.00000000       0.00000000          1
H         8.09357499      10.37892704       0.26215320         0.00000000       0.00000000       0.00000000          1
6
pbc=[F, F, F] list_num_par=6 frozen=false iter=20000 energy=-1.26974174 Lattice="15.00000000 0.00000000 0.00000000 0.00000000 15.00000000 0.00000000 0.00000000 0.00000000 15.00000000" energy_frozen_part=0.00000000 Properties=species:S:1:pos:R:3:velocities:R:3:Z:I:1
H         8.05923212       8.24377099       2.06331950         0.00000000       0.00000000       0.00000000          1
H         5.97456766       9.46237610       3.46813034         0.00000000       0.00000000       0.00000000          1
H         5.71929287       8.98245791       0.72791276         0.00000000       0.00000000       0.00000000          1
H         6.00891814      11.59752737       1.66696037         0.00000000       0.00000000       0.00000000          1
H         8.34885997      10.85884051       3.00236338         0.00000000       0.00000000       0.00000000          1
H         8.09357431      10.37892921       0.26214428         0.00000000       0.00000000       0.00000000          1
6
pbc=[F, F, F] list_num_par=6 frozen=false iter=20000 energy=-1.26974174 Lattice="15.00000000 0.00000000 0.00000000 0.00000000 15.00000000 0.00000000 0.00000000 0.00000000 15.00000000" energy_frozen_part=0.00000000 Properties=species:S:1:pos:R:3:velocities:R:3:Z:I:1
H         2.40970450       3.91124009       3.38795042         0.00000000       0.00000000       0.00000000          1
H         5.08446370       3.51737515       2.68451592         0.00000000       0.00000000       0.00000000          1
H         3.49166517       5.26494525       1.19680223         0.00000000       0.00000000       0.00000000          1
H         2.85203933       6.66607634       3.52746805         0.00000000       0.00000000       0.00000000          1
H         5.52680117       6.27222288       2.82403534         0.00000000       0.00000000       0.00000000          1
H         4.44484729       4.91851536       5.01518088         0.00000000       0.00000000       0.00000000          1
6
pbc=[F, F, F] list_num_par=6 frozen=false iter=20000 energy=-1.26974174 Lattice="15.00000000 0.00000000 0.00000000 0.00000000 15.00000000 0.00000000 0.00000000 0.00000000 15.00000000" energy_frozen_part=0.00000000 Properties=species:S:1:pos:R:3:velocities:R:3:Z:I:1
H         2.40969783       3.91125165       3.38795478         0.00000000       0.00000000       0.00000000          1
H         5.08445132       3.51740233       2.68449197         0.00000000       0.00000000       0.00000000          1
H         3.49163983       5.26497919       1.19681309         0.00000000       0.00000000       0.00000000          1
H         2.85204483       6.66609262       3.52749371         0.00000000       0.00000000       0.00000000          1
H         5.52680177       6.27224532       2.82403524         0.00000000       0.00000000       0.00000000          1
H         4.44485644       4.91851142       5.01517795         0.00000000       0.00000000       0.00000000          1
6
pbc=[F, F, F] list_num_par=6 frozen=false iter=20000 energy=-1.26974174 Lattice="15.00000000 0.00000000 0.00000000 0.00000000 15.00000000 0.00000000 0.00000000 0.00000000 15.00000000" energy_frozen_part=0.00000000 Properties=species:S:1:pos:R:3:velocities:R:3:Z:I:1
H         2.40196931       3.91607284       3.38653127         0.00000000       0.00000000       0.00000000          1
H         5.07823703       3.51239921       2.69450441         0.00000000       0.00000000       0.00000000          1
H         3.49543831       5.25795539       1.19381980         0.00000000       0.00000000       0.00000000          1
H         2.85097630       6.67030389       3.51636616         0.00000000       0.00000000       0.00000000          1
H         5.52725005       6.26663718       2.82434205         0.00000000       0.00000000       0.00000000          1
H         4.43378351       4.92474890       5.01705189         0.00000000       0.00000000       0.00000000          1
6
pbc=[F, F, F] list_num_par=6 frozen=false iter=20000 energy=-1.26974174 Lattice="15.00000000 0.00000000 0.00000000 0.00000000 15.00000000 0.00000000 0.00000000 0.00000000 15.00000000" energy_frozen_part=0.00000000 Properties=species:S:1:pos:R:3:velocities:R:3:Z:I:1
H         2.40962954       3.91147194       3.38786744         0.00000000       0.00000000       0.00000000          1
H         5.08434450       3.51747612       2.68433511         0.00000000       0.00000000       0.00000000          1
H         3.49159372       5.26516948       1.19672163         0.00000000       0.00000000       0.00000000          1
H         2.85212762       6.66628471       3.52743899         0.00000000       0.00000000       0.00000000          1
H         5.52684474       6.27228831       2.82390584         0.00000000       0.00000000       0.00000000          1
H         4.44487718       4.91858812       5.01505899         0.00000000       0.00000000       0.00000000          1
6
pbc=[F, F, F] list_num_par=6 frozen=false iter=20000 energy=-1.26974174 Lattice="15.00000000 0.00000000 0.00000000 0.00000000 15.00000000 0.00000000 0.00000000 0.00000000 15.00000000" energy_frozen_part=0.00000000 Properties=species:S:1:pos:R:3:velocities:R:3:Z:I:1
H         2.40969644       3.91124195       3.38779624         0.00000000       0.00000000       0.00000000          1
H         5.08444321       3.51740372       2.68430095         0.00000000       0.00000000       0.00000000          1
H         3.49163373       5.26505377       1.19669483         0.00000000       0.00000000       0.00000000          1
H         2.85205806       6.66607383       3.52744352         0.00000000       0.00000000       0.00000000          1
H         5.52680026       6.27223660       2.82394696         0.00000000       0.00000000       0.00000000          1
H         4.44486927       4.91842869       5.01504762         0.00000000       0.00000000       0.00000000          1
6
pbc=[F, F, F] list_num_par=6 frozen=false iter=20000 energy=-1.26974174 Lattice="15.00000000 0.00000000 0.00000000 0.00000000 15.00000000 0.00000000 0.00000000 0.00000000 15.00000000" energy_frozen_part=0.00000000 Properties=species:S:1:pos:R:3:velocities:R:3:Z:I:1
H         2.40195768       3.91607893       3.38654712         0.00000000       0.00000000       0.00000000          1
H         5.07823836       3.51238833       2.69457399         0.00000000       0.00000000       0.00000000          1
H         3.49546855       5.25794024       1.19384632         0.00000000       0.00000000       0.00000000          1
H         2.85097323       6.67031804       3.51636311         0.00000000       0.00000000       0.00000000          1
H         5.52726158       6.26662686       2.82438713         0.00000000       0.00000000       0.00000000          1
H         4.43374408       4.92477149       5.01709245         0.00000000       0.00000000       0.00000000          1
6
pbc=[F, F, F] list_num_par=6 frozen=false iter=20000 energy=-1.26974174 Lattice="15.00000000 0.00000000 0.00000000 0.00000000 15.00000000 0.00000000 0.00000000 0.00000000 15.00000000" energy_frozen_part=0.00000000 Properties=species:S:1:pos:R:3:velocities:R:3:Z:I:1
H         2.40964198       3.91150338       3.38778465         0.00000000       0.00000000       0.00000000          1
H         5.08436652       3.51747500       2.68431518         0.00000000       0.00000000       0.00000000          1
H         3.49168718       5.26521505       1.19668046         0.00000000       0.00000000       0.00000000          1
H         2.85218323       6.66630080       3.52740949         0.00000000       0.00000000       0.00000000          1
H         5.52690681       6.27227788       2.82394731         0.00000000       0.00000000       0.00000000          1
H         4.44486363       4.91855847       5.01504450         0.00000000       0.00000000       0.00000000          1
6
pbc=[F, F, F] list_num_par=6 frozen=false iter=20000 energy=-1.26974174 Lattice="15.00000000 0.00000000 0.00000000 0.00000000 15.00000000 0.00000000 0.00000000 0.00000000 15.00000000" energy_frozen_part=0.00000000 Properties=species:S:1:pos:R:3:velocities:R:3:Z:I:1
H         2.40964982       3.91155104       3.38780250         0.00000000       0.00000000       0.00000000          1
H         5.08440236       3.51746954       2.68446612         0.00000000       0.00000000       0.00000000          1
H         3.49179188       5.26513329       1.19666193         0.00000000       0.00000000       0.00000000          1
H         2.85220011       6.66636068       3.52727557         0.00000000       0.00000000       0.00000000          1
H         5.52695665       6.27228189       2.82394549         0.00000000       0.00000000       0.00000000          1
H         4.44481879       4.91869792       5.01507800         0.00000000       0.00000000       0.00000000          1
6
pbc=[F, F, F] list_num_par=6 frozen=false iter=20000 energy=-1.26974174 Lattice="15.00000000 0.00000000 0.00000000 0.00000000 15.00000000 0.00000000 0.00000000 0.00000000 15.00000000" energy_frozen_part=0.00000000 Properties=species:S:1:pos:R:3:velocities:R:3:Z:I:1
H         2.40973553       3.91146951       3.38778997         0.00000000       0.00000000       0.00000000          1
H         5.08448090       3.51747570       2.68436847         0.00000000       0.00000000       0.00000000          1
H         3.49178699       5.26514228       1.19666755         0.00000000       0.00000000       0.00000000          1
H         2.85222857       6.66628879       3.52734365         0.00000000       0.00000000       0.00000000          1
H         5.52697108       6.27228944       2.82392812         0.00000000       0.00000000       0.00000000          1
H         4.44492234       4.91860773       5.01504761         0.00000000       0.00000000       0.00000000          1
6
pbc=[F, F, F] list_num_par=6 frozen=false iter=20000 energy=-1.26974174 Lattice="15.00000000 0.00000000 0.00000000 0.00000000 15.00000000 0.00000000 0.00000000 0.00000000 15.00000000" energy_frozen_part=0.00000000 Properties=species:S:1:pos:R:3:velocities:R:3:Z:I:1
H         2.40965556       3.91155885       3.38782129         0.00000000       0.00000000       0.00000000          1
H         5.08441037       3.51749143       2.68448971         0.00000000       0.00000000       0.00000000          1
H         3.49179163       5.26513267       1.19667854         0.00000000       0.00000000       0.00000000          1
H         2.85218421       6.66637024       3.52728068         0.00000000       0.00000000       0.00000000          1
H         5.52694326       6.27230770       2.82394852         0.00000000       0.00000000       0.00000000          1
H         4.44481527       4.91873969       5.01509373         0.00000000       0.00000000       0.00000000          1
6
pbc=[F, F, F] list_num_par=6 frozen=false iter=20000 energy=-1.26974174 Lattice="15.00000000 0.00000000 0.00000000 0.00000000 15.00000000 0.00000000 0.00000000 0.00000000 15.00000000" energy_frozen_part=0.00000000 Properties=species:S:1:pos:R:3:velocities:R:3:Z:I:1
H         2.40964946       3.91155150       3.38779403         0.00000000       0.00000000       0.00000000          1
H         5.08440082       3.51747063       2.68445866         0.00000000       0.00000000       0.00000000          1
H         3.49179220       5.26513599       1.19666357         0.00000000       0.00000000       0.00000000          1
H         2.85220671       6.66636228       3.52727773         0.00000000       0.00000000       0.00000000          1
H         5.52696043       6.27227492       2.82394648         0.00000000       0.00000000       0.00000000          1
H         4.44481823       4.91868949       5.01507519         0.00000000       0.00000000       0.00000000          1
6
pbc=[F, F, F] list_num_par=6 frozen=false iter=20000 energy=-1.26974174 Lattice="15.00000000 0.00000000 0.00000000 0.00000000 15.00000000 0.00000000 0.00000000 0.00000000 15.00000000" energy_frozen_part=0.00000000 Properties=species:S:1:pos:R:3:velocities:R:3:Z:I:1
H         2.40964063       3.91148346       3.38778673         0.00000000       0.00000000       0.00000000          1
H         5.08437350       3.51746124       2.68433108         0.00000000       0.00000000       0.00000000          1
H         3.49169838       5.26519804       1.19668657         0.00000000       0.00000000       0.00000000          1
H         2.85217970       6.66628788       3.52741064         0.00000000       0.00000000       0.00000000          1
H         5.52690796       6.27226457       2.82396063         0.00000000       0.00000000       0.00000000          1
H         4.44485604       4.91854372       5.01505549         0.00000000       0.00000000       0.00000000          1
6
pbc=[F, F, F] list_num_par=6 frozen=false iter=20000 energy=-1.26974174 Lattice="15.00000000 0.00000000 0.00000000 0.00000000 15.00000000 0.00000000 0.00000000 0.00000000 15.00000000" energy_frozen_part=0.00000000 Properties=species:S:1:pos:R:3:velocities:R:3:Z:I:1
H         2.40197054       3.91608070       3.38649336         0.00000000       0.00000000       0.00000000          1
H         5.07825868       3.51240467       2.69453917         0.00000000       0.00000000       0.00000000          1
H         3.49548275       5.25794559       1.19380602         0.00000000       0.00000000       0.00000000          1
H         2.85095957       6.67031667       3.51632058         0.00000000       0.00000000       0.00000000          1
H         5.52724969       6.26664776       2.82436210         0.00000000       0.00000000       0.00000000          1
H         4.43374044       4.92478001       5.01705223         0.00000000       0.00000000       0.00000000          1
6
pbc=[F, F, F] list_num_par=6 frozen=false iter=20000 energy=-1.26974174 Lattice="15.00000000 0.00000000 0.00000000 0.00000000 15.00000000 0.00000000 0.00000000 0.00000000 15.00000000" energy_frozen_part=0.00000000 Properties=species:S:1:pos:R:3:velocities:R:3:Z:I:1
H         2.40963188       3.91149217       3.38779447         0.00000000       0.00000000       0.00000000          1
H         5.08436060       3.51746946       2.68433366         0.00000000       0.00000000       0.00000000          1
H         3.49168252       5.26520120       1.19668827         0.00000000       0.00000000       0.00000000          1
H         2.85217456       6.66629800       3.52740412         0.00000000       0.00000000       0.00000000          1
H         5.52690428       6.27227058       2.82393978         0.00000000       0.00000000       0.00000000          1
H         4.44485399       4.91856317       5.01504707         0.00000000       0.00000000       0.00000000          1
6
pbc=[F, F, F] list_num_par=6 frozen=false iter=20000 energy=-1.26974174 Lattice="15.00000000 0.00000000 0.00000000 0.00000000 15.00000000 0.00000000 0.00000000 0.00000000 15.00000000" energy_frozen_part=0.00000000 Properties=species:S:1:pos:R:3:velocities:R:3:Z:I:1
H         2.40964519       3.91158734       3.38781204         0.00000000       0.00000000       0.00000000          1
H         5.08439874       3.51748751       2.68449150         0.00000000       0.00000000       0.00000000          1
H         3.49179778       5.26513369       1.19666387         0.00000000       0.00000000       0.00000000          1
H         2.85220663       6.66639219       3.52726192         0.00000000       0.00000000       0.00000000          1
H         5.52695995       6.27229403       2.82394492         0.00000000       0.00000000       0.00000000          1
H         4.44480980       4.91874809       5.01509172         0.00000000       0.00000000       0.00000000          1
6
pbc=[F, F, F] list_num_par=6 frozen=false iter=20000 energy=-1.26974174 Lattice="15.00000000 0.00000000 0.00000000 0.00000000 15.00000000 0.00000000 0.00000000 0.00000000 15.00000000" energy_frozen_part=0.00000000 Properties=species:S:1:pos:R:3:velocities:R:3:Z:I:1
H         8.05923151       8.24376374       2.06332096         0.00000000       0.00000000       0.00000000          1
H         5.97459719       9.46238665       3.46814919         0.00000000       0.00000000       0.00000000          1
H         5.71928855       8.98245855       0.72792999         0.00000000       0.00000000       0.00000000          1
H         6.00893204      11.59753046       1.66696855         0.00000000       0.00000000       0.00000000          1
H         8.34888747      10.85884057       3.00235169         0.00000000       0.00000000       0.00000000          1
H         8.09357355      10.37891471       0.26214078         0.00000000       0.00000000       0.00000000          1
6
pbc=[F, F, F] list_num_par=6 frozen=false iter=20000 energy=-1.26974174 Lattice="15.00000000 0.00000000 0.00000000 0.00000000 15.00000000 0.00000000 0.00000000 0.00000000 15.00000000" energy_frozen_part=0.00000000 Properties=species:S:1:pos:R:3:velocities:R:3:Z:I:1
H         2.40197243       3.91607625       3.38653539         0.00000000       0.00000000       0.00000000          1
H         5.07824109       3.51239388       2.69449726         0.00000000       0.00000000       0.00000000          1
H         3.49543378       5.25795351       1.19382418         0.00000000       0.00000000       0.00000000          1
H         2.85098090       6.67030681       3.51637077         0.00000000       0.00000000       0.00000000          1
H         5.52724995       6.26663438       2.82433662         0.00000000       0.00000000       0.00000000          1
H         4.43379120       4.92475447       5.01704564         0.00000000       0.00000000       0.00000000          1
6
pbc=[F, F, F] list_num_par=6 frozen=false iter=20000 energy=-1.26974174 Lattice="15.00000000 0.00000000 0.00000000 0.00000000 15.00000000 0.00000000 0.00000000 0.00000000 15.00000000" energy_frozen_part=0.00000000 Properties=species:S:1:pos:R:3:velocities:R:3:Z:I:1
H         2.40198415       3.91606610       3.38651323         0.00000000       0.00000000       0.00000000          1
H         5.07827695       3.51241226       2.69456405         0.00000000       0.00000000       0.00000000          1
H         3.49550986       5.25798242       1.19385981         0.00000000       0.00000000       0.00000000          1
H         2.85097448       6.67030753       3.51640220         0.00000000       0.00000000       0.00000000          1
H         5.52726544       6.26664697       2.82445377         0.00000000       0.00000000       0.00000000          1
H         4.43373677       4.92473733       5.01711125         0.00000000       0.00000000       0.00000000          1
6
pbc=[F, F, F] list_num_par=6 frozen=false iter=20000 energy=-1.26974174 Lattice="15.00000000 0.00000000 0.00000000 0.00000000 15.00000000 0.00000000 0.00000000 0.00000000 15.00000000" energy_frozen_part=0.00000000 Properties=species:S:1:pos:R:3:velocities:R:3:Z:I:1
H         2.40963554       3.91148143       3.38778069         0.00000000       0.00000000       0.00000000          1
H         5.08437102       3.51746377       2.68433211         0.00000000       0.00000000       0.00000000          1
H         3.49169106       5.26519183       1.19669130         0.00000000       0.00000000       0.00000000          1
H         2.85216658       6.66628856       3.52740196         0.00000000       0.00000000       0.00000000          1
H         5.52690122       6.27226893       2.82395433         0.00000000       0.00000000       0.00000000          1
H         4.44484582       4.91855322       5.01505001         0.00000000       0.00000000       0.00000000          1
6
pbc=[F, F, F] list_num_par=6 frozen=false iter=20000 energy=-1.26974174 Lattice="15.00000000 0.00000000 0.00000000 0.00000000 15.00000000 0.00000000 0.00000000 0.00000000 15.00000000" energy_frozen_part=0.00000000 Properties=species:S:1:pos:R:3:velocities:R:3:Z:I:1
H         2.40199419       3.91609796       3.38652831         0.00000000       0.00000000       0.00000000          1
H         5.07827932       3.51244479       2.69453447         0.00000000       0.00000000       0.00000000          1
H         3.49546187       5.25796913       1.19381530         0.00000000       0.00000000       0.00000000          1
H         2.85096570       6.67033824       3.51634093         0.00000000       0.00000000       0.00000000          1
H         5.52724408       6.26669051       2.82434351         0.00000000       0.00000000       0.00000000          1
H         4.43377747       4.92481464       5.01705796         0.00000000       0.00000000       0.00000000          1
6
pbc=[F, F, F] list_num_par=6 frozen=false iter=20000 energy=-1.26974174 Lattice="15.00000000 0.00000000 0.00000000 0.00000000 15.00000000 0.00000000 0.00000000 0.00000000 15.00000000" energy_frozen_part=0.00000000 Properties=species:S:1:pos:R:3:velocities:R:3:Z:I:1
H         2.40972773       3.91122775       3.38778190         0.00000000       0.00000000       0.00000000          1
H         5.08449588       3.51743949       2.68431987         0.00000000       0.00000000       0.00000000          1
H         3.49165361       5.26502061       1.19667670         0.00000000       0.00000000       0.00000000          1
H         2.85202200       6.66607348       3.52738948         0.00000000       0.00000000       0.00000000          1
H         5.52678528       6.27228887       2.82392500         0.00000000       0.00000000       0.00000000          1
H         4.44485856       4.91848728       5.01503038         0.00000000       0.00000000       0.00000000          1
6
pbc=[F, F, F] list_num_par=6 frozen=false iter=20000 energy=-1.26974174 Lattice="15.00000000 0.00000000 0.00000000 0.00000000 15.00000000 0.00000000 0.00000000 0.00000000 15.00000000" energy_frozen_part=0.00000000 Properties=species:S:1:pos:R:3:velocities:R:3:Z:I:1
H         2.40967789       3.91146077       3.38784850         0.00000000       0.00000000       0.00000000          1
H         5.08438718       3.51741019       2.68434214         0.00000000       0.00000000       0.00000000          1
H         3.49169899       5.26514563       1.19671342         0.00000000       0.00000000       0.00000000          1
H         2.85224441       6.66625850       3.52743426         0.00000000       0.00000000       0.00000000          1
H         5.52695369       6.27221016       2.82393343         0.00000000       0.00000000       0.00000000          1
H         4.44493384       4.91852377       5.01506816         0.00000000       0.00000000       0.00000000          1
6
pbc=[F, F, F] list_num_par=6 frozen=false iter=20000 energy=-1.26974174 Lattice="15.00000000 0.00000000 0.00000000 0.00000000 15.00000000 0.00000000 0.00000000 0.00000000 15.00000000" energy_frozen_part=0.00000000 Properties=species:S:1:pos:R:3:velocities:R:3:Z:I:1
H         2.40198097       3.91605364       3.38648682         0.00000000       0.00000000       0.00000000          1
H         5.07827779       3.51240342       2.69455191         0.00000000       0.00000000       0.00000000          1
H         3.49552779       5.25799432       1.19385875         0.00000000       0.00000000       0.00000000          1
H         2.85097715       6.67028740       3.51641979         0.00000000       0.00000000       0.00000000          1
H         5.52727455       6.26663296       2.82448177         0.00000000       0.00000000       0.00000000          1
H         4.43372476       4.92468809       5.01710952         0.00000000       0.00000000       0.00000000          1
6
pbc=[F, F, F] list_num_par=6 frozen=false iter=20000 energy=-1.26974174 Lattice="15.00000000 0.00000000 0.00000000 0.00000000 15.00000000 0.00000000 0.00000000 0.00000000 15.00000000" energy_frozen_part=0.00000000 Properties=species:S:1:pos:R:3:velocities:R:3:Z:I:1
H         2.40968639       3.91128597       3.38793427         0.00000000       0.00000000       0.00000000          1
H         5.08442782       3.51742111       2.68444462         0.00000000       0.00000000       0.00000000          1
H         3.49161789       5.26505267       1.19681281         0.00000000       0.00000000       0.00000000          1
H         2.85205708       6.66612099       3.52753082         0.00000000       0.00000000       0.00000000          1
H         5.52680562       6.27225649       2.82403600         0.00000000       0.00000000       0.00000000          1
H         4.44486546       4.91849248       5.01516071         0.00000000       0.00000000       0.00000000          1
6
pbc=[F, F, F] list_num_par=6 frozen=false iter=20000 energy=-1.26974174 Lattice="15.00000000 0.00000000 0.00000000 0.00000000 15.00000000 0.00000000 0.00000000 0.00000000 15.00000000" energy_frozen_part=0.00000000 Properties=species:S:1:pos:R:3:velocities:R:3:Z:I:1
H         8.05922481       8.24376769       2.06331585         0.00000000       0.00000000       0.00000000          1
H         5.97456486       9.46238462       3.46812329         0.00000000       0.00000000       0.00000000          1
H         5.71928995       8.98245971       0.72790998         0.00000000       0.00000000       0.00000000          1
H         6.00892033      11.59753233       1.66694177         0.00000000       0.00000000       0.00000000          1
H         8.34885502      10.85884108       3.00235680         0.00000000       0.00000000       0.00000000          1
H         8.09357940      10.37892296       0.26214074         0.00000000       0.00000000       0.00000000          1
6
pbc=[F, F, F] list_num_par=6 frozen=false iter=20000 energy=-1.26974174 Lattice="15.00000000 0.00000000 0.00000000 0.00000000 15.00000000 0.00000000 0.00000000 0.00000000 15.00000000" energy_frozen_part=0.00000000 Properties=species:S:1:pos:R:3:velocities:R:3:Z:I:1
H         2.40197707       3.91608834       3.38651004         0.00000000       0.00000000       0.00000000          1
H         5.07825561       3.51242572       2.69452087         0.00000000       0.00000000       0.00000000          1
H         3.49546518       5.25797945       1.19381747         0.00000000       0.00000000       0.00000000          1
H         2.85096956       6.67033014       3.51634754         0.00000000       0.00000000       0.00000000          1
H         5.52725291       6.26666590       2.82435752         0.00000000       0.00000000       0.00000000          1
H         4.43375774       4.92478501       5.01705426         0.00000000       0.00000000       0.00000000          1
6
pbc=[F, F, F] list_num_par=6 frozen=false iter=20000 energy=-1.26974174 Lattice="15.00000000 0.00000000 0.00000000 0.00000000 15.00000000 0.00000000 0.00000000 0.00000000 15.00000000" energy_frozen_part=0.00000000 Properties=species:S:1:pos:R:3:velocities:R:3:Z:I:1
H         2.40963740       3.91148130       3.38778463         0.00000000       0.00000000       0.00000000          1
H         5.08437181       3.51746239       2.68433234         0.00000000       0.00000000       0.00000000          1
H         3.49169472       5.26519577       1.19669292         0.00000000       0.00000000       0.00000000          1
H         2.85217779       6.66628455       3.52740969         0.00000000       0.00000000       0.00000000          1
H         5.52690917       6.27226902       2.82395973         0.00000000       0.00000000       0.00000000          1
H         4.44485167       4.91855460       5.01505334         0.00000000       0.00000000       0.00000000          1
6
pbc=[F, F, F] list_num_par=6 frozen=false iter=20000 energy=-1.26974174 Lattice="15.00000000 0.00000000 0.00000000 0.00000000 15.00000000 0.00000000 0.00000000 0.00000000 15.00000000" energy_frozen_part=0.00000000 Properties=species:S:1:pos:R:3:velocities:R:3:Z:I:1
H         2.40195281       3.91608610       3.38655068         0.00000000       0.00000000       0.00000000          1
H         5.07824457       3.51239255       2.69460224         0.00000000       0.00000000       0.00000000          1
H         3.49550248       5.25797271       1.19388401         0.00000000       0.00000000       0.00000000          1
H         2.85098545       6.67032198       3.51641489         0.00000000       0.00000000       0.00000000          1
H         5.52727118       6.26662190       2.82447127         0.00000000       0.00000000       0.00000000          1
H         4.43372632       4.92473464       5.01713767         0.00000000       0.00000000       0.00000000          1
6
pbc=[F, F, F] list_num_par=6 frozen=false iter=20000 energy=-1.26974174 Lattice="15.00000000 0.00000000 0.00000000 0.00000000 15.00000000 0.00000000 0.00000000 0.00000000 15.00000000" energy_frozen_part=0.00000000 Properties=species:S:1:pos:R:3:velocities:R:3:Z:I:1
H         2.40964441       3.91148870       3.38777268         0.00000000       0.00000000       0.00000000          1
H         5.08437119       3.51746052       2.68430628         0.00000000       0.00000000       0.00000000          1
H         3.49169291       5.26520933       1.19668181         0.00000000       0.00000000       0.00000000          1
H         2.85219531       6.66629652       3.52740798         0.00000000       0.00000000       0.00000000          1
H         5.52691884       6.27226456       2.82393922         0.00000000       0.00000000       0.00000000          1
H         4.44487124       4.91854682       5.01503716         0.00000000       0.00000000       0.00000000          1
6
pbc=[F, F, F] list_num_par=6 frozen=false iter=20000 energy=-1.26974174 Lattice="15.00000000 0.00000000 0.00000000 0.00000000 15.00000000 0.00000000 0.00000000 0.00000000 15.00000000" energy_frozen_part=0.00000000 Properties=species:S:1:pos:R:3:velocities:R:3:Z:I:1
H         2.40969571       3.91125160       3.38796085         0.00000000       0.00000000       0.00000000          1
H         5.08445485       3.51739975       2.68449869         0.00000000       0.00000000       0.00000000          1
H         3.49163906       5.26497139       1.19681333         0.00000000       0.00000000       0.00000000          1
H         2.85203839       6.66608773       3.52749499         0.00000000       0.00000000       0.00000000          1
H         5.52679134       6.27224136       2.82403399         0.00000000       0.00000000       0.00000000          1
H         4.44485740       4.91850968       5.01517892         0.00000000       0.00000000       0.00000000          1
6
pbc=[F, F, F] list_num_par=6 frozen=false iter=20000 energy=-1.26974174 Lattice="15.00000000 0.00000000 0.00000000 0.00000000 15.00000000 0.00000000 0.00000000 0.00000000 15.00000000" energy_frozen_part=0.00000000 Properties=species:S:1:pos:R:3:velocities:R:3:Z:I:1
H         2.40961947       3.91147596       3.38785604         0.00000000       0.00000000       0.00000000          1
H         5.08433861       3.51747917       2.68433740         0.00000000       0.00000000       0.00000000          1
H         3.49159910       5.26517338       1.19671513         0.00000000       0.00000000       0.00000000          1
H         2.85213450       6.66628761       3.52742660         0.00000000       0.00000000       0.00000000          1
H         5.52685030       6.27229033       2.82390873         0.00000000       0.00000000       0.00000000          1
H         4.44487177       4.91859113       5.01505537         0.00000000       0.00000000       0.00000000          1
6
pbc=[F, F, F] list_num_par=6 frozen=false iter=20000 energy=-1.26974174 Lattice="15.00000000 0.00000000 0.00000000 0.00000000 15.00000000 0.00000000 0.00000000 0.00000000 15.00000000" energy_frozen_part=0.00000000 Properties=species:S:1:pos:R:3:velocities:R:3:Z:I:1
H         2.40962801       3.91151997       3.38779646         0.00000000       0.00000000       0.00000000          1
H         5.08435929       3.51747107       2.68433904         0.00000000       0.00000000       0.00000000          1
H         3.49169480       5.26521463       1.19669319         0.00000000       0.00000000       0.00000000          1
H         2.85218735       6.66631960       3.52740531         0.00000000       0.00000000       0.00000000          1
H         5.52692012       6.27227581       2.82395419         0.00000000       0.00000000       0.00000000          1
H         4.44485486       4.91857460       5.01505270         0.00000000       0.00000000       0.00000000          1
6
pbc=[F, F, F] list_num_par=6 frozen=false iter=20000 energy=-1.26974174 Lattice="15.00000000 0.00000000 0.00000000 0.00000000 15.00000000 0.00000000 0.00000000 0.00000000 15.00000000" energy_frozen_part=0.00000000 Properties=species:S:1:pos:R:3:velocities:R:3:Z:I:1
H         2.40962692       3.91136444       3.38795598         0.00000000       0.00000000       0.00000000          1
H         5.08436202       3.51736922       2.68448615         0.00000000       0.00000000       0.00000000          1
H         3.49162356       5.26500789       1.19679398         0.00000000       0.00000000       0.00000000          1
H         2.85210767       6.66618272       3.52746239         0.00000000       0.00000000       0.00000000          1
H         5.52683848       6.27219331       2.82399370         0.00000000       0.00000000       0.00000000          1
H         4.44484059       4.91853746       5.01515628         0.00000000       0.00000000       0.00000000          1
6
pbc=[F, F, F] list_num_par=6 frozen=false iter=20000 energy=-1.26974174 Lattice="15.00000000 0.00000000 0.00000000 0.00000000 15.00000000 0.00000000 0.00000000 0.00000000 15.00000000" energy_frozen_part=0.00000000 Properties=species:S:1:pos:R:3:velocities:R:3:Z:I:1
H         2.40963621       3.91156861       3.38781519         0.00000000       0.00000000       0.00000000          1
H         5.08439283       3.51748207       2.68448727         0.00000000       0.00000000       0.00000000          1
H         3.49178931       5.26513481       1.19667415         0.00000000       0.00000000       0.00000000          1
H         2.85219606       6.66638233       3.52727455         0.00000000       0.00000000       0.00000000          1
H         5.52694953       6.27229348       2.82394879         0.00000000       0.00000000       0.00000000          1
H         4.44480345       4.91872449       5.01508879         0.00000000       0.00000000       0.00000000          1
6
pbc=[F, F, F] list_num_par=6 frozen=false iter=20000 energy=-1.26974174 Lattice="15.00000000 0.00000000 0.00000000 0.00000000 15.00000000 0.00000000 0.00000000 0.00000000 15.00000000" energy_frozen_part=0.00000000 Properties=species:S:1:pos:R:3:velocities:R:3:Z:I:1
H         2.40969805       3.91124793       3.38794643         0.00000000       0.00000000       0.00000000          1
H         5.08445554       3.51740236       2.68448871         0.00000000       0.00000000       0.00000000          1
H         3.49164325       5.26498593       1.19681194         0.00000000       0.00000000       0.00000000          1
H         2.85204068       6.66609364       3.52749948         0.00000000       0.00000000       0.00000000          1
H         5.52679321       6.27224294       2.82404274         0.00000000       0.00000000       0.00000000          1
H         4.44484361       4.91850413       5.01517638         0.00000000       0.00000000       0.00000000          1
6
pbc=[F, F, F] list_num_par=6 frozen=false iter=20000 energy=-1.26974174 Lattice="15.00000000 0.00000000 0.00000000 0.00000000 15.00000000 0.00000000 0.00000000 0.00000000 15.00000000" energy_frozen_part=0.00000000 Properties=species:S:1:pos:R:3:velocities:R:3:Z:I:1
H         2.40968464       3.91145860       3.38784742         0.00000000       0.00000000       0.00000000          1
H         5.08439907       3.51741087       2.68434544         0.00000000       0.00000000       0.00000000          1
H         3.49170133       5.26514109       1.19671653         0.00000000       0.00000000       0.00000000          1
H         2.85224309       6.66626137       3.52743238         0.00000000       0.00000000       0.00000000          1
H         5.52695362       6.27221571       2.82393397         0.00000000       0.00000000       0.00000000          1
H         4.44493650       4.91852372       5.01506335         0.00000000       0.00000000       0.00000000          1
6
pbc=[F, F, F] list_num_par=6 frozen=false iter=20000 energy=-1.26974174 Lattice="15.00000000 0.00000000 0.00000000 0.00000000 15.00000000 0.00000000 0.00000000 0.00000000 15.00000000" energy_frozen_part=0.00000000 Properties=species:S:1:pos:R:3:velocities:R:3:Z:I:1
H         2.40969538       3.91128016       3.38793942         0.00000000       0.00000000       0.00000000          1
H         5.08443953       3.51744003       2.68445216         0.00000000       0.00000000       0.00000000          1
H         3.49162097       5.26505437       1.19682021         0.00000000       0.00000000       0.00000000          1
H         2.85204836       6.66611781       3.52754012         0.00000000       0.00000000       0.00000000          1
H         5.52679242       6.27227734       2.82404531         0.00000000       0.00000000       0.00000000          1
H         4.44486472       4.91850301       5.01516969         0.00000000       0.00000000       0.00000000          1
6
pbc=[F, F, F] list_num_par=6 frozen=false iter=20000 energy=-1.26974174 Lattice="15.00000000 0.00000000 0.00000000 0.00000000 15.00000000 0.00000000 0.00000000 0.00000000 15.00000000" energy_frozen_part=0.00000000 Properties=species:S:1:pos:R:3:velocities:R:3:Z:I:1
H         2.40196790       3.91606210       3.38653810         0.00000000       0.00000000       0.00000000          1
H         5.07825154       3.51239977       2.69455932         0.00000000       0.00000000       0.00000000          1
H         3.49546692       5.25794338       1.19384429         0.00000000       0.00000000       0.00000000          1
H         2.85096375       6.67030486       3.51637232         0.00000000       0.00000000       0.00000000          1
H         5.52724865       6.26663773       2.82438955         0.00000000       0.00000000       0.00000000          1
H         4.43374902       4.92475620       5.01708518         0.00000000       0.00000000       0.00000000          1
6
pbc=[F, F, F] list_num_par=6 frozen=false iter=20000 energy=-1.26974174 Lattice="15.00000000 0.00000000 0.00000000 0.00000000 15.00000000 0.00000000 0.00000000 0.00000000 15.00000000" energy_frozen_part=0.00000000 Properties=species:S:1:pos:R:3:velocities:R:3:Z:I:1
H         2.40969250       3.91130399       3.38793629         0.00000000       0.00000000       0.00000000          1
H         5.08443818       3.51744332       2.68444093         0.00000000       0.00000000       0.00000000          1
H         3.49162470       5.26507021       1.19681143         0.00000000       0.00000000       0.00000000          1
H         2.85206126       6.66613400       3.52753571         0.00000000       0.00000000       0.00000000          1
H         5.52680502       6.27227318       2.82403902         0.00000000       0.00000000       0.00000000          1
H         4.44487029       4.91850864       5.01516336         0.00000000       0.00000000       0.00000000          1
6
pbc=[F, F, F] list_num_par=6 frozen=false iter=20000 energy=-1.26974174 Lattice="15.00000000 0.00000000 0.00000000 0.00000000 15.00000000 0.00000000 0.00000000 0.00000000 15.00000000" energy_frozen_part=0.00000000 Properties=species:S:1:pos:R:3:velocities:R:3:Z:I:1
H         2.40198289       3.91611595       3.38650401         0.00000000       0.00000000       0.00000000          1
H         5.07825761       3.51243123       2.69451599         0.00000000       0.00000000       0.00000000          1
H         3.49547253       5.25797965       1.19379870         0.00000000       0.00000000       0.00000000          1
H         2.85098565       6.67034819       3.51632602         0.00000000       0.00000000       0.00000000          1
H         5.52726159       6.26667030       2.82433692         0.00000000       0.00000000       0.00000000          1
H         4.43376981       4.92480154       5.01704517         0.00000000       0.00000000       0.00000000          1
