6
pbc=[F, F, F] list_num_par=6 frozen=false iter=20000 energy=-1.26974174 Lattice="15.00000000 0.00000000 0.00000000 0.00000000 15.00000000 0.00000000 0.00000000 0.00000000 15.00000000" energy_frozen_part=0.00000000 Properties=species:S:1:pos:R:3:velocities:R:3:Z:I:1
H         5.26878256      12.20685744       7.41822492         0.00000000       0.00000000       0.00000000          1
H         3.13724397      10.86206372       6.21309198         0.00000000       0.00000000       0.00000000          1
H         4.55189424      10.77722466       3.80563528         0.00000000       0.00000000       0.00000000          1
H         4.11675245      13.22245340       5.08462597         0.00000000       0.00000000       0.00000000          1
H         6.68343780      12.12201905       5.01077156         0.00000000       0.00000000       0.00000000          1
H         5.70393380       9.76163740       6.13923893         0.00000000       0.00000000       0.00000000          1
6
pbc=[F, F, F] list_num_par=6 frozen=false iter=20000 energy=-1.26974174 Lattice="15.00000000 0.00000000 0.00000000 0.00000000 15.00000000 0.00000000 0.00000000 0.00000000 15.00000000" energy_frozen_part=0.00000000 Properties=species:S:1:pos:R:3:velocities:R:3:Z:I:1
H         5.26885778      12.20679196       7.41821500         0.00000000       0.00000000       0.00000000          1
H         3.13729121      10.86193554       6.21319278         0.00000000       0.00000000       0.00000000          1
H         4.55175823      10.77729187       3.80562244         0.00000000       0.00000000       0.00000000          1
H         4.11658751      13.22243412       5.08475699         0.00000000       0.00000000       0.00000000          1
H         6.68332528      12.12214069       5.01064668         0.00000000       0.00000000       0.00000000          1
H         5.70403263       9.76165183       6.13908036         0.00000000       0.00000000       0.00000000          1
6
pbc=[F, F, F] list_num_par=6 frozen=false iter=20000 energy=-1.26974174 Lattice="15.00000000 0.00000000 0.00000000 0.00000000 15.00000000 0.00000000 0.00000000 0.00000000 15.00000000" energy_frozen_part=0.00000000 Properties=species:S:1:pos:R:3:velocities:R:3:Z:I:1
H         6.74297629      11.55062149       6.00112224         0.00000000       0.00000000       0.00000000          1
H         3.96042139      11.64772713       5.77251768         0.00000000       0.00000000       0.00000000          1
H         4.18701907      11.58725521       2.98877147         0.00000000       0.00000000       0.00000000          1
H         5.53692067      13.54266250       4.45792227         0.00000000       0.00000000       0.00000000          1
H         6.96956818      11.49014311       3.21737127         0.00000000       0.00000000       0.00000000          1
H         5.39307013       9.59520750       4.53197012         0.00000000       0.00000000       0.00000000          1
6
pbc=[F, F, F] list_num_par=6 frozen=false iter=20000 energy=-1.26974174 Lattice="15.00000000 0.00000000 0.00000000 0.00000000 15.00000000 0.00000000 0.00000000 0.00000000 15.00000000" energy_frozen_part=0.00000000 Properties=species:S:1:pos:R:3:velocities:R:3:Z:I:1
H         5.26885976      12.20678510       7.41821738         0.00000000       0.00000000       0.00000000          1
H         3.13729130      10.86192835       6.21318666         0.00000000       0.00000000       0.00000000          1
H         4.55175752      10.77727911       3.80561646         0.00000000       0.00000000       0.00000000          1
H         4.11657420      13.22242108       5.08475688         0.00000000       0.00000000       0.00000000          1
H         6.68331819      12.12213849       5.01063785         0.00000000       0.00000000       0.00000000          1
H         5.70403796       9.76164545       6.13907606         0.00000000       0.00000000       0.00000000          1
6
pbc=[F, F, F] list_num_par=6 frozen=false iter=20000 energy=-1.26974174 Lattice="15.00000000 0.00000000 0.00000000 0.00000000 15.00000000 0.00000000 0.00000000 0.00000000 15.00000000" energy_frozen_part=0.00000000 Properties=species:S:1:pos:R:3:velocities:R:3:Z:I:1
H         7.06270114      14.70181130       7.00478147         0.00000000       0.00000000       0.00000000          1
H         6.71885253      14.29705298       9.74745076         0.00000000       0.00000000       0.00000000          1
H         8.70325062      12.44423809       6.87729802         0.00000000       0.00000000       0.00000000          1
H         6.13076386      12.24285057       7.94781517         0.00000000       0.00000000       0.00000000          1
H         9.29134244      14.49844412       8.67693244         0.00000000       0.00000000       0.00000000          1
H         8.35940751      12.03948400       9.61997042         0.00000000       0.00000000       0.00000000          1
6
pbc=[F, F, F] list_num_par=6 frozen=false iter=20000 energy=-1.26974174 Lattice="15.00000000 0.00000000 0.00000000 0.00000000 15.00000000 0.00000000 0.00000000 0.00000000 15.00000000" energy_frozen_part=0.00000000 Properties=species:S:1:pos:R:3:velocities:R:3:Z:I:1
H         5.26561754      12.20166421       7.41611341         0.00000000       0.00000000       0.00000000          1
H         3.13545414      10.85682276       6.20860387         0.00000000       0.00000000       0.00000000          1
H         4.54772301      10.78308301       3.79938092         0.00000000       0.00000000       0.00000000          1
H         4.10910709      13.22301229       5.08724778         0.00000000       0.00000000       0.00000000          1
H         6.67788720      12.12792408       5.00689724         0.00000000       0.00000000       0.00000000          1
H         5.70422952       9.76173108       6.12824471         0.00000000       0.00000000       0.00000000          1
6
pbc=[F, F, F] list_num_par=6 frozen=false iter=20000 energy=-1.26974174 Lattice="15.00000000 0.00000000 0.00000000 0.00000000 15.00000000 0.00000000 0.00000000 0.00000000 15.00000000" energy_frozen_part=0.00000000 Properties=species:S:1:pos:R:3:velocities:R:3:Z:I:1
H         5.26886639      12.20678594       7.41821883         0.00000000       0.00000000       0.00000000          1
H         3.13729623      10.86193126       6.21320786         0.00000000       0.00000000       0.00000000          1
H         4.55175490      10.77726133       3.80563262         0.00000000       0.00000000       0.00000000          1
H         4.11657705      13.22240954       5.08475427         0.00000000       0.00000000       0.00000000          1
H         6.68332363      12.12213147       5.01063999         0.00000000       0.00000000       0.00000000          1
H         5.70404086       9.76164425       6.13909283         0.00000000       0.00000000       0.00000000          1
6
pbc=[F, F, F] list_num_par=6 frozen=false iter=20000 energy=-1.26974174 Lattice="15.00000000 0.00000000 0.00000000 0.00000000 15.00000000 0.00000000 0.00000000 0.00000000 15.00000000" energy_frozen_part=0.00000000 Properties=species:S:1:pos:R:3:velocities:R:3:Z:I:1
H         7.06273655      14.70166657       7.00474392         0.00000000       0.00000000       0.00000000          1
H         6.71900445      14.29727563       9.74747441         0.00000000       0.00000000       0.00000000          1
H         8.70317546      12.44400210       6.87745390         0.00000000       0.00000000       0.00000000          1
H         6.13072697      12.24287130       7.94812362         0.00000000       0.00000000       0.00000000          1
H         9.29145287      14.49840428       8.67680218         0.00000000       0.00000000       0.00000000          1
H         8.35944262      12.03960655       9.62019173         0.00000000       0.00000000       0.00000000          1
6
pbc=[F, F, F] list_num_par=6 frozen=false iter=20000 energy=-1.26974174 Lattice="15.00000000 0.00000000 0.00000000 0.00000000 15.00000000 0.00000000 0.00000000 0.00000000 15.00000000" energy_frozen_part=0.00000000 Properties=species:S:1:pos:R:3:velocities:R:3:Z:I:1
H         5.26882180      12.20689630       7.41819215         0.00000000       0.00000000       0.00000000          1
H         3.13727581      10.86205679       6.21311361         0.00000000       0.00000000       0.00000000          1
H         4.55190094      10.77718045       3.80563704         0.00000000       0.00000000       0.00000000          1
H         4.11675705      13.22242619       5.08458675         0.00000000       0.00000000       0.00000000          1
H         6.68344805      12.12200999       5.01071869         0.00000000       0.00000000       0.00000000          1
H         5.70396353       9.76164347       6.13924721         0.00000000       0.00000000       0.00000000          1
6
pbc=[F, F, F] list_num_par=6 frozen=false iter=20000 energy=-1.26974174 Lattice="15.00000000 0.00000000 0.00000000 0.00000000 15.00000000 0.00000000 0.00000000 0.00000000 15.00000000" energy_frozen_part=0.00000000 Properties=species:S:1:pos:R:3:velocities:R:3:Z:I:1
H         6.74118495      11.54973140       6.00295159         0.00000000       0.00000000       0.00000000          1
H         3.95882542      11.64821958       5.77257254         0.00000000       0.00000000       0.00000000          1
H         4.18709573      11.58573411       2.98900134         0.00000000       0.00000000       0.00000000          1
H         5.53717219      13.54139745       4.45766723         0.00000000       0.00000000       0.00000000          1
H         6.96945197      11.48724672       3.21938355         0.00000000       0.00000000       0.00000000          1
H         5.39110198       9.59406834       4.53428595         0.00000000       0.00000000       0.00000000          1
6
pbc=[F, F, F] list_num_par=6 frozen=false iter=20000 energy=-1.26974174 Lattice="15.00000000 0.00000000 0.00000000 0.00000000 15.00000000 0.00000000 0.00000000 0.00000000 15.00000000" energy_frozen_part=0.00000000 Properties=species:S:1:pos:R:3:velocities:R:3:Z:I:1
H         6.74116129      11.54964801       6.00293427         0.00000000       0.00000000       0.00000000          1
H         3.95880311      11.64821889       5.77258691         0.00000000       0.00000000       0.00000000          1
H         4.18705204      11.58582961       2.98900966         0.00000000       0.00000000       0.00000000          1
H         5.53719846      13.54139836       4.45772647         0.00000000       0.00000000       0.00000000          1
H         6.96940759      11.48725071       3.21936197         0.00000000       0.00000000       0.00000000          1
H         5.39101256       9.59407222       4.53422417         0.00000000       0.00000000       0.00000000          1
6
pbc=[F, F, F] list_num_par=6 frozen=false iter=20000 energy=-1.26974174 Lattice="15.00000000 0.00000000 0.00000000 0.00000000 15.00000000 0.00000000 0.00000000 0.00000000 15.00000000" energy_frozen_part=0.00000000 Properties=species:S:1:pos:R:3:velocities:R:3:Z:I:1
H         6.74114801      11.54965186       6.00294377         0.00000000       0.00000000       0.00000000          1
H         3.95879675      11.64823155       5.77257391         0.00000000       0.00000000       0.00000000          1
H         4.18706330      11.58582303       2.98899598         0.00000000       0.00000000       0.00000000          1
H         5.53719738      13.54139638       4.45771582         0.00000000       0.00000000       0.00000000          1
H         6.96941611      11.48724052       3.21937716         0.00000000       0.00000000       0.00000000          1
H         5.39100968       9.59407323       4.53423262         0.00000000       0.00000000       0.00000000          1
6
pbc=[F, F, F] list_num_par=6 frozen=false iter=20000 energy=-1.26974174 Lattice="15.00000000 0.00000000 0.00000000 0.00000000 15.00000000 0.00000000 0.00000000 0.00000000 15.00000000" energy_frozen_part=0.00000000 Properties=species:S:1:pos:R:3:velocities:R:3:Z:I:1
H         5.26881778      12.20686175       7.41822439         0.00000000       0.00000000       0.00000000          1
H         3.13726507      10.86205691       6.21312396         0.00000000       0.00000000       0.00000000          1
H         4.55189673      10.77721464       3.80565436         0.00000000       0.00000000       0.00000000          1
H         4.11675798      13.22244121       5.08464348         0.00000000       0.00000000       0.00000000          1
H         6.68345073      12.12201563       5.01076074         0.00000000       0.00000000       0.00000000          1
H         5.70395758       9.76163769       6.13924568         0.00000000       0.00000000       0.00000000          1
6
pbc=[F, F, F] list_num_par=6 frozen=false iter=20000 energy=-1.26974174 Lattice="15.00000000 0.00000000 0.00000000 0.00000000 15.00000000 0.00000000 0.00000000 0.00000000 15.00000000" energy_frozen_part=0.00000000 Properties=species:S:1:pos:R:3:velocities:R:3:Z:I:1
H         5.26880027      12.20685225       7.41820861         0.00000000       0.00000000       0.00000000          1
H         3.13725052      10.86206875       6.21307870         0.00000000       0.00000000       0.00000000          1
H         4.55191284      10.77722653       3.80562187         0.00000000       0.00000000       0.00000000          1
H         4.11676453      13.22244878       5.08461268         0.00000000       0.00000000       0.00000000          1
H         6.68345479      12.12201936       5.01075656         0.00000000       0.00000000       0.00000000          1
H         5.70394283       9.76163410       6.13921961         0.00000000       0.00000000       0.00000000          1
6
pbc=[F, F, F] list_num_par=6 frozen=false iter=20000 energy=-1.26974174 Lattice="15.00000000 0.00000000 0.00000000 0.00000000 15.00000000 0.00000000 0.00000000 0.00000000 15.00000000" energy_frozen_part=0.00000000 Properties=species:S:1:pos:R:3:velocities:R:3:Z:I:1
H         6.74115474      11.54968084       6.00295319         0.00000000       0.00000000       0.00000000          1
H         3.95880084      11.64823560       5.77256809         0.00000000       0.00000000       0.00000000          1
H         4.18708535      11.58580894       2.98899680         0.00000000       0.00000000       0.00000000          1
H         5.53720297      13.54140533       4.45769870         0.00000000       0.00000000       0.00000000          1
H         6.96943734      11.48724095       3.21938271         0.00000000       0.00000000       0.00000000          1
H         5.39103417       9.59408328       4.53424950         0.00000000       0.00000000       0.00000000          1
6
pbc=[F, F, F] list_num_par=6 frozen=false iter=20000 energy=-1.26974174 Lattice="15.00000000 0.00000000 0.00000000 0.00000000 15.00000000 0.00000000 0.00000000 0.00000000 15.00000000" energy_frozen_part=0.00000000 Properties=species:S:1:pos:R:3:velocities:R:3:Z:I:1
H         5.26880983      12.20687596       7.41822778         0.00000000       0.00000000       0.00000000          1
H         3.13726092      10.86207933       6.21312497         0.00000000       0.00000000       0.00000000          1
H         4.55189469      10.77722358       3.80565769         0.00000000       0.00000000       0.00000000          1
H         4.11675460      13.22245624       5.08463849         0.00000000       0.00000000       0.00000000          1
H         6.68344473      12.12202443       5.01075952         0.00000000       0.00000000       0.00000000          1
H         5.70395001       9.76164387       6.13925297         0.00000000       0.00000000       0.00000000          1
6
pbc=[F, F, F] list_num_par=6 frozen=false iter=20000 energy=-1.26974174 Lattice="15.00000000 0.00000000 0.00000000 0.00000000 15.00000000 0.00000000 0.00000000 0.00000000 15.00000000" energy_frozen_part=0.00000000 Properties=species:S:1:pos:R:3:velocities:R:3:Z:I:1
H         5.26882534      12.20679726       7.41822672         0.00000000       0.00000000       0.00000000          1
H         3.13729949      10.86187861       6.21319743         0.00000000       0.00000000       0.00000000          1
H         4.55176644      10.77727971       3.80562806         0.00000000       0.00000000       0.00000000          1
H         4.11650867      13.22240045       5.08477432         0.00000000       0.00000000       0.00000000          1
H         6.68328663      12.12219406       5.01065557         0.00000000       0.00000000       0.00000000          1
H         5.70407078       9.76166768       6.13908290         0.00000000       0.00000000       0.00000000          1
6
pbc=[F, F, F] list_num_par=6 frozen=false iter=20000 energy=-1.26974174 Lattice="15.00000000 0.00000000 0.00000000 0.00000000 15.00000000 0.00000000 0.00000000 0.00000000 15.00000000" energy_frozen_part=0.00000000 Properties=species:S:1:pos:R:3:velocities:R:3:Z:I:1
H         5.26878494      12.20687679       7.41820178         0.00000000       0.00000000       0.00000000          1
H         3.13724577      10.86207264       6.21305990         0.00000000       0.00000000       0.00000000          1
H         4.55191075      10.77722080       3.80560971         0.00000000       0.00000000       0.00000000          1
H         4.11675600      13.22245030       5.08458940         0.00000000       0.00000000       0.00000000          1
H         6.68344464      12.12202322       5.01074660         0.00000000       0.00000000       0.00000000          1
H         5.70393000       9.76164852       6.13922113         0.00000000       0.00000000       0.00000000          1
6
pbc=[F, F, F] list_num_par=6 frozen=false iter=20000 energy=-1.26974174 Lattice="15.00000000 0.00000000 0.00000000 0.00000000 15.00000000 0.00000000 0.00000000 0.00000000 15.00000000" energy_frozen_part=0.00000000 Properties=species:S:1:pos:R:3:velocities:R:3:Z:I:1
H         7.06270044      14.70179608       7.00479261         0.00000000       0.00000000       0.00000000          1
H         6.71886646      14.29705467       9.74745983         0.00000000       0.00000000       0.00000000          1
H         8.70324556      12.44422741       6.87729952         0.00000000       0.00000000       0.00000000          1
H         6.13075878      12.24284715       7.94784060         0.00000000       0.00000000       0.00000000          1
H         9.29135124      14.49843035       8.67693313         0.00000000       0.00000000       0.00000000          1
H         8.35940851      12.03948111       9.61997355         0.00000000       0.00000000       0.00000000          1
6
pbc=[F, F, F] list_num_par=6 frozen=false iter=20000 energy=-1.26974174 Lattice="15.00000000 0.00000000 0.00000000 0.00000000 15.00000000 0.00000000 0.00000000 0.00000000 15.00000000" energy_frozen_part=0.00000000 Properties=species:S:1:pos:R:3:velocities:R:3:Z:I:1
H         6.74302188      11.55059052       6.00110324         0.00000000       0.00000000       0.00000000          1
H         3.96046518      11.64771066       5.77251925         0.00000000       0.00000000       0.00000000          1
H         4.18704288      11.58727979       2.98876599         0.00000000       0.00000000       0.00000000          1
H         5.53696464      13.54266348       4.45794662         0.00000000       0.00000000       0.00000000          1
H         6.96960203      11.49016423       3.21734944         0.00000000       0.00000000       0.00000000          1
H         5.39310924       9.59520906       4.53192393         0.00000000       0.00000000       0.00000000          1
6
pbc=[F, F, F] list_num_par=6 frozen=false iter=20000 energy=-1.26974174 Lattice="15.00000000 0.00000000 0.00000000 0.00000000 15.00000000 0.00000000 0.00000000 0.00000000 15.00000000" energy_frozen_part=0.00000000 Properties=species:S:1:pos:R:3:velocities:R:3:Z:I:1
H         5.26556943      12.20170255       7.41610948         0.00000000       0.00000000       0.00000000          1
H         3.13543870      10.85684128       6.20855765         0.00000000       0.00000000       0.00000000          1
H         4.54774918      10.78308836       3.79936182         0.00000000       0.00000000       0.00000000          1
H         4.10909604      13.22302887       5.08721883         0.00000000       0.00000000       0.00000000          1
H         6.67787824      12.12795590       5.00691221         0.00000000       0.00000000       0.00000000          1
H         5.70421933       9.76175779       6.12825279         0.00000000       0.00000000       0.00000000          1
6
pbc=[F, F, F] list_num_par=6 frozen=false iter=20000 energy=-1.26974174 Lattice="15.00000000 0.00000000 0.00000000 0.00000000 15.00000000 0.00000000 0.00000000 0.00000000 15.00000000" energy_frozen_part=0.00000000 Properties=species:S:1:pos:R:3:velocities:R:3:Z:I:1
H         5.26555848      12.20169988       7.41611739         0.00000000       0.00000000       0.00000000          1
H         3.13542770      10.85684487       6.20855620         0.00000000       0.00000000       0.00000000          1
H         4.54774082      10.78310162       3.79936456         0.00000000       0.00000000       0.00000000          1
H         4.10908929      13.22303759       5.08722133         0.00000000       0.00000000       0.00000000          1
H         6.67787004      12.12796433       5.00691434         0.00000000       0.00000000       0.00000000          1
H         5.70421629       9.76176797       6.12825595         0.00000000       0.00000000       0.00000000          1
6
pbc=[F, F, F] list_num_par=6 frozen=false iter=20000 energy=-1.26974174 Lattice="15.00000000 0.00000000 0.00000000 0.00000000 15.00000000 0.00000000 0.00000000 0.00000000 15.00000000" energy_frozen_part=0.00000000 Properties=species:S:1:pos:R:3:velocities:R:3:Z:I:1
H         5.26884800      12.20679407       7.41821393         0.00000000       0.00000000       0.00000000          1
H         3.13728233      10.86194731       6.21318133         0.00000000       0.00000000       0.00000000          1
H         4.55176617      10.77728675       3.80562172         0.00000000       0.00000000       0.00000000          1
H         4.11658798      13.22243115       5.08475297         0.00000000       0.00000000       0.00000000          1
H         6.68333098      12.12213803       5.01064775         0.00000000       0.00000000       0.00000000          1
H         5.70402088       9.76165415       6.13908399         0.00000000       0.00000000       0.00000000          1
6
pbc=[F, F, F] list_num_par=6 frozen=false iter=20000 energy=-1.26974174 Lattice="15.00000000 0.00000000 0.00000000 0.00000000 15.00000000 0.00000000 0.00000000 0.00000000 15.00000000" energy_frozen_part=0.00000000 Properties=species:S:1:pos:R:3:velocities:R:3:Z:I:1
H         6.74115834      11.54966482       6.00295970         0.00000000       0.00000000       0.00000000          1
H         3.95880759      11.64823670       5.77256435         0.00000000       0.00000000       0.00000000          1
H         4.18708694      11.58580255       2.98899081         0.00000000       0.00000000       0.00000000          1
H         5.53721140      13.54139095       4.45769649         0.00000000       0.00000000       0.00000000          1
H         6.96944115      11.48723677       3.21938782         0.00000000       0.00000000       0.00000000          1
H         5.39103617       9.59407431       4.53424339         0.00000000       0.00000000       0.00000000          1
6
pbc=[F, F, F] list_num_par=6 frozen=false iter=20000 energy=-1.26974174 Lattice="15.00000000 0.00000000 0.00000000 0.00000000 15.00000000 0.00000000 0.00000000 0.00000000 15.00000000" energy_frozen_part=0.00000000 Properties=species:S:1:pos:R:3:velocities:R:3:Z:I:1
H         5.26880494      12.20685858       7.41823334         0.00000000       0.00000000       0.00000000          1
H         3.13726259      10.86205738       6.21311078         0.00000000       0.00000000       0.00000000          1
H         4.55190709      10.77721718       3.80564744         0.00000000       0.00000000       0.00000000          1
H         4.11676736      13.22244394       5.08463826         0.00000000       0.00000000       0.00000000          1
H         6.68344898      12.12201873       5.01077005         0.00000000       0.00000000       0.00000000          1
H         5.70395291       9.76163637       6.13923836         0.00000000       0.00000000       0.00000000          1
6
pbc=[F, F, F] list_num_par=6 frozen=false iter=20000 energy=-1.26974174 Lattice="15.00000000 0.00000000 0.00000000 0.00000000 15.00000000 0.00000000 0.00000000 0.00000000 15.00000000" energy_frozen_part=0.00000000 Properties=species:S:1:pos:R:3:velocities:R:3:Z:I:1
H         5.26885420      12.20679341       7.41821549         0.00000000       0.00000000       0.00000000          1
H         3.13728898      10.86193879       6.21319452         0.00000000       0.00000000       0.00000000          1
H         4.55176064      10.77728653       3.80562224         0.00000000       0.00000000       0.00000000          1
H         4.11658151      13.22242638       5.08476047         0.00000000       0.00000000       0.00000000          1
H         6.68332218      12.12213653       5.01065347         0.00000000       0.00000000       0.00000000          1
H         5.70402751       9.76165134       6.13908473         0.00000000       0.00000000       0.00000000          1
6
pbc=[F, F, F] list_num_par=6 frozen=false iter=20000 energy=-1.26974174 Lattice="15.00000000 0.00000000 0.00000000 0.00000000 15.00000000 0.00000000 0.00000000 0.00000000 15.00000000" energy_frozen_part=0.00000000 Properties=species:S:1:pos:R:3:velocities:R:3:Z:I:1
H         5.26881212      12.20687308       7.41822694         0.00000000       0.00000000       0.00000000          1
H         3.13725832      10.86207327       6.21312748         0.00000000       0.00000000       0.00000000          1
H         4.55189569      10.77722130       3.80565468         0.00000000       0.00000000       0.00000000          1
H         4.11675945      13.22245039       5.08463545         0.00000000       0.00000000       0.00000000          1
H         6.68344821      12.12201956       5.01076306         0.00000000       0.00000000       0.00000000          1
H         5.70394698       9.76163965       6.13924261         0.00000000       0.00000000       0.00000000          1
6
pbc=[F, F, F] list_num_par=6 frozen=false iter=20000 energy=-1.26974174 Lattice="15.00000000 0.00000000 0.00000000 0.00000000 15.00000000 0.00000000 0.00000000 0.00000000 15.00000000" energy_frozen_part=0.00000000 Properties=species:S:1:pos:R:3:velocities:R:3:Z:I:1
H         7.06276569      14.70164223       7.00469830         0.00000000       0.00000000       0.00000000          1
H         6.71899585      14.29732032       9.74743502         0.00000000       0.00000000       0.00000000          1
H         8.70317817      12.44395823       6.87747916         0.00000000       0.00000000       0.00000000          1
H         6.13070912      12.24288547       7.94812591         0.00000000       0.00000000       0.00000000          1
H         9.29145768      14.49839768       8.67679079         0.00000000       0.00000000       0.00000000          1
H         8.35940593      12.03963469       9.62021560         0.00000000       0.00000000       0.00000000          1
6
pbc=[F, F, F] list_num_par=6 frozen=false iter=20000 energy=-1.26974174 Lattice="15.00000000 0.00000000 0.00000000 0.00000000 15.00000000 0.00000000 0.00000000 0.00000000 15.00000000" energy_frozen_part=0.00000000 Properties=species:S:1:pos:R:3:velocities:R:3:Z:I:1
H         5.26880690      12.20685047       7.41820940         0.00000000       0.00000000       0.00000000          1
H         3.13725943      10.86207213       6.21308586         0.00000000       0.00000000       0.00000000          1
H         4.55190448      10.77722278       3.80562423         0.00000000       0.00000000       0.00000000          1
H         4.11677997      13.22245014       5.08461431         0.00000000       0.00000000       0.00000000          1
H         6.68346122      12.12200768       5.01075356         0.00000000       0.00000000       0.00000000          1
H         5.70393795       9.76162498       6.13921327         0.00000000       0.00000000       0.00000000          1
6
pbc=[F, F, F] list_num_par=6 frozen=false iter=20000 energy=-1.26974174 Lattice="15.00000000 0.00000000 0.00000000 0.00000000 15.00000000 0.00000000 0.00000000 0.00000000 15.00000000" energy_frozen_part=0.00000000 Properties=species:S:1:pos:R:3:velocities:R:3:Z:I:1
H         5.26556701      12.20168849       7.41611690         0.00000000       0.00000000       0.00000000          1
H         3.13543794      10.85683416       6.20856266         0.00000000       0.00000000       0.00000000          1
H         4.54775056      10.78309537       3.79936685         0.00000000       0.00000000       0.00000000          1
H         4.10909996      13.22303088       5.08722414         0.00000000       0.00000000       0.00000000          1
H         6.67788138      12.12795833       5.00691842         0.00000000       0.00000000       0.00000000          1
H         5.70422000       9.76176087       6.12825734         0.00000000       0.00000000       0.00000000          1
6
pbc=[F, F, F] list_num_par=6 frozen=false iter=20000 energy=-1.26974174 Lattice="15.00000000 0.00000000 0.00000000 0.00000000 15.00000000 0.00000000 0.00000000 0.00000000 15.00000000" energy_frozen_part=0.00000000 Properties=species:S:1:pos:R:3:velocities:R:3:Z:I:1
H         5.26884300      12.20686613       7.41823708         0.00000000       0.00000000       0.00000000          1
H         3.13726631      10.86216717       6.21306391         0.00000000       0.00000000       0.00000000          1
H         4.55191757      10.77735664       3.80560778         0.00000000       0.00000000       0.00000000          1
H         4.11683788      13.22255735       5.08467211         0.00000000       0.00000000       0.00000000          1
H         6.68349577      12.12205624       5.01078341         0.00000000       0.00000000       0.00000000          1
H         5.70392804       9.76166390       6.13917870         0.00000000       0.00000000       0.00000000          1
6
pbc=[F, F, F] list_num_par=6 frozen=false iter=20000 energy=-1.26974174 Lattice="15.00000000 0.00000000 0.00000000 0.00000000 15.00000000 0.00000000 0.00000000 0.00000000 15.00000000" energy_frozen_part=0.00000000 Properties=species:S:1:pos:R:3:velocities:R:3:Z:I:1
H         5.26878166      12.20685944       7.41819832         0.00000000       0.00000000       0.00000000          1
H         3.13724547      10.86205952       6.21307308         0.00000000       0.00000000       0.00000000          1
H         4.55189674      10.77722382       3.80561266         0.00000000       0.00000000       0.00000000          1
H         4.11673656      13.22244574       5.08460023         0.00000000       0.00000000       0.00000000          1
H         6.68343289      12.12202118       5.01073927         0.00000000       0.00000000       0.00000000          1
H         5.70393493       9.76163668       6.13921305         0.00000000       0.00000000       0.00000000          1
6
pbc=[F, F, F] list_num_par=6 frozen=false iter=20000 energy=-1.26974174 Lattice="15.00000000 0.00000000 0.00000000 0.00000000 15.00000000 0.00000000 0.00000000 0.00000000 15.00000000" energy_frozen_part=0.00000000 Properties=species:S:1:pos:R:3:velocities:R:3:Z:I:1
H         7.06270413      14.70180689       7.00480936         0.00000000       0.00000000       0.00000000          1
H         6.71885490      14.29704569       9.74747837         0.00000000       0.00000000       0.00000000          1
H         8.70325868      12.44423505       6.87731470         0.00000000       0.00000000       0.00000000          1
H         6.13076855      12.24285098       7.94783849         0.00000000       0.00000000       0.00000000          1
H         9.29134508      14.49843088       8.67695832         0.00000000       0.00000000       0.00000000          1
H         8.35940633      12.03947705       9.61997989         0.00000000       0.00000000       0.00000000          1
6
pbc=[F, F, F] list_num_par=6 frozen=false iter=20000 energy=-1.26974174 Lattice="15.00000000 0.00000000 0.00000000 0.00000000 15.00000000 0.00000000 0.00000000 0.00000000 15.00000000" energy_frozen_part=0.00000000 Properties=species:S:1:pos:R:3:velocities:R:3:Z:I:1
H         5.26557795      12.20169928       7.41611560         0.00000000       0.00000000       0.00000000          1
H         3.13543279      10.85685590       6.20856135         0.00000000       0.00000000       0.00000000          1
H         4.54774525      10.78309333       3.79937092         0.00000000       0.00000000       0.00000000          1
H         4.10911284      13.22304180       5.08722304         0.00000000       0.00000000       0.00000000          1
H         6.67788194      12.12794448       5.00691428         0.00000000       0.00000000       0.00000000          1
H         5.70421203       9.76175999       6.12826531         0.00000000       0.00000000       0.00000000          1
6
pbc=[F, F, F] list_num_par=6 frozen=false iter=20000 energy=-1.26974174 Lattice="15.00000000 0.00000000 0.00000000 0.00000000 15.00000000 0.00000000 0.00000000 0.00000000 15.00000000" energy_frozen_part=0.00000000 Properties=species:S:1:pos:R:3:velocities:R:3:Z:I:1
H         5.26881740      12.20688813       7.41819094         0.00000000       0.00000000       0.00000000          1
H         3.13726898      10.86206628       6.21310740         0.00000000       0.00000000       0.00000000          1
H         4.55189288      10.77719456       3.80563264         0.00000000       0.00000000       0.00000000          1
H         4.11674505      13.22243820       5.08458798         0.00000000       0.00000000       0.00000000          1
H         6.68344024      12.12201961       5.01071192         0.00000000       0.00000000       0.00000000          1
H         5.70396305       9.76164652       6.13923092         0.00000000       0.00000000       0.00000000          1
6
pbc=[F, F, F] list_num_par=6 frozen=false iter=20000 energy=-1.26974174 Lattice="15.00000000 0.00000000 0.00000000 0.00000000 15.00000000 0.00000000 0.00000000 0.00000000 15.00000000" energy_frozen_part=0.00000000 Properties=species:S:1:pos:R:3:velocities:R:3:Z:I:1
H         5.26881246      12.20685058       7.41823415         0.00000000       0.00000000       0.00000000          1
H         3.13726430      10.86206120       6.21311698         0.00000000       0.00000000       0.00000000          1
H         4.55190232      10.77720746       3.80565407         0.00000000       0.00000000       0.00000000          1
H         4.11677301      13.22243918       5.08463469         0.00000000       0.00000000       0.00000000          1
H         6.68345666      12.12199897       5.01077250         0.00000000       0.00000000       0.00000000          1
H         5.70394043       9.76161990       6.13925567         0.00000000       0.00000000       0.00000000          1
6
pbc=[F, F, F] list_num_par=6 frozen=false iter=20000 energy=-1.26974174 Lattice="15.00000000 0.00000000 0.00000000 0.00000000 15.00000000 0.00000000 0.00000000 0.00000000 15.00000000" energy_frozen_part=0.00000000 Properties=species:S:1:pos:R:3:velocities:R:3:Z:I:1
H         7.06271970      14.70166037       7.00473508         0.00000000       0.00000000       0.00000000          1
H         6.71899747      14.29727250       9.74746867         0.00000000       0.00000000       0.00000000          1
H         8.70317445      12.44400178       6.87745127         0.00000000       0.00000000       0.00000000          1
H         6.13072441      12.24286403       7.94812790         0.00000000       0.00000000       0.00000000          1
H         9.29144017      14.49840367       8.67679490         0.00000000       0.00000000       0.00000000          1
H         8.35943883      12.03960987       9.62019015         0.00000000       0.00000000       0.00000000          1
6
pbc=[F, F, F] list_num_par=6 frozen=false iter=20000 energy=-1.26974174 Lattice="15.00000000 0.00000000 0.00000000 0.00000000 15.00000000 0.00000000 0.00000000 0.00000000 15.00000000" energy_frozen_part=0.00000000 Properties=species:S:1:pos:R:3:velocities:R:3:Z:I:1
H         7.06275675      14.70167998       7.00469991         0.00000000       0.00000000       0.00000000          1
H         6.71900194      14.29730850       9.74743693         0.00000000       0.00000000       0.00000000          1
H         8.70323827      12.44404016       6.87746088         0.00000000       0.00000000       0.00000000          1
H         6.13077916      12.24288025       7.94809679         0.00000000       0.00000000       0.00000000          1
H         9.29145836      14.49847312       8.67678633         0.00000000       0.00000000       0.00000000          1
H         8.35947285      12.03967097       9.62019346         0.00000000       0.00000000       0.00000000          1
6
pbc=[F, F, F] list_num_par=6 frozen=false iter=20000 energy=-1.26974174 Lattice="15.00000000 0.00000000 0.00000000 0.00000000 15.00000000 0.00000000 0.00000000 0.00000000 15.00000000" energy_frozen_part=0.00000000 Properties=species:S:1:pos:R:3:velocities:R:3:Z:I:1
H         5.26556505      12.20170165       7.41611222         0.00000000       0.00000000       0.00000000          1
H         3.13543811      10.85683612       6.20855710         0.00000000       0.00000000       0.00000000          1
H         4.54774542      10.78309820       3.79936548         0.00000000       0.00000000       0.00000000          1
H         4.10909349      13.22303107       5.08722265         0.00000000       0.00000000       0.00000000          1
H         6.67787758      12.12795476       5.00691432         0.00000000       0.00000000       0.00000000          1
H         5.70421577       9.76176331       6.12825957         0.00000000       0.00000000       0.00000000          1
6
pbc=[F, F, F] list_num_par=6 frozen=false iter=20000 energy=-1.26974174 Lattice="15.00000000 0.00000000 0.00000000 0.00000000 15.00000000 0.00000000 0.00000000 0.00000000 15.00000000" energy_frozen_part=0.00000000 Properties=species:S:1:pos:R:3:velocities:R:3:Z:I:1
H         6.74116217      11.54965469       6.00294158         0.00000000       0.00000000       0.00000000          1
H         3.95880958      11.64824604       5.77258745         0.00000000       0.00000000       0.00000000          1
H         4.18705702      11.58583700       2.98901065         0.00000000       0.00000000       0.00000000          1
H         5.53721487      13.54140654       4.45771694         0.00000000       0.00000000       0.00000000          1
H         6.96941061      11.48724531       3.21936793         0.00000000       0.00000000       0.00000000          1
H         5.39100312       9.59409010       4.53423683         0.00000000       0.00000000       0.00000000          1
6
pbc=[F, F, F] list_num_par=6 frozen=false iter=20000 energy=-1.26974174 Lattice="15.00000000 0.00000000 0.00000000 0.00000000 15.00000000 0.00000000 0.00000000 0.00000000 15.00000000" energy_frozen_part=0.00000000 Properties=species:S:1:pos:R:3:velocities:R:3:Z:I:1
H         5.26880819      12.20686713       7.41822980         0.00000000       0.00000000       0.00000000          1
H         3.13725567      10.86207300       6.21311902         0.00000000       0.00000000       0.00000000          1
H         4.55189966      10.77721870       3.80565438         0.00000000       0.00000000       0.00000000          1
H         4.11677054      13.22245075       5.08463858         0.00000000       0.00000000       0.00000000          1
H         6.68345129      12.12200445       5.01076943         0.00000000       0.00000000       0.00000000          1
H         5.70393871       9.76163648       6.13925625         0.00000000       0.00000000       0.00000000          1
6
pbc=[F, F, F] list_num_par=6 frozen=false iter=20000 energy=-1.26974174 Lattice="15.00000000 0.00000000 0.00000000 0.00000000 15.00000000 0.00000000 0.00000000 0.00000000 15.00000000" energy_frozen_part=0.00000000 Properties=species:S:1:pos:R:3:velocities:R:3:Z:I:1
H         5.26881955      12.20679868       7.41820800         0.00000000       0.00000000       0.00000000          1
H         3.13730714      10.86186551       6.21318441         0.00000000       0.00000000       0.00000000          1
H         4.55176922      10.77727903       3.80560912         0.00000000       0.00000000       0.00000000          1
H         4.11650587      13.22240048       5.08475620         0.00000000       0.00000000       0.00000000          1
H         6.68328172      12.12220917       5.01063710         0.00000000       0.00000000       0.00000000          1
H         5.70408494       9.76167466       6.13906129         0.00000000       0.00000000       0.00000000          1
6
pbc=[F, F, F] list_num_par=6 frozen=false iter=20000 energy=-1.26974174 Lattice="15.00000000 0.00000000 0.00000000 0.00000000 15.00000000 0.00000000 0.00000000 0.00000000 15.00000000" energy_frozen_part=0.00000000 Properties=species:S:1:pos:R:3:velocities:R:3:Z:I:1
H         7.06276941      14.70164235       7.00469438         0.00000000       0.00000000       0.00000000          1
H         6.71899338      14.29731782       9.74743975         0.00000000       0.00000000       0.00000000          1
H         8.70318369      12.44395209       6.87749276         0.00000000       0.00000000       0.00000000          1
H         6.13072263      12.24288327       7.94812862         0.00000000       0.00000000       0.00000000          1
H         9.29145707      14.49838552       8.67679842         0.00000000       0.00000000       0.00000000          1
H         8.35940437      12.03962901       9.62023359         0.00000000       0.00000000       0.00000000          1
6
pbc=[F, F, F] list_num_par=6 frozen=false iter=20000 energy=-1.26974174 Lattice="15.00000000 0.00000000 0.00000000 0.00000000 15.00000000 0.00000000 0.00000000 0.00000000 15.00000000" energy_frozen_part=0.00000000 Properties=species:S:1:pos:R:3:velocities:R:3:Z:I:1
H         6.74114329      11.54965214       6.00294516         0.00000000       0.00000000       0.00000000          1
H         3.95878754      11.64824208       5.77255734         0.00000000       0.00000000       0.00000000          1
H         4.18706367      11.58581929       2.98898699         0.00000000       0.00000000       0.00000000          1
H         5.53721004      13.54139479       4.45770288         0.00000000       0.00000000       0.00000000          1
H         6.96941930      11.48722312       3.21937248         0.00000000       0.00000000       0.00000000          1
H         5.39099172       9.59407414       4.53423507         0.00000000       0.00000000       0.00000000          1
6
pbc=[F, F, F] list_num_par=6 frozen=false iter=20000 energy=-1.26974174 Lattice="15.00000000 0.00000000 0.00000000 0.00000000 15.00000000 0.00000000 0.00000000 0.00000000 15.00000000" energy_frozen_part=0.00000000 Properties=species:S:1:pos:R:3:velocities:R:3:Z:I:1
H         6.74114741      11.54965585       6.00295892         0.00000000       0.00000000       0.00000000          1
H         3.95879658      11.64823780       5.77256626         0.00000000       0.00000000       0.00000000          1
H         4.18707018      11.58582220       2.98899809         0.00000000       0.00000000       0.00000000          1
H         5.53720591      13.54140088       4.45772104         0.00000000       0.00000000       0.00000000          1
H         6.96942221      11.48724625       3.21937860         0.00000000       0.00000000       0.00000000          1
H         5.39101871       9.59408019       4.53423258         0.00000000       0.00000000       0.00000000          1
6
pbc=[F, F, F] list_num_par=6 frozen=false iter=20000 energy=-1.26974174 Lattice="15.00000000 0.00000000 0.00000000 0.00000000 15.00000000 0.00000000 0.00000000 0.00000000 15.00000000" energy_frozen_part=0.00000000 Properties=species:S:1:pos:R:3:velocities:R:3:Z:I:1
H         5.26878264      12.20685307       7.41820762         0.00000000       0.00000000       0.00000000          1
H         3.13723389      10.86207354       6.21307110         0.00000000       0.00000000       0.00000000          1
H         4.55189559      10.77722564       3.80562325         0.00000000       0.00000000       0.00000000          1
H         4.11675764      13.22245254       5.08461133         0.00000000       0.00000000       0.00000000          1
H         6.68343630      12.12200989       5.01075540         0.00000000       0.00000000       0.00000000          1
H         5.70391780       9.76163131       6.13921717         0.00000000       0.00000000       0.00000000          1
6
pbc=[F, F, F] list_num_par=6 frozen=false iter=20000 energy=-1.26974174 Lattice="15.00000000 0.00000000 0.00000000 0.00000000 15.00000000 0.00000000 0.00000000 0.00000000 15.00000000" energy_frozen_part=0.00000000 Properties=species:S:1:pos:R:3:velocities:R:3:Z:I:1
H         5.26878909      12.20687507       7.41824781         0.00000000       0.00000000       0.00000000          1
H         3.13726146      10.86205234       6.21312821         0.00000000       0.00000000       0.00000000          1
H         4.55191231      10.77722027       3.80566702         0.00000000       0.00000000       0.00000000          1
H         4.11674288      13.22244252       5.08464578         0.00000000       0.00000000       0.00000000          1
H         6.68344004      12.12204255       5.01078842         0.00000000       0.00000000       0.00000000          1
H         5.70395427       9.76164986       6.13926313         0.00000000       0.00000000       0.00000000          1
6
pbc=[F, F, F] list_num_par=6 frozen=false iter=20000 energy=-1.26974174 Lattice="15.00000000 0.00000000 0.00000000 0.00000000 15.00000000 0.00000000 0.00000000 0.00000000 15.00000000" energy_frozen_part=0.00000000 Properties=species:S:1:pos:R:3:velocities:R:3:Z:I:1
H         5.26560927      12.20167340       7.41613347         0.00000000       0.00000000       0.00000000          1
H         3.13543887      10.85683784       6.20861734         0.00000000       0.00000000       0.00000000          1
H         4.54769895      10.78309179       3.79939488         0.00000000       0.00000000       0.00000000          1
H         4.10909430      13.22302939       5.08727452         0.00000000       0.00000000       0.00000000          1
H         6.67786546      12.12793593       5.00690658         0.00000000       0.00000000       0.00000000          1
H         5.70421382       9.76174411       6.12826159         0.00000000       0.00000000       0.00000000          1
6
pbc=[F, F, F] list_num_par=6 frozen=false iter=20000 energy=-1.26974174 Lattice="15.00000000 0.00000000 0.00000000 0.00000000 15.00000000 0.00000000 0.00000000 0.00000000 15.00000000" energy_frozen_part=0.00000000 Properties=species:S:1:pos:R:3:velocities:R:3:Z:I:1
H         5.26556554      12.20171321       7.41611246         0.00000000       0.00000000       0.00000000          1
H         3.13543825      10.85685440       6.20855374         0.00000000       0.00000000       0.00000000          1
H         4.54775472      10.78309689       3.79936437         0.00000000       0.00000000       0.00000000          1
H         4.10911568      13.22304658       5.08721122         0.00000000       0.00000000       0.00000000          1
H         6.67788715      12.12795288       5.00692244         0.00000000       0.00000000       0.00000000          1
H         5.70421344       9.76176849       6.12826814         0.00000000       0.00000000       0.00000000          1
6
pbc=[F, F, F] list_num_par=6 frozen=false iter=20000 energy=-1.26974174 Lattice="15.00000000 0.00000000 0.00000000 0.00000000 15.00000000 0.00000000 0.00000000 0.00000000 15.00000000" energy_frozen_part=0.00000000 Properties=species:S:1:pos:R:3:velocities:R:3:Z:I:1
H         5.26880710      12.20678332       7.41823491         0.00000000       0.00000000       0.00000000          1
H         3.13729709      10.86186851       6.21319057         0.00000000       0.00000000       0.00000000          1
H         4.55177024      10.77727834       3.80562012         0.00000000       0.00000000       0.00000000          1
H         4.11650477      13.22239916       5.08477342         0.00000000       0.00000000       0.00000000          1
H         6.68328005      12.12219674       5.01066415         0.00000000       0.00000000       0.00000000          1
H         5.70406974       9.76166479       6.13908249         0.00000000       0.00000000       0.00000000          1
6
pbc=[F, F, F] list_num_par=6 frozen=false iter=20000 energy=-1.26974174 Lattice="15.00000000 0.00000000 0.00000000 0.00000000 15.00000000 0.00000000 0.00000000 0.00000000 15.00000000" energy_frozen_part=0.00000000 Properties=species:S:1:pos:R:3:velocities:R:3:Z:I:1
H         6.74114147      11.54966338       6.00293544         0.00000000       0.00000000       0.00000000          1
H         3.95878734      11.64825515       5.77256171         0.00000000       0.00000000       0.00000000          1
H         4.18705362      11.58582581       2.98899001         0.00000000       0.00000000       0.00000000          1
H         5.53719530      13.54140657       4.45769937         0.00000000       0.00000000       0.00000000          1
H         6.96940440      11.48723851       3.21936622         0.00000000       0.00000000       0.00000000          1
H         5.39099648       9.59408309       4.53423818         0.00000000       0.00000000       0.00000000          1
6
pbc=[F, F, F] list_num_par=6 frozen=false iter=20000 energy=-1.26974174 Lattice="15.00000000 0.00000000 0.00000000 0.00000000 15.00000000 0.00000000 0.00000000 0.00000000 15.00000000" energy_frozen_part=0.00000000 Properties=species:S:1:pos:R:3:velocities:R:3:Z:I:1
H         5.26562505      12.20167775       7.41611788         0.00000000       0.00000000       0.00000000          1
H         3.13546185      10.85682518       6.20860636         0.00000000       0.00000000       0.00000000          1
H         4.54771990      10.78308083       3.79938095         0.00000000       0.00000000       0.00000000          1
H         4.10910163      13.22301654       5.08725457         0.00000000       0.00000000       0.00000000          1
H         6.67787590      12.12792494       5.00689288         0.00000000       0.00000000       0.00000000          1
H         5.70423323       9.76173689       6.12825100         0.00000000       0.00000000       0.00000000          1
6
pbc=[F, F, F] list_num_par=6 frozen=false iter=20000 energy=-1.26974174 Lattice="15.00000000 0.00000000 0.00000000 0.00000000 15.00000000 0.00000000 0.00000000 0.00000000 15.00000000" energy_frozen_part=0.00000000 Properties=species:S:1:pos:R:3:velocities:R:3:Z:I:1
H         5.26878427      12.20686401       7.41819732         0.00000000       0.00000000       0.00000000          1
H         3.13723763      10.86207340       6.21307187         0.00000000       0.00000000       0.00000000          1
H         4.55189928      10.77722513       3.80561363         0.00000000       0.00000000       0.00000000          1
H         4.11674903      13.22245372       5.08459784         0.00000000       0.00000000       0.00000000          1
H         6.68343886      12.12201654       5.01074308         0.00000000       0.00000000       0.00000000          1
H         5.70392418       9.76163599       6.13921656         0.00000000       0.00000000       0.00000000          1
6
pbc=[F, F, F] list_num_par=6 frozen=false iter=20000 energy=-1.26974174 Lattice="15.00000000 0.00000000 0.00000000 0.00000000 15.00000000 0.00000000 0.00000000 0.00000000 15.00000000" energy_frozen_part=0.00000000 Properties=species:S:1:pos:R:3:velocities:R:3:Z:I:1
H         5.26568966      12.20164716       7.41617034         0.00000000       0.00000000       0.00000000          1
H         3.13548927      10.85690568       6.20861138         0.00000000       0.00000000       0.00000000          1
H         4.54778255      10.78314663       3.79940342         0.00000000       0.00000000       0.00000000          1
H         4.10923413      13.22307703       5.08731420         0.00000000       0.00000000       0.00000000          1
H         6.67797498      12.12789332       5.00696459         0.00000000       0.00000000       0.00000000          1
H         5.70422357       9.76171721       6.12826547         0.00000000       0.00000000       0.00000000          1
6
pbc=[F, F, F] list_num_par=6 frozen=false iter=20000 energy=-1.26974174 Lattice="15.00000000 0.00000000 0.00000000 0.00000000 15.00000000 0.00000000 0.00000000 0.00000000 15.00000000" energy_frozen_part=0.00000000 Properties=species:S:1:pos:R:3:velocities:R:3:Z:I:1
H         7.06277400      14.70163693       7.00469585         0.00000000       0.00000000       0.00000000          1
H         6.71899069      14.29731847       9.74743227         0.00000000       0.00000000       0.00000000          1
H         8.70318534      12.44395034       6.87748654         0.00000000       0.00000000       0.00000000          1
H         6.13071285      12.24288199       7.94812546         0.00000000       0.00000000       0.00000000          1
H         9.29146109      14.49838748       8.67679063         0.00000000       0.00000000       0.00000000          1
H         8.35940524      12.03963550       9.62022592         0.00000000       0.00000000       0.00000000          1
6
pbc=[F, F, F] list_num_par=6 frozen=false iter=20000 energy=-1.26974174 Lattice="15.00000000 0.00000000 0.00000000 0.00000000 15.00000000 0.00000000 0.00000000 0.00000000 15.00000000" energy_frozen_part=0.00000000 Properties=species:S:1:pos:R:3:velocities:R:3:Z:I:1
H         5.26884165      12.20686174       7.41823979         0.00000000       0.00000000       0.00000000          1
H         3.13726278      10.86216626       6.21306286         0.00000000       0.00000000       0.00000000          1
H         4.55192256      10.77735992       3.80561080         0.00000000       0.00000000       0.00000000          1
H         4.11684775      13.22256053       5.08467200         0.00000000       0.00000000       0.00000000          1
H         6.68350406      12.12205350       5.01079413         0.00000000       0.00000000       0.00000000          1
H         5.70391435       9.76166029       6.13918214         0.00000000       0.00000000       0.00000000          1
6
pbc=[F, F, F] list_num_par=6 frozen=false iter=20000 energy=-1.26974174 Lattice="15.00000000 0.00000000 0.00000000 0.00000000 15.00000000 0.00000000 0.00000000 0.00000000 15.00000000" energy_frozen_part=0.00000000 Properties=species:S:1:pos:R:3:velocities:R:3:Z:I:1
H         5.26885502      12.20680012       7.41821740         0.00000000       0.00000000       0.00000000          1
H         3.13728987      10.86194787       6.21319095         0.00000000       0.00000000       0.00000000          1
H         4.55176897      10.77729154       3.80562415         0.00000000       0.00000000       0.00000000          1
H         4.11659059      13.22242847       5.08475366         0.00000000       0.00000000       0.00000000          1
H         6.68332982      12.12214296       5.01065184         0.00000000       0.00000000       0.00000000          1
H         5.70403096       9.76165872       6.13908469         0.00000000       0.00000000       0.00000000          1
6
pbc=[F, F, F] list_num_par=6 frozen=false iter=20000 energy=-1.26974174 Lattice="15.00000000 0.00000000 0.00000000 0.00000000 15.00000000 0.00000000 0.00000000 0.00000000 15.00000000" energy_frozen_part=0.00000000 Properties=species:S:1:pos:R:3:velocities:R:3:Z:I:1
H         5.26559460      12.20166942       7.41610584         0.00000000       0.00000000       0.00000000          1
H         3.13544358      10.85682087       6.20857535         0.00000000       0.00000000       0.00000000          1
H         4.54771005      10.78308606       3.79935925         0.00000000       0.00000000       0.00000000          1
H         4.10909279      13.22302126       5.08723664         0.00000000       0.00000000       0.00000000          1
H         6.67786314      12.12793558       5.00688309         0.00000000       0.00000000       0.00000000          1
H         5.70422208       9.76173540       6.12822243         0.00000000       0.00000000       0.00000000          1
6
pbc=[F, F, F] list_num_par=6 frozen=false iter=20000 energy=-1.26974174 Lattice="15.00000000 0.00000000 0.00000000 0.00000000 15.00000000 0.00000000 0.00000000 0.00000000 15.00000000" energy_frozen_part=0.00000000 Properties=species:S:1:pos:R:3:velocities:R:3:Z:I:1
H         6.74115553      11.54966733       6.00294781         0.00000000       0.00000000       0.00000000          1
H         3.95879836      11.64824291       5.77257715         0.00000000       0.00000000       0.00000000          1
H         4.18705725      11.58582525       2.98900965         0.00000000       0.00000000       0.00000000          1
H         5.53720516      13.54140574       4.45771539         0.00000000       0.00000000       0.00000000          1
H         6.96941479      11.48725008       3.21937240         0.00000000       0.00000000       0.00000000          1
H         5.39101524       9.59408823       4.53423677         0.00000000       0.00000000       0.00000000          1
6
pbc=[F, F, F] list_num_par=6 frozen=false iter=20000 energy=-1.26974174 Lattice="15.00000000 0.00000000 0.00000000 0.00000000 15.00000000 0.00000000 0.00000000 0.00000000 15.00000000" energy_frozen_part=0.00000000 Properties=species:S:1:pos:R:3:velocities:R:3:Z:I:1
H         5.26556573      12.20170478       7.41611036         0.00000000       0.00000000       0.00000000          1
H         3.13543797      10.85683920       6.20856436         0.00000000       0.00000000       0.00000000          1
H         4.54774318      10.78309038       3.79936531         0.00000000       0.00000000       0.00000000          1
H         4.10908936      13.22302759       5.08721536         0.00000000       0.00000000       0.00000000          1
H         6.67787925      12.12795238       5.00691300         0.00000000       0.00000000       0.00000000          1
H         5.70421987       9.76176664       6.12825636         0.00000000       0.00000000       0.00000000          1
6
pbc=[F, F, F] list_num_par=6 frozen=false iter=20000 energy=-1.26974174 Lattice="15.00000000 0.00000000 0.00000000 0.00000000 15.00000000 0.00000000 0.00000000 0.00000000 15.00000000" energy_frozen_part=0.00000000 Properties=species:S:1:pos:R:3:velocities:R:3:Z:I:1
H         5.26557200      12.20170421       7.41611282         0.00000000       0.00000000       0.00000000          1
H         3.13543887      10.85685200       6.20856401         0.00000000       0.00000000       0.00000000          1
H         4.54774560      10.78310534       3.79936689         0.00000000       0.00000000       0.00000000          1
H         4.10911161      13.22304664       5.08722079         0.00000000       0.00000000       0.00000000          1
H         6.67788773      12.12795270       5.00691970         0.00000000       0.00000000       0.00000000          1
H         5.70421291       9.76176425       6.12826127         0.00000000       0.00000000       0.00000000          1
6
pbc=[F, F, F] list_num_par=6 frozen=false iter=20000 energy=-1.26974174 Lattice="15.00000000 0.00000000 0.00000000 0.00000000 15.00000000 0.00000000 0.00000000 0.00000000 15.00000000" energy_frozen_part=0.00000000 Properties=species:S:1:pos:R:3:velocities:R:3:Z:I:1
H         5.26563461      12.20167733       7.41611902         0.00000000       0.00000000       0.00000000          1
H         3.13547426      10.85681992       6.20861678         0.00000000       0.00000000       0.00000000          1
H         4.54772174      10.78308386       3.79938153         0.00000000       0.00000000       0.00000000          1
H         4.10909243      13.22301495       5.08726139         0.00000000       0.00000000       0.00000000          1
H         6.67787611      12.12795031       5.00687902         0.00000000       0.00000000       0.00000000          1
H         5.70425261       9.76174948       6.12823698         0.00000000       0.00000000       0.00000000          1
6
pbc=[F, F, F] list_num_par=6 frozen=false iter=20000 energy=-1.26974174 Lattice="15.00000000 0.00000000 0.00000000 0.00000000 15.00000000 0.00000000 0.00000000 0.00000000 15.00000000" energy_frozen_part=0.00000000 Properties=species:S:1:pos:R:3:velocities:R:3:Z:I:1
H         5.26881762      12.20680022       7.41822358         0.00000000       0.00000000       0.00000000          1
H         3.13729004      10.86188862       6.21319339         0.00000000       0.00000000       0.00000000          1
H         4.55174491      10.77729808       3.80561581         0.00000000       0.00000000       0.00000000          1
H         4.11650109      13.22241820       5.08477489         0.00000000       0.00000000       0.00000000          1
H         6.68327427      12.12220761       5.01064944         0.00000000       0.00000000       0.00000000          1
H         5.70406301       9.76168235       6.13906898         0.00000000       0.00000000       0.00000000          1
6
pbc=[F, F, F] list_num_par=6 frozen=false iter=20000 energy=-1.26974174 Lattice="15.00000000 0.00000000 0.00000000 0.00000000 15.00000000 0.00000000 0.00000000 0.00000000 15.00000000" energy_frozen_part=0.00000000 Properties=species:S:1:pos:R:3:velocities:R:3:Z:I:1
H         6.74302513      11.55059462       6.00111241         0.00000000       0.00000000       0.00000000          1
H         3.96047265      11.64770013       5.77252533         0.00000000       0.00000000       0.00000000          1
H         4.18705084      11.58728743       2.98876581         0.00000000       0.00000000       0.00000000          1
H         5.53694832      13.54267219       4.45795520         0.00000000       0.00000000       0.00000000          1
H         6.96960544      11.49019146       3.21735476         0.00000000       0.00000000       0.00000000          1
H         5.39312412       9.59521729       4.53191416         0.00000000       0.00000000       0.00000000          1
6
pbc=[F, F, F] list_num_par=6 frozen=false iter=20000 energy=-1.26974174 Lattice="15.00000000 0.00000000 0.00000000 0.00000000 15.00000000 0.00000000 0.00000000 0.00000000 15.00000000" energy_frozen_part=0.00000000 Properties=species:S:1:pos:R:3:velocities:R:3:Z:I:1
H         5.26567243      12.20164900       7.41618590         0.00000000       0.00000000       0.00000000          1
H         3.13548692      10.85689597       6.20862060         0.00000000       0.00000000       0.00000000          1
H         4.54778231      10.78314886       3.79941695         0.00000000       0.00000000       0.00000000          1
H         4.10923172      13.22307779       5.08732844         0.00000000       0.00000000       0.00000000          1
H         6.67797326      12.12789523       5.00698690         0.00000000       0.00000000       0.00000000          1
H         5.70422305       9.76171568       6.12828389         0.00000000       0.00000000       0.00000000          1
6
pbc=[F, F, F] list_num_par=6 frozen=false iter=20000 energy=-1.26974174 Lattice="15.00000000 0.00000000 0.00000000 0.00000000 15.00000000 0.00000000 0.00000000 0.00000000 15.00000000" energy_frozen_part=0.00000000 Properties=species:S:1:pos:R:3:velocities:R:3:Z:I:1
H         5.26880571      12.20684797       7.41820457         0.00000000       0.00000000       0.00000000          1
H         3.13725561      10.86207255       6.21306783         0.00000000       0.00000000       0.00000000          1
H         4.55191134      10.77723090       3.80561379         0.00000000       0.00000000       0.00000000          1
H         4.11678150      13.22244958       5.08460938         0.00000000       0.00000000       0.00000000          1
H         6.68345918      12.12200336       5.01075790         0.00000000       0.00000000       0.00000000          1
H         5.70393414       9.76162012       6.13920808         0.00000000       0.00000000       0.00000000          1
6
pbc=[F, F, F] list_num_par=6 frozen=false iter=20000 energy=-1.26974174 Lattice="15.00000000 0.00000000 0.00000000 0.00000000 15.00000000 0.00000000 0.00000000 0.00000000 15.00000000" energy_frozen_part=0.00000000 Properties=species:S:1:pos:R:3:velocities:R:3:Z:I:1
H         7.06275739      14.70167831       7.00470742         0.00000000       0.00000000       0.00000000          1
H         6.71893279      14.29730067       9.74743220         0.00000000       0.00000000       0.00000000          1
H         8.70315469      12.44398691       6.87747629         0.00000000       0.00000000       0.00000000          1
H         6.13067519      12.24290143       7.94807135         0.00000000       0.00000000       0.00000000          1
H         9.29141614      14.49837787       8.67683572         0.00000000       0.00000000       0.00000000          1
H         8.35933962      12.03960733       9.62020363         0.00000000       0.00000000       0.00000000          1
6
pbc=[F, F, F] list_num_par=6 frozen=false iter=20000 energy=-1.26974174 Lattice="15.00000000 0.00000000 0.00000000 0.00000000 15.00000000 0.00000000 0.00000000 0.00000000 15.00000000" energy_frozen_part=0.00000000 Properties=species:S:1:pos:R:3:velocities:R:3:Z:I:1
H         7.06272353      14.70165879       7.00473125         0.00000000       0.00000000       0.00000000          1
H         6.71899501      14.29726878       9.74746493         0.00000000       0.00000000       0.00000000          1
H         8.70317702      12.44400231       6.87744402         0.00000000       0.00000000       0.00000000          1
H         6.13072620      12.24286024       7.94811834         0.00000000       0.00000000       0.00000000          1
H         9.29144083      14.49840766       8.67679024         0.00000000       0.00000000       0.00000000          1
H         8.35943970      12.03960773       9.62018397         0.00000000       0.00000000       0.00000000          1
6
pbc=[F, F, F] list_num_par=6 frozen=false iter=20000 energy=-1.26974174 Lattice="15.00000000 0.00000000 0.00000000 0.00000000 15.00000000 0.00000000 0.00000000 0.00000000 15.00000000" energy_frozen_part=0.00000000 Properties=species:S:1:pos:R:3:velocities:R:3:Z:I:1
H         7.06275645      14.70167482       7.00468424         0.00000000       0.00000000       0.00000000          1
H         6.71900247      14.29732250       9.74742531         0.00000000       0.00000000       0.00000000          1
H         8.70323473      12.44403842       6.87745106         0.00000000       0.00000000       0.00000000          1
H         6.13077736      12.24287863       7.94810180         0.00000000       0.00000000       0.00000000          1
H         9.29145473      14.49847429       8.67678033         0.00000000       0.00000000       0.00000000          1
H         8.35948003      12.03967999       9.62018868         0.00000000       0.00000000       0.00000000          1
6
pbc=[F, F, F] list_num_par=6 frozen=false iter=20000 energy=-1.26974174 Lattice="15.00000000 0.00000000 0.00000000 0.00000000 15.00000000 0.00000000 0.00000000 0.00000000 15.00000000" energy_frozen_part=0.00000000 Properties=species:S:1:pos:R:3:velocities:R:3:Z:I:1
H         5.26879634      12.20687692       7.41822685         0.00000000       0.00000000       0.00000000          1
H         3.13722875      10.86210925       6.21311255         0.00000000       0.00000000       0.00000000          1
H         4.55187687      10.77722189       3.80565104         0.00000000       0.00000000       0.00000000          1
H         4.11678044      13.22246620       5.08462087         0.00000000       0.00000000       0.00000000          1
H         6.68344317      12.12199563       5.01077067         0.00000000       0.00000000       0.00000000          1
H         5.70390206       9.76163584       6.13925628         0.00000000       0.00000000       0.00000000          1
6
pbc=[F, F, F] list_num_par=6 frozen=false iter=20000 energy=-1.26974174 Lattice="15.00000000 0.00000000 0.00000000 0.00000000 15.00000000 0.00000000 0.00000000 0.00000000 15.00000000" energy_frozen_part=0.00000000 Properties=species:S:1:pos:R:3:velocities:R:3:Z:I:1
H         7.06283207      14.70165210       7.00470223         0.00000000       0.00000000       0.00000000          1
H         6.71903073      14.29734415       9.74743672         0.00000000       0.00000000       0.00000000          1
H         8.70323034      12.44395371       6.87751900         0.00000000       0.00000000       0.00000000          1
H         6.13074924      12.24290947       7.94813616         0.00000000       0.00000000       0.00000000          1
H         9.29150492      14.49839273       8.67682355         0.00000000       0.00000000       0.00000000          1
H         8.35942224      12.03964520       9.62025748         0.00000000       0.00000000       0.00000000          1
6
pbc=[F, F, F] list_num_par=6 frozen=false iter=20000 energy=-1.26974174 Lattice="15.00000000 0.00000000 0.00000000 0.00000000 15.00000000 0.00000000 0.00000000 0.00000000 15.00000000" energy_frozen_part=0.00000000 Properties=species:S:1:pos:R:3:velocities:R:3:Z:I:1
H         5.26558021      12.20167689       7.41611898         0.00000000       0.00000000       0.00000000          1
H         3.13541634      10.85687005       6.20856933         0.00000000       0.00000000       0.00000000          1
H         4.54772736      10.78309524       3.79937381         0.00000000       0.00000000       0.00000000          1
H         4.10912830      13.22304339       5.08723040         0.00000000       0.00000000       0.00000000          1
H         6.67788510      12.12790499       5.00692415         0.00000000       0.00000000       0.00000000          1
H         5.70417048       9.76172741       6.12825570         0.00000000       0.00000000       0.00000000          1
6
pbc=[F, F, F] list_num_par=6 frozen=false iter=20000 energy=-1.26974174 Lattice="15.00000000 0.00000000 0.00000000 0.00000000 15.00000000 0.00000000 0.00000000 0.00000000 15.00000000" energy_frozen_part=0.00000000 Properties=species:S:1:pos:R:3:velocities:R:3:Z:I:1
H         6.74117001      11.54972815       6.00295661         0.00000000       0.00000000       0.00000000          1
H         3.95881669      11.64822074       5.77256891         0.00000000       0.00000000       0.00000000          1
H         4.18709497      11.58572421       2.98900077         0.00000000       0.00000000       0.00000000          1
H         5.53717913      13.54138851       4.45765522         0.00000000       0.00000000       0.00000000          1
H         6.96945512      11.48722818       3.21938654         0.00000000       0.00000000       0.00000000          1
H         5.39109773       9.59406297       4.53429657         0.00000000       0.00000000       0.00000000          1
6
pbc=[F, F, F] list_num_par=6 frozen=false iter=20000 energy=-1.26974174 Lattice="15.00000000 0.00000000 0.00000000 0.00000000 15.00000000 0.00000000 0.00000000 0.00000000 15.00000000" energy_frozen_part=0.00000000 Properties=species:S:1:pos:R:3:velocities:R:3:Z:I:1
H         5.26561401      12.20166540       7.41611556         0.00000000       0.00000000       0.00000000          1
H         3.13545189      10.85682230       6.20859782         0.00000000       0.00000000       0.00000000          1
H         4.54771041      10.78308322       3.79937648         0.00000000       0.00000000       0.00000000          1
H         4.10909155      13.22301785       5.08725414         0.00000000       0.00000000       0.00000000          1
H         6.67787097      12.12792682       5.00689347         0.00000000       0.00000000       0.00000000          1
H         5.70422405       9.76172785       6.12823664         0.00000000       0.00000000       0.00000000          1
6
pbc=[F, F, F] list_num_par=6 frozen=false iter=20000 energy=-1.26974174 Lattice="15.00000000 0.00000000 0.00000000 0.00000000 15.00000000 0.00000000 0.00000000 0.00000000 15.00000000" energy_frozen_part=0.00000000 Properties=species:S:1:pos:R:3:velocities:R:3:Z:I:1
H         5.26881341      12.20687760       7.41823051         0.00000000       0.00000000       0.00000000          1
H         3.13726203      10.86207360       6.21312304         0.00000000       0.00000000       0.00000000          1
H         4.55189823      10.77720855       3.80565863         0.00000000       0.00000000       0.00000000          1
H         4.11675983      13.22244589       5.08463495         0.00000000       0.00000000       0.00000000          1
H         6.68344460      12.12202075       5.01075763         0.00000000       0.00000000       0.00000000          1
H         5.70395019       9.76164617       6.13925397         0.00000000       0.00000000       0.00000000          1
6
pbc=[F, F, F] list_num_par=6 frozen=false iter=20000 energy=-1.26974174 Lattice="15.00000000 0.00000000 0.00000000 0.00000000 15.00000000 0.00000000 0.00000000 0.00000000 15.00000000" energy_frozen_part=0.00000000 Properties=species:S:1:pos:R:3:velocities:R:3:Z:I:1
H         6.74118575      11.54975698       6.00296125         0.00000000       0.00000000       0.00000000          1
H         3.95882851      11.64823446       5.77258366         0.00000000       0.00000000       0.00000000          1
H         4.18709612      11.58573416       2.98901483         0.00000000       0.00000000       0.00000000          1
H         5.53717077      13.54140480       4.45766003         0.00000000       0.00000000       0.00000000          1
H         6.96945287      11.48725474       3.21938990         0.00000000       0.00000000       0.00000000          1
H         5.39110431       9.59408046       4.53431524         0.00000000       0.00000000       0.00000000          1
6
pbc=[F, F, F] list_num_par=6 frozen=false iter=20000 energy=-1.26974174 Lattice="15.00000000 0.00000000 0.00000000 0.00000000 15.00000000 0.00000000 0.00000000 0.00000000 15.00000000" energy_frozen_part=0.00000000 Properties=species:S:1:pos:R:3:velocities:R:3:Z:I:1
H         5.26562913      12.20168025       7.41611818         0.00000000       0.00000000       0.00000000          1
H         3.13546885      10.85681823       6.20861984         0.00000000       0.00000000       0.00000000          1
H         4.54771733      10.78308269       3.79939077         0.00000000       0.00000000       0.00000000          1
H         4.10910179      13.22301379       5.08726191         0.00000000       0.00000000       0.00000000          1
H         6.67788375      12.12793542       5.00688729         0.00000000       0.00000000       0.00000000          1
H         5.70425160       9.76173986       6.12824867         0.00000000       0.00000000       0.00000000          1
6
pbc=[F, F, F] list_num_par=6 frozen=false iter=20000 energy=-1.26974174 Lattice="15.00000000 0.00000000 0.00000000 0.00000000 15.00000000 0.00000000 0.00000000 0.00000000 15.00000000" energy_frozen_part=0.00000000 Properties=species:S:1:pos:R:3:velocities:R:3:Z:I:1
H         7.06275145      14.70167173       7.00471317         0.00000000       0.00000000       0.00000000          1
H         6.71894177      14.29729716       9.74744306         0.00000000       0.00000000       0.00000000          1
H         8.70314956      12.44397988       6.87748885         0.00000000       0.00000000       0.00000000          1
H         6.13066812      12.24290158       7.94809061         0.00000000       0.00000000       0.00000000          1
H         9.29141740      14.49837642       8.67684135         0.00000000       0.00000000       0.00000000          1
H         8.35933912      12.03959936       9.62021719         0.00000000       0.00000000       0.00000000          1
6
pbc=[F, F, F] list_num_par=6 frozen=false iter=20000 energy=-1.26974174 Lattice="15.00000000 0.00000000 0.00000000 0.00000000 15.00000000 0.00000000 0.00000000 0.00000000 15.00000000" energy_frozen_part=0.00000000 Properties=species:S:1:pos:R:3:velocities:R:3:Z:I:1
H         7.06275873      14.70167192       7.00471541         0.00000000       0.00000000       0.00000000          1
H         6.71894018      14.29730022       9.74744385         0.00000000       0.00000000       0.00000000          1
H         8.70315646      12.44397605       6.87747982         0.00000000       0.00000000       0.00000000          1
H         6.13067234      12.24290638       7.94808480         0.00000000       0.00000000       0.00000000          1
H         9.29142485      14.49837144       8.67683560         0.00000000       0.00000000       0.00000000          1
H         8.35933800      12.03960022       9.62021258         0.00000000       0.00000000       0.00000000          1
6
pbc=[F, F, F] list_num_par=6 frozen=false iter=20000 energy=-1.26974174 Lattice="15.00000000 0.00000000 0.00000000 0.00000000 15.00000000 0.00000000 0.00000000 0.00000000 15.00000000" energy_frozen_part=0.00000000 Properties=species:S:1:pos:R:3:velocities:R:3:Z:I:1
H         7.06272131      14.70180815       7.00478530         0.00000000       0.00000000       0.00000000          1
H         6.71886207      14.29706941       9.74745597         0.00000000       0.00000000       0.00000000          1
H         8.70327236      12.44423226       6.87732120         0.00000000       0.00000000       0.00000000          1
H         6.13078015      12.24285708       7.94783048         0.00000000       0.00000000       0.00000000          1
H         9.29135971      14.49844922       8.67693751         0.00000000       0.00000000       0.00000000          1
H         8.35941216      12.03949963       9.61999392         0.00000000       0.00000000       0.00000000          1
6
pbc=[F, F, F] list_num_par=6 frozen=false iter=20000 energy=-1.26974174 Lattice="15.00000000 0.00000000 0.00000000 0.00000000 15.00000000 0.00000000 0.00000000 0.00000000 15.00000000" energy_frozen_part=0.00000000 Properties=species:S:1:pos:R:3:velocities:R:3:Z:I:1
H         5.26567064      12.20164638       7.41618588         0.00000000       0.00000000       0.00000000          1
H         3.13548394      10.85689283       6.20861767         0.00000000       0.00000000       0.00000000          1
H         4.54777770      10.78314129       3.79941020         0.00000000       0.00000000       0.00000000          1
H         4.10922314      13.22307274       5.08731980         0.00000000       0.00000000       0.00000000          1
H         6.67796021      12.12790664       5.00697740         0.00000000       0.00000000       0.00000000          1
H         5.70422480       9.76172191       6.12827998         0.00000000       0.00000000       0.00000000          1
6
pbc=[F, F, F] list_num_par=6 frozen=false iter=20000 energy=-1.26974174 Lattice="15.00000000 0.00000000 0.00000000 0.00000000 15.00000000 0.00000000 0.00000000 0.00000000 15.00000000" energy_frozen_part=0.00000000 Properties=species:S:1:pos:R:3:velocities:R:3:Z:I:1
H         5.26886844      12.20679342       7.41821663         0.00000000       0.00000000       0.00000000          1
H         3.13729769      10.86192845       6.21320305         0.00000000       0.00000000       0.00000000          1
H         4.55176064      10.77727231       3.80562559         0.00000000       0.00000000       0.00000000          1
H         4.11657533      13.22241133       5.08475646         0.00000000       0.00000000       0.00000000          1
H         6.68332114      12.12213598       5.01063883         0.00000000       0.00000000       0.00000000          1
H         5.70403829       9.76164861       6.13908609         0.00000000       0.00000000       0.00000000          1
6
pbc=[F, F, F] list_num_par=6 frozen=false iter=20000 energy=-1.26974174 Lattice="15.00000000 0.00000000 0.00000000 0.00000000 15.00000000 0.00000000 0.00000000 0.00000000 15.00000000" energy_frozen_part=0.00000000 Properties=species:S:1:pos:R:3:velocities:R:3:Z:I:1
H         5.26880934      12.20687649       7.41823113         0.00000000       0.00000000       0.00000000          1
H         3.13726503      10.86207480       6.21310693         0.00000000       0.00000000       0.00000000          1
H         4.55190173      10.77723989       3.80564302         0.00000000       0.00000000       0.00000000          1
H         4.11675369      13.22246454       5.08463929         0.00000000       0.00000000       0.00000000          1
H         6.68344439      12.12203543       5.01076350         0.00000000       0.00000000       0.00000000          1
H         5.70395299       9.76164926       6.13923803         0.00000000       0.00000000       0.00000000          1
6
pbc=[F, F, F] list_num_par=6 frozen=false iter=20000 energy=-1.26974174 Lattice="15.00000000 0.00000000 0.00000000 0.00000000 15.00000000 0.00000000 0.00000000 0.00000000 15.00000000" energy_frozen_part=0.00000000 Properties=species:S:1:pos:R:3:velocities:R:3:Z:I:1
H         7.06281911      14.70171890       7.00434517         0.00000000       0.00000000       0.00000000          1
H         6.71856347      14.29760665       9.74705574         0.00000000       0.00000000       0.00000000          1
H         8.70341608      12.44414189       6.87763202         0.00000000       0.00000000       0.00000000          1
H         6.13076041      12.24297594       7.94781521         0.00000000       0.00000000       0.00000000          1
H         9.29121171      14.49877077       8.67687413         0.00000000       0.00000000       0.00000000          1
H         8.35915246      12.04002035       9.62033934         0.00000000       0.00000000       0.00000000          1
6
pbc=[F, F, F] list_num_par=6 frozen=false iter=20000 energy=-1.26974174 Lattice="15.00000000 0.00000000 0.00000000 0.00000000 15.00000000 0.00000000 0.00000000 0.00000000 15.00000000" energy_frozen_part=0.00000000 Properties=species:S:1:pos:R:3:velocities:R:3:Z:I:1
H         5.26885285      12.20678601       7.41821628         0.00000000       0.00000000       0.00000000          1
H         3.13729097      10.86193872       6.21319511         0.00000000       0.00000000       0.00000000          1
H         4.55175692      10.77728535       3.80562415         0.00000000       0.00000000       0.00000000          1
H         4.11658676      13.22242662       5.08475414         0.00000000       0.00000000       0.00000000          1
H         6.68332613      12.12213478       5.01064440         0.00000000       0.00000000       0.00000000          1
H         5.70403146       9.76164798       6.13908349         0.00000000       0.00000000       0.00000000          1
6
pbc=[F, F, F] list_num_par=6 frozen=false iter=20000 energy=-1.26974174 Lattice="15.00000000 0.00000000 0.00000000 0.00000000 15.00000000 0.00000000 0.00000000 0.00000000 15.00000000" energy_frozen_part=0.00000000 Properties=species:S:1:pos:R:3:velocities:R:3:Z:I:1
H         6.74115451      11.54966589       6.00294236         0.00000000       0.00000000       0.00000000          1
H         3.95879597      11.64824369       5.77257832         0.00000000       0.00000000       0.00000000          1
H         4.18706019      11.58583367       2.98900524         0.00000000       0.00000000       0.00000000          1
H         5.53720015      13.54140850       4.45771321         0.00000000       0.00000000       0.00000000          1
H         6.96941456      11.48725068       3.21936567         0.00000000       0.00000000       0.00000000          1
H         5.39101570       9.59408951       4.53423333         0.00000000       0.00000000       0.00000000          1
6
pbc=[F, F, F] list_num_par=6 frozen=false iter=20000 energy=-1.26974174 Lattice="15.00000000 0.00000000 0.00000000 0.00000000 15.00000000 0.00000000 0.00000000 0.00000000 15.00000000" energy_frozen_part=0.00000000 Properties=species:S:1:pos:R:3:velocities:R:3:Z:I:1
H         5.26885382      12.20679037       7.41822269         0.00000000       0.00000000       0.00000000          1
H         3.13729530      10.86193474       6.21318709         0.00000000       0.00000000       0.00000000          1
H         4.55176587      10.77728226       3.80561754         0.00000000       0.00000000       0.00000000          1
H         4.11658881      13.22242347       5.08475685         0.00000000       0.00000000       0.00000000          1
H         6.68332405      12.12213536       5.01064893         0.00000000       0.00000000       0.00000000          1
H         5.70402994       9.76164518       6.13908364         0.00000000       0.00000000       0.00000000          1
6
pbc=[F, F, F] list_num_par=6 frozen=false iter=20000 energy=-1.26974174 Lattice="15.00000000 0.00000000 0.00000000 0.00000000 15.00000000 0.00000000 0.00000000 0.00000000 15.00000000" energy_frozen_part=0.00000000 Properties=species:S:1:pos:R:3:velocities:R:3:Z:I:1
H         5.26882372      12.20688711       7.41819443         0.00000000       0.00000000       0.00000000          1
H         3.13727170      10.86206976       6.21311387         0.00000000       0.00000000       0.00000000          1
H         4.55189238      10.77719805       3.80564174         0.00000000       0.00000000       0.00000000          1
H         4.11675244      13.22243770       5.08459493         0.00000000       0.00000000       0.00000000          1
H         6.68344444      12.12202716       5.01072195         0.00000000       0.00000000       0.00000000          1
H         5.70396161       9.76165083       6.13923654         0.00000000       0.00000000       0.00000000          1
6
pbc=[F, F, F] list_num_par=6 frozen=false iter=20000 energy=-1.26974174 Lattice="15.00000000 0.00000000 0.00000000 0.00000000 15.00000000 0.00000000 0.00000000 0.00000000 15.00000000" energy_frozen_part=0.00000000 Properties=species:S:1:pos:R:3:velocities:R:3:Z:I:1
H         5.26879123      12.20686887       7.41824816         0.00000000       0.00000000       0.00000000          1
H         3.13726191      10.86205615       6.21311916         0.00000000       0.00000000       0.00000000          1
H         4.55190304      10.77722179       3.80566001         0.00000000       0.00000000       0.00000000          1
H         4.11674232      13.22244579       5.08465182         0.00000000       0.00000000       0.00000000          1
H         6.68343813      12.12203656       5.01078150         0.00000000       0.00000000       0.00000000          1
H         5.70395786       9.76165003       6.13925627         0.00000000       0.00000000       0.00000000          1
6
pbc=[F, F, F] list_num_par=6 frozen=false iter=20000 energy=-1.26974174 Lattice="15.00000000 0.00000000 0.00000000 0.00000000 15.00000000 0.00000000 0.00000000 0.00000000 15.00000000" energy_frozen_part=0.00000000 Properties=species:S:1:pos:R:3:velocities:R:3:Z:I:1
H         7.06270357      14.70180020       7.00478596         0.00000000       0.00000000       0.00000000          1
H         6.71885097      14.29705922       9.74745618         0.00000000       0.00000000       0.00000000          1
H         8.70327248      12.44424223       6.87731430         0.00000000       0.00000000       0.00000000          1
H         6.13077700      12.24284454       7.94782754         0.00000000       0.00000000       0.00000000          1
H         9.29134365      14.49845023       8.67694249         0.00000000       0.00000000       0.00000000          1
H         8.35941191      12.03950171       9.61998523         0.00000000       0.00000000       0.00000000          1
6
pbc=[F, F, F] list_num_par=6 frozen=false iter=20000 energy=-1.26974174 Lattice="15.00000000 0.00000000 0.00000000 0.00000000 15.00000000 0.00000000 0.00000000 0.00000000 15.00000000" energy_frozen_part=0.00000000 Properties=species:S:1:pos:R:3:velocities:R:3:Z:I:1
H         6.74301900      11.55059850       6.00111451         0.00000000       0.00000000       0.00000000          1
H         3.96046914      11.64769877       5.77252104         0.00000000       0.00000000       0.00000000          1
H         4.18704423      11.58727945       2.98876869         0.00000000       0.00000000       0.00000000          1
H         5.53695006      13.54266976       4.45795219         0.00000000       0.00000000       0.00000000          1
H         6.96959898      11.49017983       3.21735612         0.00000000       0.00000000       0.00000000          1
H         5.39311501       9.59521201       4.53192199         0.00000000       0.00000000       0.00000000          1
6
pbc=[F, F, F] list_num_par=6 frozen=false iter=20000 energy=-1.26974174 Lattice="15.00000000 0.00000000 0.00000000 0.00000000 15.00000000 0.00000000 0.00000000 0.00000000 15.00000000" energy_frozen_part=0.00000000 Properties=species:S:1:pos:R:3:velocities:R:3:Z:I:1
H         5.26880429      12.20684960       7.41823416         0.00000000       0.00000000       0.00000000          1
H         3.13725312      10.86206452       6.21310737         0.00000000       0.00000000       0.00000000          1
H         4.55190327      10.77721877       3.80565293         0.00000000       0.00000000       0.00000000          1
H         4.11677035      13.22244354       5.08463906         0.00000000       0.00000000       0.00000000          1
H         6.68345461      12.12200134       5.01077691         0.00000000       0.00000000       0.00000000          1
H         5.70393893       9.76162782       6.13925417         0.00000000       0.00000000       0.00000000          1
6
pbc=[F, F, F] list_num_par=6 frozen=false iter=20000 energy=-1.26974174 Lattice="15.00000000 0.00000000 0.00000000 0.00000000 15.00000000 0.00000000 0.00000000 0.00000000 15.00000000" energy_frozen_part=0.00000000 Properties=species:S:1:pos:R:3:velocities:R:3:Z:I:1
H         5.26566032      12.20164695       7.41617237         0.00000000       0.00000000       0.00000000          1
H         3.13548214      10.85688542       6.20860641         0.00000000       0.00000000       0.00000000          1
H         4.54778034      10.78314574       3.79940053         0.00000000       0.00000000       0.00000000          1
H         4.10921568      13.22307170       5.08731179         0.00000000       0.00000000       0.00000000          1
H         6.67796001      12.12791295       5.00697267         0.00000000       0.00000000       0.00000000          1
H         5.70423358       9.76172405       6.12826428         0.00000000       0.00000000       0.00000000          1
6
pbc=[F, F, F] list_num_par=6 frozen=false iter=20000 energy=-1.26974174 Lattice="15.00000000 0.00000000 0.00000000 0.00000000 15.00000000 0.00000000 0.00000000 0.00000000 15.00000000" energy_frozen_part=0.00000000 Properties=species:S:1:pos:R:3:velocities:R:3:Z:I:1
H         5.26885797      12.20678673       7.41822884         0.00000000       0.00000000       0.00000000          1
H         3.13729545      10.86194027       6.21319033         0.00000000       0.00000000       0.00000000          1
H         4.55177368      10.77728674       3.80562985         0.00000000       0.00000000       0.00000000          1
H         4.11660256      13.22242927       5.08476676         0.00000000       0.00000000       0.00000000          1
H         6.68333859      12.12213755       5.01065901         0.00000000       0.00000000       0.00000000          1
H         5.70403584       9.76164837       6.13909454         0.00000000       0.00000000       0.00000000          1
6
pbc=[F, F, F] list_num_par=6 frozen=false iter=20000 energy=-1.26974174 Lattice="15.00000000 0.00000000 0.00000000 0.00000000 15.00000000 0.00000000 0.00000000 0.00000000 15.00000000" energy_frozen_part=0.00000000 Properties=species:S:1:pos:R:3:velocities:R:3:Z:I:1
H         5.26879533      12.20685965       7.41823906         0.00000000       0.00000000       0.00000000          1
H         3.13726269      10.86205490       6.21310327         0.00000000       0.00000000       0.00000000          1
H         4.55192011      10.77722073       3.80564804         0.00000000       0.00000000       0.00000000          1
H         4.11675718      13.22244401       5.08464131         0.00000000       0.00000000       0.00000000          1
H         6.68344715      12.12202578       5.01078248         0.00000000       0.00000000       0.00000000          1
H         5.70395972       9.76163727       6.13924701         0.00000000       0.00000000       0.00000000          1
6
pbc=[F, F, F] list_num_par=6 frozen=false iter=20000 energy=-1.26974174 Lattice="15.00000000 0.00000000 0.00000000 0.00000000 15.00000000 0.00000000 0.00000000 0.00000000 15.00000000" energy_frozen_part=0.00000000 Properties=species:S:1:pos:R:3:velocities:R:3:Z:I:1
H         5.26886293      12.20679432       7.41821401         0.00000000       0.00000000       0.00000000          1
H         3.13730152      10.86193521       6.21320268         0.00000000       0.00000000       0.00000000          1
H         4.55175498      10.77728145       3.80562328         0.00000000       0.00000000       0.00000000          1
H         4.11657299      13.22242562       5.08475463         0.00000000       0.00000000       0.00000000          1
H         6.68331545      12.12214610       5.01063385         0.00000000       0.00000000       0.00000000          1
H         5.70404061       9.76165248       6.13907816         0.00000000       0.00000000       0.00000000          1
6
pbc=[F, F, F] list_num_par=6 frozen=false iter=20000 energy=-1.26974174 Lattice="15.00000000 0.00000000 0.00000000 0.00000000 15.00000000 0.00000000 0.00000000 0.00000000 15.00000000" energy_frozen_part=0.00000000 Properties=species:S:1:pos:R:3:velocities:R:3:Z:I:1
H         6.74297948      11.55060973       6.00112145         0.00000000       0.00000000       0.00000000          1
H         3.96043129      11.64774066       5.77250550         0.00000000       0.00000000       0.00000000          1
H         4.18702579      11.58726581       2.98875289         0.00000000       0.00000000       0.00000000          1
H         5.53694062      13.54266240       4.45790843         0.00000000       0.00000000       0.00000000          1
H         6.96957928      11.49013394       3.21736707         0.00000000       0.00000000       0.00000000          1
H         5.39306751       9.59521344       4.53195446         0.00000000       0.00000000       0.00000000          1
6
pbc=[F, F, F] list_num_par=6 frozen=false iter=20000 energy=-1.26974174 Lattice="15.00000000 0.00000000 0.00000000 0.00000000 15.00000000 0.00000000 0.00000000 0.00000000 15.00000000" energy_frozen_part=0.00000000 Properties=species:S:1:pos:R:3:velocities:R:3:Z:I:1
H         7.06277483      14.70163622       7.00468754         0.00000000       0.00000000       0.00000000          1
H         6.71899967      14.29731608       9.74743040         0.00000000       0.00000000       0.00000000          1
H         8.70318042      12.44394960       6.87747770         0.00000000       0.00000000       0.00000000          1
H         6.13071583      12.24288582       7.94812480         0.00000000       0.00000000       0.00000000          1
H         9.29146336      14.49838307       8.67678757         0.00000000       0.00000000       0.00000000          1
H         8.35941133      12.03962864       9.62022157         0.00000000       0.00000000       0.00000000          1
6
pbc=[F, F, F] list_num_par=6 frozen=false iter=20000 energy=-1.26974174 Lattice="15.00000000 0.00000000 0.00000000 0.00000000 15.00000000 0.00000000 0.00000000 0.00000000 15.00000000" energy_frozen_part=0.00000000 Properties=species:S:1:pos:R:3:velocities:R:3:Z:I:1
H         7.06282481      14.70164438       7.00468861         0.00000000       0.00000000       0.00000000          1
H         6.71901920      14.29734469       9.74742533         0.00000000       0.00000000       0.00000000          1
H         8.70322107      12.44394530       6.87751497         0.00000000       0.00000000       0.00000000          1
H         6.13074751      12.24289739       7.94813652         0.00000000       0.00000000       0.00000000          1
H         9.29149697      14.49839468       8.67680324         0.00000000       0.00000000       0.00000000          1
H         8.35942073      12.03965075       9.62025739         0.00000000       0.00000000       0.00000000          1
6
pbc=[F, F, F] list_num_par=6 frozen=false iter=20000 energy=-1.26974174 Lattice="15.00000000 0.00000000 0.00000000 0.00000000 15.00000000 0.00000000 0.00000000 0.00000000 15.00000000" energy_frozen_part=0.00000000 Properties=species:S:1:pos:R:3:velocities:R:3:Z:I:1
H         6.74301503      11.55059743       6.00112450         0.00000000       0.00000000       0.00000000          1
H         3.96046195      11.64769719       5.77251365         0.00000000       0.00000000       0.00000000          1
H         4.18705688      11.58724836       2.98876127         0.00000000       0.00000000       0.00000000          1
H         5.53695200      13.54265320       4.45794246         0.00000000       0.00000000       0.00000000          1
H         6.96960810      11.49015496       3.21736958         0.00000000       0.00000000       0.00000000          1
H         5.39312524       9.59520066       4.53194352         0.00000000       0.00000000       0.00000000          1
6
pbc=[F, F, F] list_num_par=6 frozen=false iter=20000 energy=-1.26974174 Lattice="15.00000000 0.00000000 0.00000000 0.00000000 15.00000000 0.00000000 0.00000000 0.00000000 15.00000000" energy_frozen_part=0.00000000 Properties=species:S:1:pos:R:3:velocities:R:3:Z:I:1
H         5.26556590      12.20167407       7.41612125         0.00000000       0.00000000       0.00000000          1
H         3.13541864      10.85684940       6.20856267         0.00000000       0.00000000       0.00000000          1
H         4.54772126      10.78308922       3.79936454         0.00000000       0.00000000       0.00000000          1
H         4.10911102      13.22302880       5.08723116         0.00000000       0.00000000       0.00000000          1
H         6.67787407      12.12791229       5.00691987         0.00000000       0.00000000       0.00000000          1
H         5.70418256       9.76173096       6.12824875         0.00000000       0.00000000       0.00000000          1
6
pbc=[F, F, F] list_num_par=6 frozen=false iter=20000 energy=-1.26974174 Lattice="15.00000000 0.00000000 0.00000000 0.00000000 15.00000000 0.00000000 0.00000000 0.00000000 15.00000000" energy_frozen_part=0.00000000 Properties=species:S:1:pos:R:3:velocities:R:3:Z:I:1
H         6.74296933      11.55061539       6.00111934         0.00000000       0.00000000       0.00000000          1
H         3.96042111      11.64773996       5.77250717         0.00000000       0.00000000       0.00000000          1
H         4.18702816      11.58727046       2.98875152         0.00000000       0.00000000       0.00000000          1
H         5.53693139      13.54267233       4.45792322         0.00000000       0.00000000       0.00000000          1
H         6.96957676      11.49014787       3.21736611         0.00000000       0.00000000       0.00000000          1
H         5.39306498       9.59521918       4.53195660         0.00000000       0.00000000       0.00000000          1
6
pbc=[F, F, F] list_num_par=6 frozen=false iter=20000 energy=-1.26974174 Lattice="15.00000000 0.00000000 0.00000000 0.00000000 15.00000000 0.00000000 0.00000000 0.00000000 15.00000000" energy_frozen_part=0.00000000 Properties=species:S:1:pos:R:3:velocities:R:3:Z:I:1
H         5.26879756      12.20684830       7.41822984         0.00000000       0.00000000       0.00000000          1
H         3.13725042      10.86206546       6.21310512         0.00000000       0.00000000       0.00000000          1
H         4.55190230      10.77720680       3.80565056         0.00000000       0.00000000       0.00000000          1
H         4.11676952      13.22243890       5.08462693         0.00000000       0.00000000       0.00000000          1
H         6.68345501      12.12199521       5.01077344         0.00000000       0.00000000       0.00000000          1
H         5.70393270       9.76162313       6.13925303         0.00000000       0.00000000       0.00000000          1
6
pbc=[F, F, F] list_num_par=6 frozen=false iter=20000 energy=-1.26974174 Lattice="15.00000000 0.00000000 0.00000000 0.00000000 15.00000000 0.00000000 0.00000000 0.00000000 15.00000000" energy_frozen_part=0.00000000 Properties=species:S:1:pos:R:3:velocities:R:3:Z:I:1
H         5.26560542      12.20166741       7.41611864         0.00000000       0.00000000       0.00000000          1
H         3.13544381      10.85682101       6.20860137         0.00000000       0.00000000       0.00000000          1
H         4.54770509      10.78308546       3.79938466         0.00000000       0.00000000       0.00000000          1
H         4.10909104      13.22301889       5.08725912         0.00000000       0.00000000       0.00000000          1
H         6.67786873      12.12793010       5.00689515         0.00000000       0.00000000       0.00000000          1
H         5.70422018       9.76173638       6.12824484         0.00000000       0.00000000       0.00000000          1
6
pbc=[F, F, F] list_num_par=6 frozen=false iter=20000 energy=-1.26974174 Lattice="15.00000000 0.00000000 0.00000000 0.00000000 15.00000000 0.00000000 0.00000000 0.00000000 15.00000000" energy_frozen_part=0.00000000 Properties=species:S:1:pos:R:3:velocities:R:3:Z:I:1
H         5.26882487      12.20679459       7.41822546         0.00000000       0.00000000       0.00000000          1
H         3.13730346      10.86187316       6.21320021         0.00000000       0.00000000       0.00000000          1
H         4.55175982      10.77727117       3.80562446         0.00000000       0.00000000       0.00000000          1
H         4.11651301      13.22239428       5.08476797         0.00000000       0.00000000       0.00000000          1
H         6.68328350      12.12218982       5.01064825         0.00000000       0.00000000       0.00000000          1
H         5.70407529       9.76166982       6.13907965         0.00000000       0.00000000       0.00000000          1
6
pbc=[F, F, F] list_num_par=6 frozen=false iter=20000 energy=-1.26974174 Lattice="15.00000000 0.00000000 0.00000000 0.00000000 15.00000000 0.00000000 0.00000000 0.00000000 15.00000000" energy_frozen_part=0.00000000 Properties=species:S:1:pos:R:3:velocities:R:3:Z:I:1
H         7.06269636      14.70180484       7.00479346         0.00000000       0.00000000       0.00000000          1
H         6.71884465      14.29705400       9.74746135         0.00000000       0.00000000       0.00000000          1
H         8.70326040      12.44424469       6.87731582         0.00000000       0.00000000       0.00000000          1
H         6.13077161      12.24284042       7.94783086         0.00000000       0.00000000       0.00000000          1
H         9.29133588      14.49844758       8.67694764         0.00000000       0.00000000       0.00000000          1
H         8.35940863      12.03949334       9.61998735         0.00000000       0.00000000       0.00000000          1
6
pbc=[F, F, F] list_num_par=6 frozen=false iter=20000 energy=-1.26974174 Lattice="15.00000000 0.00000000 0.00000000 0.00000000 15.00000000 0.00000000 0.00000000 0.00000000 15.00000000" energy_frozen_part=0.00000000 Properties=species:S:1:pos:R:3:velocities:R:3:Z:I:1
H         5.26877949      12.20685706       7.41820505         0.00000000       0.00000000       0.00000000          1
H         3.13723397      10.86207396       6.21306919         0.00000000       0.00000000       0.00000000          1
H         4.55188941      10.77722369       3.80561827         0.00000000       0.00000000       0.00000000          1
H         4.11675493      13.22245717       5.08460790         0.00000000       0.00000000       0.00000000          1
H         6.68343688      12.12201127       5.01074806         0.00000000       0.00000000       0.00000000          1
H         5.70391922       9.76163086       6.13921633         0.00000000       0.00000000       0.00000000          1
6
pbc=[F, F, F] list_num_par=6 frozen=false iter=20000 energy=-1.26974174 Lattice="15.00000000 0.00000000 0.00000000 0.00000000 15.00000000 0.00000000 0.00000000 0.00000000 15.00000000" energy_frozen_part=0.00000000 Properties=species:S:1:pos:R:3:velocities:R:3:Z:I:1
H         5.26566645      12.20163557       7.41617370         0.00000000       0.00000000       0.00000000          1
H         3.13548218      10.85688081       6.20860365         0.00000000       0.00000000       0.00000000          1
H         4.54777402      10.78316056       3.79939369         0.00000000       0.00000000       0.00000000          1
H         4.10921222      13.22307579       5.08731909         0.00000000       0.00000000       0.00000000          1
H         6.67795661      12.12791948       5.00697137         0.00000000       0.00000000       0.00000000          1
H         5.70423024       9.76172358       6.12824434         0.00000000       0.00000000       0.00000000          1
6
pbc=[F, F, F] list_num_par=6 frozen=false iter=20000 energy=-1.26974174 Lattice="15.00000000 0.00000000 0.00000000 0.00000000 15.00000000 0.00000000 0.00000000 0.00000000 15.00000000" energy_frozen_part=0.00000000 Properties=species:S:1:pos:R:3:velocities:R:3:Z:I:1
H         6.74115997      11.54967336       6.00294775         0.00000000       0.00000000       0.00000000          1
H         3.95880446      11.64824221       5.77256781         0.00000000       0.00000000       0.00000000          1
H         4.18707535      11.58581521       2.98898987         0.00000000       0.00000000       0.00000000          1
H         5.53720322      13.54140343       4.45770406         0.00000000       0.00000000       0.00000000          1
H         6.96943046      11.48724953       3.21937360         0.00000000       0.00000000       0.00000000          1
H         5.39102287       9.59408780       4.53423806         0.00000000       0.00000000       0.00000000          1
6
pbc=[F, F, F] list_num_par=6 frozen=false iter=20000 energy=-1.26974174 Lattice="15.00000000 0.00000000 0.00000000 0.00000000 15.00000000 0.00000000 0.00000000 0.00000000 15.00000000" energy_frozen_part=0.00000000 Properties=species:S:1:pos:R:3:velocities:R:3:Z:I:1
H         6.74118567      11.54973253       6.00295728         0.00000000       0.00000000       0.00000000          1
H         3.95883133      11.64821899       5.77257812         0.00000000       0.00000000       0.00000000          1
H         4.18709370      11.58574063       2.98900494         0.00000000       0.00000000       0.00000000          1
H         5.53717163      13.54139784       4.45766383         0.00000000       0.00000000       0.00000000          1
H         6.96945251      11.48724890       3.21938579         0.00000000       0.00000000       0.00000000          1
H         5.39110665       9.59407426       4.53428879         0.00000000       0.00000000       0.00000000          1
6
pbc=[F, F, F] list_num_par=6 frozen=false iter=20000 energy=-1.26974174 Lattice="15.00000000 0.00000000 0.00000000 0.00000000 15.00000000 0.00000000 0.00000000 0.00000000 15.00000000" energy_frozen_part=0.00000000 Properties=species:S:1:pos:R:3:velocities:R:3:Z:I:1
H         6.74296546      11.55061892       6.00112409         0.00000000       0.00000000       0.00000000          1
H         3.96041829      11.64772915       5.77250066         0.00000000       0.00000000       0.00000000          1
H         4.18702404      11.58725338       2.98874681         0.00000000       0.00000000       0.00000000          1
H         5.53691913      13.54266246       4.45790853         0.00000000       0.00000000       0.00000000          1
H         6.96957642      11.49013828       3.21736996         0.00000000       0.00000000       0.00000000          1
H         5.39307439       9.59521123       4.53195980         0.00000000       0.00000000       0.00000000          1
6
pbc=[F, F, F] list_num_par=6 frozen=false iter=20000 energy=-1.26974174 Lattice="15.00000000 0.00000000 0.00000000 0.00000000 15.00000000 0.00000000 0.00000000 0.00000000 15.00000000" energy_frozen_part=0.00000000 Properties=species:S:1:pos:R:3:velocities:R:3:Z:I:1
H         7.06275185      14.70167076       7.00471978         0.00000000       0.00000000       0.00000000          1
H         6.71893661      14.29728756       9.74744536         0.00000000       0.00000000       0.00000000          1
H         8.70316022      12.44398469       6.87747880         0.00000000       0.00000000       0.00000000          1
H         6.13067674      12.24289963       7.94808201         0.00000000       0.00000000       0.00000000          1
H         9.29141919      14.49837595       8.67684368         0.00000000       0.00000000       0.00000000          1
H         8.35934259      12.03960235       9.62020427         0.00000000       0.00000000       0.00000000          1
6
pbc=[F, F, F] list_num_par=6 frozen=false iter=20000 energy=-1.26974174 Lattice="15.00000000 0.00000000 0.00000000 0.00000000 15.00000000 0.00000000 0.00000000 0.00000000 15.00000000" energy_frozen_part=0.00000000 Properties=species:S:1:pos:R:3:velocities:R:3:Z:I:1
H         5.26880713      12.20687576       7.41822505         0.00000000       0.00000000       0.00000000          1
H         3.13725004      10.86208046       6.21310993         0.00000000       0.00000000       0.00000000          1
H         4.55188954      10.77724495       3.80564228         0.00000000       0.00000000       0.00000000          1
H         4.11675299      13.22246095       5.08463786         0.00000000       0.00000000       0.00000000          1
H         6.68344224      12.12203324       5.01076099         0.00000000       0.00000000       0.00000000          1
H         5.70393744       9.76165052       6.13923086         0.00000000       0.00000000       0.00000000          1
6
pbc=[F, F, F] list_num_par=6 frozen=false iter=20000 energy=-1.26974174 Lattice="15.00000000 0.00000000 0.00000000 0.00000000 15.00000000 0.00000000 0.00000000 0.00000000 15.00000000" energy_frozen_part=0.00000000 Properties=species:S:1:pos:R:3:velocities:R:3:Z:I:1
H         7.06270377      14.70180052       7.00477797         0.00000000       0.00000000       0.00000000          1
H         6.71885569      14.29705563       9.74744609         0.00000000       0.00000000       0.00000000          1
H         8.70325102      12.44422829       6.87730112         0.00000000       0.00000000       0.00000000          1
H         6.13076031      12.24284434       7.94781524         0.00000000       0.00000000       0.00000000          1
H         9.29134793      14.49843731       8.67692435         0.00000000       0.00000000       0.00000000          1
H         8.35940156      12.03948378       9.61996893         0.00000000       0.00000000       0.00000000          1
6
pbc=[F, F, F] list_num_par=6 frozen=false iter=20000 energy=-1.26974174 Lattice="15.00000000 0.00000000 0.00000000 0.00000000 15.00000000 0.00000000 0.00000000 0.00000000 15.00000000" energy_frozen_part=0.00000000 Properties=species:S:1:pos:R:3:velocities:R:3:Z:I:1
H         5.26559535      12.20167403       7.41613117         0.00000000       0.00000000       0.00000000          1
H         3.13544057      10.85683041       6.20860902         0.00000000       0.00000000       0.00000000          1
H         4.54770091      10.78308849       3.79938584         0.00000000       0.00000000       0.00000000          1
H         4.10908956      13.22302635       5.08726291         0.00000000       0.00000000       0.00000000          1
H         6.67786303      12.12793717       5.00690825         0.00000000       0.00000000       0.00000000          1
H         5.70421529       9.76174414       6.12825313         0.00000000       0.00000000       0.00000000          1
6
pbc=[F, F, F] list_num_par=6 frozen=false iter=20000 energy=-1.26974174 Lattice="15.00000000 0.00000000 0.00000000 0.00000000 15.00000000 0.00000000 0.00000000 0.00000000 15.00000000" energy_frozen_part=0.00000000 Properties=species:S:1:pos:R:3:velocities:R:3:Z:I:1
H         6.74303229      11.55059168       6.00109892         0.00000000       0.00000000       0.00000000          1
H         3.96047971      11.64770630       5.77252241         0.00000000       0.00000000       0.00000000          1
H         4.18704204      11.58727805       2.98876467         0.00000000       0.00000000       0.00000000          1
H         5.53696080      13.54266088       4.45793797         0.00000000       0.00000000       0.00000000          1
H         6.96959542      11.49015266       3.21734397         0.00000000       0.00000000       0.00000000          1
H         5.39310923       9.59520208       4.53192704         0.00000000       0.00000000       0.00000000          1
6
pbc=[F, F, F] list_num_par=6 frozen=false iter=20000 energy=-1.26974174 Lattice="15.00000000 0.00000000 0.00000000 0.00000000 15.00000000 0.00000000 0.00000000 0.00000000 15.00000000" energy_frozen_part=0.00000000 Properties=species:S:1:pos:R:3:velocities:R:3:Z:I:1
H         6.74118124      11.54971933       6.00294436         0.00000000       0.00000000       0.00000000          1
H         3.95882252      11.64827956       5.77261375         0.00000000       0.00000000       0.00000000          1
H         4.18704700      11.58584139       2.98903793         0.00000000       0.00000000       0.00000000          1
H         5.53719650      13.54144082       4.45770810         0.00000000       0.00000000       0.00000000          1
H         6.96940754      11.48727820       3.21936598         0.00000000       0.00000000       0.00000000          1
H         5.39103455       9.59412292       4.53427083         0.00000000       0.00000000       0.00000000          1
6
pbc=[F, F, F] list_num_par=6 frozen=false iter=20000 energy=-1.26974174 Lattice="15.00000000 0.00000000 0.00000000 0.00000000 15.00000000 0.00000000 0.00000000 0.00000000 15.00000000" energy_frozen_part=0.00000000 Properties=species:S:1:pos:R:3:velocities:R:3:Z:I:1
H         6.74301886      11.55058168       6.00111219         0.00000000       0.00000000       0.00000000          1
H         3.96046660      11.64770373       5.77251693         0.00000000       0.00000000       0.00000000          1
H         4.18705445      11.58727445       2.98876206         0.00000000       0.00000000       0.00000000          1
H         5.53696205      13.54265481       4.45794471         0.00000000       0.00000000       0.00000000          1
H         6.96961057      11.49015238       3.21735845         0.00000000       0.00000000       0.00000000          1
H         5.39311037       9.59520286       4.53192506         0.00000000       0.00000000       0.00000000          1
6
pbc=[F, F, F] list_num_par=6 frozen=false iter=20000 energy=-1.26974174 Lattice="15.00000000 0.00000000 0.00000000 0.00000000 15.00000000 0.00000000 0.00000000 0.00000000 15.00000000" energy_frozen_part=0.00000000 Properties=species:S:1:pos:R:3:velocities:R:3:Z:I:1
H         7.06277957      14.70166962       7.00473363         0.00000000       0.00000000       0.00000000          1
H         6.71902361      14.29730981       9.74747218         0.00000000       0.00000000       0.00000000          1
H         8.70319087      12.44398197       6.87748592         0.00000000       0.00000000       0.00000000          1
H         6.13073420      12.24290392       7.94814146         0.00000000       0.00000000       0.00000000          1
H         9.29148201      14.49839590       8.67681457         0.00000000       0.00000000       0.00000000          1
H         8.35943399      12.03962624       9.62022402         0.00000000       0.00000000       0.00000000          1
6
pbc=[F, F, F] list_num_par=6 frozen=false iter=20000 energy=-1.26974174 Lattice="15.00000000 0.00000000 0.00000000 0.00000000 15.00000000 0.00000000 0.00000000 0.00000000 15.00000000" energy_frozen_part=0.00000000 Properties=species:S:1:pos:R:3:velocities:R:3:Z:I:1
H         6.74114954      11.54968426       6.00295270         0.00000000       0.00000000       0.00000000          1
H         3.95879617      11.64824378       5.77256687         0.00000000       0.00000000       0.00000000          1
H         4.18707758      11.58581233       2.98899443         0.00000000       0.00000000       0.00000000          1
H         5.53720378      13.54140361       4.45769832         0.00000000       0.00000000       0.00000000          1
H         6.96942980      11.48724360       3.21938122         0.00000000       0.00000000       0.00000000          1
H         5.39103077       9.59408807       4.53425128         0.00000000       0.00000000       0.00000000          1
