6
pbc=[F, F, F] list_num_par=6 frozen=false iter=20000 energy=-1.26974174 Lattice="15.00000000 0.00000000 0.00000000 0.00000000 15.00000000 0.00000000 0.00000000 0.00000000 15.00000000" energy_frozen_part=0.00000000 Properties=species:S:1:pos:R:3:velocities:R:3:Z:I:1
H         4.76333770       2.83914152      14.91637610         0.00000000       0.00000000       0.00000000          1
H         2.96858322       3.07907392      12.78903566         0.00000000       0.00000000       0.00000000          1
H         4.35727762       5.32341915      13.70486126         0.00000000       0.00000000       0.00000000          1
H         6.77636519       3.97304365      13.34595587         0.00000000       0.00000000       0.00000000          1
H         4.98161548       4.21298963      11.21861260         0.00000000       0.00000000       0.00000000          1
H         5.38766781       1.72870445      12.43012514         0.00000000       0.00000000       0.00000000          1
6
pbc=[F, F, F] list_num_par=6 frozen=false iter=20000 energy=-1.26974174 Lattice="15.00000000 0.00000000 0.00000000 0.00000000 15.00000000 0.00000000 0.00000000 0.00000000 15.00000000" energy_frozen_part=0.00000000 Properties=species:S:1:pos:R:3:velocities:R:3:Z:I:1
H         4.76336863       2.83914410      14.91638566         0.00000000       0.00000000       0.00000000          1
H         2.96861462       3.07913185      12.78904652         0.00000000       0.00000000       0.00000000          1
H         4.35735245       5.32343525      13.70488092         0.00000000       0.00000000       0.00000000          1
H         6.77641497       3.97303065      13.34595809         0.00000000       0.00000000       0.00000000          1
H         4.98166768       4.21301160      11.21862469         0.00000000       0.00000000       0.00000000          1
H         5.38766914       1.72872186      12.43012277         0.00000000       0.00000000       0.00000000          1
6
pbc=[F, F, F] list_num_par=6 frozen=false iter=20000 energy=-1.26974174 Lattice="15.00000000 0.00000000 0.00000000 0.00000000 15.00000000 0.00000000 0.00000000 0.00000000 15.00000000" energy_frozen_part=0.00000000 Properties=species:S:1:pos:R:3:velocities:R:3:Z:I:1
H         4.76268611       2.83968216      14.91621127         0.00000000       0.00000000       0.00000000          1
H         2.96851461       3.08024786      12.78845108         0.00000000       0.00000000       0.00000000          1
H         4.35748547       5.32418019      13.70485760         0.00000000       0.00000000       0.00000000          1
H         6.77635696       3.97330842      13.34639686         0.00000000       0.00000000       0.00000000          1
H         4.98217701       4.21387852      11.21864623         0.00000000       0.00000000       0.00000000          1
H         5.38738330       1.72937442      12.42999640         0.00000000       0.00000000       0.00000000          1
6
pbc=[F, F, F] list_num_par=6 frozen=false iter=20000 energy=-1.26974174 Lattice="15.00000000 0.00000000 0.00000000 0.00000000 15.00000000 0.00000000 0.00000000 0.00000000 15.00000000" energy_frozen_part=0.00000000 Properties=species:S:1:pos:R:3:velocities:R:3:Z:I:1
H         4.76333243       2.83911416      14.91637621         0.00000000       0.00000000       0.00000000          1
H         2.96857702       3.07908750      12.78904443         0.00000000       0.00000000       0.00000000          1
H         4.35728275       5.32341502      13.70489617         0.00000000       0.00000000       0.00000000          1
H         6.77636526       3.97303942      13.34596479         0.00000000       0.00000000       0.00000000          1
H         4.98161379       4.21301102      11.21862594         0.00000000       0.00000000       0.00000000          1
H         5.38766129       1.72871550      12.43011019         0.00000000       0.00000000       0.00000000          1
6
pbc=[F, F, F] list_num_par=6 frozen=false iter=20000 energy=-1.26974174 Lattice="15.00000000 0.00000000 0.00000000 0.00000000 15.00000000 0.00000000 0.00000000 0.00000000 15.00000000" energy_frozen_part=0.00000000 Properties=species:S:1:pos:R:3:velocities:R:3:Z:I:1
H         5.14332579       2.80331022      13.40022585         0.00000000       0.00000000       0.00000000          1
H         3.25576316       4.74801284      12.72232782         0.00000000       0.00000000       0.00000000          1
H         5.70158080       5.50501998      13.84000211         0.00000000       0.00000000       0.00000000          1
H         7.05141806       4.10865199      11.83192666         0.00000000       0.00000000       0.00000000          1
H         5.16385577       6.05334746      11.15402992         0.00000000       0.00000000       0.00000000          1
H         4.60560067       3.35164385      10.71424297         0.00000000       0.00000000       0.00000000          1
6
pbc=[F, F, F] list_num_par=6 frozen=false iter=20000 energy=-1.26974174 Lattice="15.00000000 0.00000000 0.00000000 0.00000000 15.00000000 0.00000000 0.00000000 0.00000000 15.00000000" energy_frozen_part=0.00000000 Properties=species:S:1:pos:R:3:velocities:R:3:Z:I:1
H         4.76264771       2.83964504      14.91623816         0.00000000       0.00000000       0.00000000          1
H         2.96849355       3.08025700      12.78846730         0.00000000       0.00000000       0.00000000          1
H         4.35748990       5.32416425      13.70490599         0.00000000       0.00000000       0.00000000          1
H         6.77634714       3.97327025      13.34645900         0.00000000       0.00000000       0.00000000          1
H         4.98218695       4.21388414      11.21868716         0.00000000       0.00000000       0.00000000          1
H         5.38735076       1.72936524      12.43000981         0.00000000       0.00000000       0.00000000          1
6
pbc=[F, F, F] list_num_par=6 frozen=false iter=20000 energy=-1.26974174 Lattice="15.00000000 0.00000000 0.00000000 0.00000000 15.00000000 0.00000000 0.00000000 0.00000000 15.00000000" energy_frozen_part=0.00000000 Properties=species:S:1:pos:R:3:velocities:R:3:Z:I:1
H         4.76272548       2.83968488      14.91620638         0.00000000       0.00000000       0.00000000          1
H         2.96852042       3.08027276      12.78848288         0.00000000       0.00000000       0.00000000          1
H         4.35754157       5.32419056      13.70486706         0.00000000       0.00000000       0.00000000          1
H         6.77638748       3.97329351      13.34637288         0.00000000       0.00000000       0.00000000          1
H         4.98217674       4.21387618      11.21864711         0.00000000       0.00000000       0.00000000          1
H         5.38737513       1.72937369      12.42998224         0.00000000       0.00000000       0.00000000          1
6
pbc=[F, F, F] list_num_par=6 frozen=false iter=20000 energy=-1.26974174 Lattice="15.00000000 0.00000000 0.00000000 0.00000000 15.00000000 0.00000000 0.00000000 0.00000000 15.00000000" energy_frozen_part=0.00000000 Properties=species:S:1:pos:R:3:velocities:R:3:Z:I:1
H         4.76334342       2.83912596      14.91636568         0.00000000       0.00000000       0.00000000          1
H         2.96853991       3.07910273      12.78907108         0.00000000       0.00000000       0.00000000          1
H         4.35728503       5.32341586      13.70488826         0.00000000       0.00000000       0.00000000          1
H         6.77635106       3.97302947      13.34589616         0.00000000       0.00000000       0.00000000          1
H         4.98154063       4.21302043      11.21860660         0.00000000       0.00000000       0.00000000          1
H         5.38760118       1.72871836      12.43007980         0.00000000       0.00000000       0.00000000          1
6
pbc=[F, F, F] list_num_par=6 frozen=false iter=20000 energy=-1.26974174 Lattice="15.00000000 0.00000000 0.00000000 0.00000000 15.00000000 0.00000000 0.00000000 0.00000000 15.00000000" energy_frozen_part=0.00000000 Properties=species:S:1:pos:R:3:velocities:R:3:Z:I:1
H         4.76268014       2.83970068      14.91618359         0.00000000       0.00000000       0.00000000          1
H         2.96852000       3.08035655      12.78842869         0.00000000       0.00000000       0.00000000          1
H         4.35758140       5.32422535      13.70486532         0.00000000       0.00000000       0.00000000          1
H         6.77639586       3.97326835      13.34639226         0.00000000       0.00000000       0.00000000          1
H         4.98222830       4.21393127      11.21863571         0.00000000       0.00000000       0.00000000          1
H         5.38733840       1.72940289      12.42995870         0.00000000       0.00000000       0.00000000          1
6
pbc=[F, F, F] list_num_par=6 frozen=false iter=20000 energy=-1.26974174 Lattice="15.00000000 0.00000000 0.00000000 0.00000000 15.00000000 0.00000000 0.00000000 0.00000000 15.00000000" energy_frozen_part=0.00000000 Properties=species:S:1:pos:R:3:velocities:R:3:Z:I:1
H         4.76337447       2.83907089      14.91637548         0.00000000       0.00000000       0.00000000          1
H         2.96856456       3.07912132      12.78909202         0.00000000       0.00000000       0.00000000          1
H         4.35732085       5.32340004      13.70497077         0.00000000       0.00000000       0.00000000          1
H         6.77638522       3.97301665      13.34594912         0.00000000       0.00000000       0.00000000          1
H         4.98158519       4.21305768      11.21866296         0.00000000       0.00000000       0.00000000          1
H         5.38762471       1.72872906      12.43007221         0.00000000       0.00000000       0.00000000          1
6
pbc=[F, F, F] list_num_par=6 frozen=false iter=20000 energy=-1.26974174 Lattice="15.00000000 0.00000000 0.00000000 0.00000000 15.00000000 0.00000000 0.00000000 0.00000000 15.00000000" energy_frozen_part=0.00000000 Properties=species:S:1:pos:R:3:velocities:R:3:Z:I:1
H         4.76268828       2.83980937      14.91615058         0.00000000       0.00000000       0.00000000          1
H         2.96847760       3.08037664      12.78842611         0.00000000       0.00000000       0.00000000          1
H         4.35748774       5.32430125      13.70478961         0.00000000       0.00000000       0.00000000          1
H         6.77633875       3.97341383      13.34630436         0.00000000       0.00000000       0.00000000          1
H         4.98213369       4.21398041      11.21857280         0.00000000       0.00000000       0.00000000          1
H         5.38732604       1.72948530      12.42992906         0.00000000       0.00000000       0.00000000          1
6
pbc=[F, F, F] list_num_par=6 frozen=false iter=20000 energy=-1.26974174 Lattice="15.00000000 0.00000000 0.00000000 0.00000000 15.00000000 0.00000000 0.00000000 0.00000000 15.00000000" energy_frozen_part=0.00000000 Properties=species:S:1:pos:R:3:velocities:R:3:Z:I:1
H         4.76330779       2.83911459      14.91634783         0.00000000       0.00000000       0.00000000          1
H         2.96852963       3.07910994      12.78903993         0.00000000       0.00000000       0.00000000          1
H         4.35727680       5.32341811      13.70487993         0.00000000       0.00000000       0.00000000          1
H         6.77633318       3.97301634      13.34590838         0.00000000       0.00000000       0.00000000          1
H         4.98154442       4.21301959      11.21860518         0.00000000       0.00000000       0.00000000          1
H         5.38759182       1.72871065      12.43007192         0.00000000       0.00000000       0.00000000          1
6
pbc=[F, F, F] list_num_par=6 frozen=false iter=20000 energy=-1.26974174 Lattice="15.00000000 0.00000000 0.00000000 0.00000000 15.00000000 0.00000000 0.00000000 0.00000000 15.00000000" energy_frozen_part=0.00000000 Properties=species:S:1:pos:R:3:velocities:R:3:Z:I:1
H         4.76319090       2.83912565      14.91636903         0.00000000       0.00000000       0.00000000          1
H         2.96850519       3.07913127      12.78898554         0.00000000       0.00000000       0.00000000          1
H         4.35716918       5.32344365      13.70491690         0.00000000       0.00000000       0.00000000          1
H         6.77626292       3.97308927      13.34603406         0.00000000       0.00000000       0.00000000          1
H         4.98157613       4.21309047      11.21864441         0.00000000       0.00000000       0.00000000          1
H         5.38759859       1.72877201      12.43010209         0.00000000       0.00000000       0.00000000          1
6
pbc=[F, F, F] list_num_par=6 frozen=false iter=20000 energy=-1.26974174 Lattice="15.00000000 0.00000000 0.00000000 0.00000000 15.00000000 0.00000000 0.00000000 0.00000000 15.00000000" energy_frozen_part=0.00000000 Properties=species:S:1:pos:R:3:velocities:R:3:Z:I:1
H         4.76329031       2.83911343      14.91636629         0.00000000       0.00000000       0.00000000          1
H         2.96858457       3.07914818      12.78899742         0.00000000       0.00000000       0.00000000          1
H         4.35730828       5.32343264      13.70492017         0.00000000       0.00000000       0.00000000          1
H         6.77637336       3.97303065      13.34601801         0.00000000       0.00000000       0.00000000          1
H         4.98167158       4.21306394      11.21865237         0.00000000       0.00000000       0.00000000          1
H         5.38765609       1.72874734      12.43009484         0.00000000       0.00000000       0.00000000          1
6
pbc=[F, F, F] list_num_par=6 frozen=false iter=20000 energy=-1.26974174 Lattice="15.00000000 0.00000000 0.00000000 0.00000000 15.00000000 0.00000000 0.00000000 0.00000000 15.00000000" energy_frozen_part=0.00000000 Properties=species:S:1:pos:R:3:velocities:R:3:Z:I:1
H         4.76332577       2.83914086      14.91637742         0.00000000       0.00000000       0.00000000          1
H         2.96858944       3.07906787      12.78903140         0.00000000       0.00000000       0.00000000          1
H         4.35726943       5.32341623      13.70485412         0.00000000       0.00000000       0.00000000          1
H         6.77636687       3.97305884      13.34596514         0.00000000       0.00000000       0.00000000          1
H         4.98162658       4.21298481      11.21861122         0.00000000       0.00000000       0.00000000          1
H         5.38768409       1.72870652      12.43013665         0.00000000       0.00000000       0.00000000          1
6
pbc=[F, F, F] list_num_par=6 frozen=false iter=20000 energy=-1.26974174 Lattice="15.00000000 0.00000000 0.00000000 0.00000000 15.00000000 0.00000000 0.00000000 0.00000000 15.00000000" energy_frozen_part=0.00000000 Properties=species:S:1:pos:R:3:velocities:R:3:Z:I:1
H         4.76329563       2.83915403      14.91636453         0.00000000       0.00000000       0.00000000          1
H         2.96858243       3.07917135      12.78899874         0.00000000       0.00000000       0.00000000          1
H         4.35730454       5.32346307      13.70489495         0.00000000       0.00000000       0.00000000          1
H         6.77637423       3.97306414      13.34601280         0.00000000       0.00000000       0.00000000          1
H         4.98167282       4.21307627      11.21863766         0.00000000       0.00000000       0.00000000          1
H         5.38765223       1.72876697      12.43010667         0.00000000       0.00000000       0.00000000          1
6
pbc=[F, F, F] list_num_par=6 frozen=false iter=20000 energy=-1.26974174 Lattice="15.00000000 0.00000000 0.00000000 0.00000000 15.00000000 0.00000000 0.00000000 0.00000000 15.00000000" energy_frozen_part=0.00000000 Properties=species:S:1:pos:R:3:velocities:R:3:Z:I:1
H         4.76265272       2.83969126      14.91626344         0.00000000       0.00000000       0.00000000          1
H         2.96846226       3.08032805      12.78853280         0.00000000       0.00000000       0.00000000          1
H         4.35753412       5.32420594      13.70492301         0.00000000       0.00000000       0.00000000          1
H         6.77635097       3.97324617      13.34643444         0.00000000       0.00000000       0.00000000          1
H         4.98215225       4.21388035      11.21870187         0.00000000       0.00000000       0.00000000          1
H         5.38728515       1.72936426      12.43003692         0.00000000       0.00000000       0.00000000          1
6
pbc=[F, F, F] list_num_par=6 frozen=false iter=20000 energy=-1.26974174 Lattice="15.00000000 0.00000000 0.00000000 0.00000000 15.00000000 0.00000000 0.00000000 0.00000000 15.00000000" energy_frozen_part=0.00000000 Properties=species:S:1:pos:R:3:velocities:R:3:Z:I:1
H         4.76264976       2.83976774      14.91615687         0.00000000       0.00000000       0.00000000          1
H         2.96849690       3.08034736      12.78838579         0.00000000       0.00000000       0.00000000          1
H         4.35751126       5.32425802      13.70478703         0.00000000       0.00000000       0.00000000          1
H         6.77636066       3.97333685      13.34635420         0.00000000       0.00000000       0.00000000          1
H         4.98220016       4.21393287      11.21858174         0.00000000       0.00000000       0.00000000          1
H         5.38734616       1.72943098      12.42995178         0.00000000       0.00000000       0.00000000          1
6
pbc=[F, F, F] list_num_par=6 frozen=false iter=20000 energy=-1.26974174 Lattice="15.00000000 0.00000000 0.00000000 0.00000000 15.00000000 0.00000000 0.00000000 0.00000000 15.00000000" energy_frozen_part=0.00000000 Properties=species:S:1:pos:R:3:velocities:R:3:Z:I:1
H         4.76335399       2.83912225      14.91640129         0.00000000       0.00000000       0.00000000          1
H         2.96859491       3.07909140      12.78906612         0.00000000       0.00000000       0.00000000          1
H         4.35731706       5.32340841      13.70491307         0.00000000       0.00000000       0.00000000          1
H         6.77639134       3.97302806      13.34597885         0.00000000       0.00000000       0.00000000          1
H         4.98163362       4.21301023      11.21864742         0.00000000       0.00000000       0.00000000          1
H         5.38766899       1.72870876      12.43013377         0.00000000       0.00000000       0.00000000          1
6
pbc=[F, F, F] list_num_par=6 frozen=false iter=20000 energy=-1.26974174 Lattice="15.00000000 0.00000000 0.00000000 0.00000000 15.00000000 0.00000000 0.00000000 0.00000000 15.00000000" energy_frozen_part=0.00000000 Properties=species:S:1:pos:R:3:velocities:R:3:Z:I:1
H         4.76280135       2.83978643      14.91617162         0.00000000       0.00000000       0.00000000          1
H         2.96859829       3.08030831      12.78843398         0.00000000       0.00000000       0.00000000          1
H         4.35759633       5.32425334      13.70476846         0.00000000       0.00000000       0.00000000          1
H         6.77645651       3.97335745      13.34631541         0.00000000       0.00000000       0.00000000          1
H         4.98225547       4.21389038      11.21857508         0.00000000       0.00000000       0.00000000          1
H         5.38745256       1.72941170      12.42997422         0.00000000       0.00000000       0.00000000          1
6
pbc=[F, F, F] list_num_par=6 frozen=false iter=20000 energy=-1.26974174 Lattice="15.00000000 0.00000000 0.00000000 0.00000000 15.00000000 0.00000000 0.00000000 0.00000000 15.00000000" energy_frozen_part=0.00000000 Properties=species:S:1:pos:R:3:velocities:R:3:Z:I:1
H         4.76318156       2.83912689      14.91635965         0.00000000       0.00000000       0.00000000          1
H         2.96850124       3.07913567      12.78897346         0.00000000       0.00000000       0.00000000          1
H         4.35716731       5.32344648      13.70490337         0.00000000       0.00000000       0.00000000          1
H         6.77626365       3.97308849      13.34603433         0.00000000       0.00000000       0.00000000          1
H         4.98158395       4.21309261      11.21864172         0.00000000       0.00000000       0.00000000          1
H         5.38759346       1.72877904      12.43009691         0.00000000       0.00000000       0.00000000          1
6
pbc=[F, F, F] list_num_par=6 frozen=false iter=20000 energy=-1.26974174 Lattice="15.00000000 0.00000000 0.00000000 0.00000000 15.00000000 0.00000000 0.00000000 0.00000000 15.00000000" energy_frozen_part=0.00000000 Properties=species:S:1:pos:R:3:velocities:R:3:Z:I:1
H         4.76264789       2.83977867      14.91614366         0.00000000       0.00000000       0.00000000          1
H         2.96849602       3.08034842      12.78837197         0.00000000       0.00000000       0.00000000          1
H         4.35748528       5.32427200      13.70477975         0.00000000       0.00000000       0.00000000          1
H         6.77635107       3.97336727      13.34634440         0.00000000       0.00000000       0.00000000          1
H         4.98219236       4.21394798      11.21857881         0.00000000       0.00000000       0.00000000          1
H         5.38735724       1.72944892      12.42993717         0.00000000       0.00000000       0.00000000          1
6
pbc=[F, F, F] list_num_par=6 frozen=false iter=20000 energy=-1.26974174 Lattice="15.00000000 0.00000000 0.00000000 0.00000000 15.00000000 0.00000000 0.00000000 0.00000000 15.00000000" energy_frozen_part=0.00000000 Properties=species:S:1:pos:R:3:velocities:R:3:Z:I:1
H         4.76335211       2.83912789      14.91639511         0.00000000       0.00000000       0.00000000          1
H         2.96859770       3.07913797      12.78906099         0.00000000       0.00000000       0.00000000          1
H         4.35734143       5.32343336      13.70492521         0.00000000       0.00000000       0.00000000          1
H         6.77639623       3.97303287      13.34598514         0.00000000       0.00000000       0.00000000          1
H         4.98164669       4.21303166      11.21864910         0.00000000       0.00000000       0.00000000          1
H         5.38766090       1.72873012      12.43012040         0.00000000       0.00000000       0.00000000          1
6
pbc=[F, F, F] list_num_par=6 frozen=false iter=20000 energy=-1.26974174 Lattice="15.00000000 0.00000000 0.00000000 0.00000000 15.00000000 0.00000000 0.00000000 0.00000000 15.00000000" energy_frozen_part=0.00000000 Properties=species:S:1:pos:R:3:velocities:R:3:Z:I:1
H         4.76273449       2.83967527      14.91620142         0.00000000       0.00000000       0.00000000          1
H         2.96850544       3.08027021      12.78849962         0.00000000       0.00000000       0.00000000          1
H         4.35751997       5.32418875      13.70488549         0.00000000       0.00000000       0.00000000          1
H         6.77637350       3.97330574      13.34634968         0.00000000       0.00000000       0.00000000          1
H         4.98213330       4.21389936      11.21864694         0.00000000       0.00000000       0.00000000          1
H         5.38735368       1.72938590      12.42996245         0.00000000       0.00000000       0.00000000          1
6
pbc=[F, F, F] list_num_par=6 frozen=false iter=20000 energy=-1.26974174 Lattice="15.00000000 0.00000000 0.00000000 0.00000000 15.00000000 0.00000000 0.00000000 0.00000000 15.00000000" energy_frozen_part=0.00000000 Properties=species:S:1:pos:R:3:velocities:R:3:Z:I:1
H         5.14332048       2.80331165      13.40022234         0.00000000       0.00000000       0.00000000          1
H         3.25575614       4.74801070      12.72231322         0.00000000       0.00000000       0.00000000          1
H         5.70157002       5.50502074      13.84001136         0.00000000       0.00000000       0.00000000          1
H         7.05141747       4.10865883      11.83193290         0.00000000       0.00000000       0.00000000          1
H         5.16385872       6.05334842      11.15402782         0.00000000       0.00000000       0.00000000          1
H         4.60560410       3.35164234      10.71424380         0.00000000       0.00000000       0.00000000          1
6
pbc=[F, F, F] list_num_par=6 frozen=false iter=20000 energy=-1.26974174 Lattice="15.00000000 0.00000000 0.00000000 0.00000000 15.00000000 0.00000000 0.00000000 0.00000000 15.00000000" energy_frozen_part=0.00000000 Properties=species:S:1:pos:R:3:velocities:R:3:Z:I:1
H         4.76319922       2.83911453      14.91635618         0.00000000       0.00000000       0.00000000          1
H         2.96849923       3.07912388      12.78898695         0.00000000       0.00000000       0.00000000          1
H         4.35717678       5.32343558      13.70491709         0.00000000       0.00000000       0.00000000          1
H         6.77627452       3.97307916      13.34601741         0.00000000       0.00000000       0.00000000          1
H         4.98156235       4.21308072      11.21864374         0.00000000       0.00000000       0.00000000          1
H         5.38759384       1.72876646      12.43008916         0.00000000       0.00000000       0.00000000          1
6
pbc=[F, F, F] list_num_par=6 frozen=false iter=20000 energy=-1.26974174 Lattice="15.00000000 0.00000000 0.00000000 0.00000000 15.00000000 0.00000000 0.00000000 0.00000000 15.00000000" energy_frozen_part=0.00000000 Properties=species:S:1:pos:R:3:velocities:R:3:Z:I:1
H         4.76265228       2.83975534      14.91615057         0.00000000       0.00000000       0.00000000          1
H         2.96849502       3.08035092      12.78838078         0.00000000       0.00000000       0.00000000          1
H         4.35750959       5.32426017      13.70478169         0.00000000       0.00000000       0.00000000          1
H         6.77635713       3.97333608      13.34634704         0.00000000       0.00000000       0.00000000          1
H         4.98220154       4.21393466      11.21858007         0.00000000       0.00000000       0.00000000          1
H         5.38734025       1.72942582      12.42994589         0.00000000       0.00000000       0.00000000          1
6
pbc=[F, F, F] list_num_par=6 frozen=false iter=20000 energy=-1.26974174 Lattice="15.00000000 0.00000000 0.00000000 0.00000000 15.00000000 0.00000000 0.00000000 0.00000000 15.00000000" energy_frozen_part=0.00000000 Properties=species:S:1:pos:R:3:velocities:R:3:Z:I:1
H         4.76336409       2.83908524      14.91639020         0.00000000       0.00000000       0.00000000          1
H         2.96856818       3.07912760      12.78909842         0.00000000       0.00000000       0.00000000          1
H         4.35733150       5.32341172      13.70497103         0.00000000       0.00000000       0.00000000          1
H         6.77638370       3.97301752      13.34595653         0.00000000       0.00000000       0.00000000          1
H         4.98158804       4.21306224      11.21867135         0.00000000       0.00000000       0.00000000          1
H         5.38761678       1.72873209      12.43008673         0.00000000       0.00000000       0.00000000          1
6
pbc=[F, F, F] list_num_par=6 frozen=false iter=20000 energy=-1.26974174 Lattice="15.00000000 0.00000000 0.00000000 0.00000000 15.00000000 0.00000000 0.00000000 0.00000000 15.00000000" energy_frozen_part=0.00000000 Properties=species:S:1:pos:R:3:velocities:R:3:Z:I:1
H         4.76269981       2.83966050      14.91621406         0.00000000       0.00000000       0.00000000          1
H         2.96852634       3.08026852      12.78845831         0.00000000       0.00000000       0.00000000          1
H         4.35756184       5.32416347      13.70486772         0.00000000       0.00000000       0.00000000          1
H         6.77639954       3.97323851      13.34640381         0.00000000       0.00000000       0.00000000          1
H         4.98222742       4.21385803      11.21864766         0.00000000       0.00000000       0.00000000          1
H         5.38736269       1.72934824      12.42999019         0.00000000       0.00000000       0.00000000          1
6
pbc=[F, F, F] list_num_par=6 frozen=false iter=20000 energy=-1.26974174 Lattice="15.00000000 0.00000000 0.00000000 0.00000000 15.00000000 0.00000000 0.00000000 0.00000000 15.00000000" energy_frozen_part=0.00000000 Properties=species:S:1:pos:R:3:velocities:R:3:Z:I:1
H         4.76317812       2.83914158      14.91637364         0.00000000       0.00000000       0.00000000          1
H         2.96850897       3.07914643      12.78896266         0.00000000       0.00000000       0.00000000          1
H         4.35717650       5.32345113      13.70490923         0.00000000       0.00000000       0.00000000          1
H         6.77627003       3.97309019      13.34605496         0.00000000       0.00000000       0.00000000          1
H         4.98160317       4.21308920      11.21864636         0.00000000       0.00000000       0.00000000          1
H         5.38760283       1.72878094      12.43011919         0.00000000       0.00000000       0.00000000          1
6
pbc=[F, F, F] list_num_par=6 frozen=false iter=20000 energy=-1.26974174 Lattice="15.00000000 0.00000000 0.00000000 0.00000000 15.00000000 0.00000000 0.00000000 0.00000000 15.00000000" energy_frozen_part=0.00000000 Properties=species:S:1:pos:R:3:velocities:R:3:Z:I:1
H         4.76266847       2.83967557      14.91626455         0.00000000       0.00000000       0.00000000          1
H         2.96846589       3.08032222      12.78854205         0.00000000       0.00000000       0.00000000          1
H         4.35753699       5.32420001      13.70492833         0.00000000       0.00000000       0.00000000          1
H         6.77635177       3.97324430      13.34642609         0.00000000       0.00000000       0.00000000          1
H         4.98214684       4.21389109      11.21869730         0.00000000       0.00000000       0.00000000          1
H         5.38728387       1.72936974      12.43002635         0.00000000       0.00000000       0.00000000          1
6
pbc=[F, F, F] list_num_par=6 frozen=false iter=20000 energy=-1.26974174 Lattice="15.00000000 0.00000000 0.00000000 0.00000000 15.00000000 0.00000000 0.00000000 0.00000000 15.00000000" energy_frozen_part=0.00000000 Properties=species:S:1:pos:R:3:velocities:R:3:Z:I:1
H         4.76332079       2.83912434      14.91635140         0.00000000       0.00000000       0.00000000          1
H         2.96853597       3.07911623      12.78904220         0.00000000       0.00000000       0.00000000          1
H         4.35728766       5.32342562      13.70488073         0.00000000       0.00000000       0.00000000          1
H         6.77635104       3.97302848      13.34590989         0.00000000       0.00000000       0.00000000          1
H         4.98156153       4.21302858      11.21860795         0.00000000       0.00000000       0.00000000          1
H         5.38760019       1.72872917      12.43007468         0.00000000       0.00000000       0.00000000          1
6
pbc=[F, F, F] list_num_par=6 frozen=false iter=20000 energy=-1.26974174 Lattice="15.00000000 0.00000000 0.00000000 0.00000000 15.00000000 0.00000000 0.00000000 0.00000000 15.00000000" energy_frozen_part=0.00000000 Properties=species:S:1:pos:R:3:velocities:R:3:Z:I:1
H         4.76337020       2.83912523      14.91638997         0.00000000       0.00000000       0.00000000          1
H         2.96861310       3.07911853      12.78905514         0.00000000       0.00000000       0.00000000          1
H         4.35734218       5.32342282      13.70490327         0.00000000       0.00000000       0.00000000          1
H         6.77640838       3.97302839      13.34596576         0.00000000       0.00000000       0.00000000          1
H         4.98165435       4.21301297      11.21863487         0.00000000       0.00000000       0.00000000          1
H         5.38767349       1.72872147      12.43012459         0.00000000       0.00000000       0.00000000          1
6
pbc=[F, F, F] list_num_par=6 frozen=false iter=20000 energy=-1.26974174 Lattice="15.00000000 0.00000000 0.00000000 0.00000000 15.00000000 0.00000000 0.00000000 0.00000000 15.00000000" energy_frozen_part=0.00000000 Properties=species:S:1:pos:R:3:velocities:R:3:Z:I:1
H         4.76271041       2.83968152      14.91620731         0.00000000       0.00000000       0.00000000          1
H         2.96851266       3.08026325      12.78847898         0.00000000       0.00000000       0.00000000          1
H         4.35751380       5.32418366      13.70487030         0.00000000       0.00000000       0.00000000          1
H         6.77637285       3.97329386      13.34637795         0.00000000       0.00000000       0.00000000          1
H         4.98217131       4.21387636      11.21864177         0.00000000       0.00000000       0.00000000          1
H         5.38737489       1.72937876      12.42998207         0.00000000       0.00000000       0.00000000          1
6
pbc=[F, F, F] list_num_par=6 frozen=false iter=20000 energy=-1.26974174 Lattice="15.00000000 0.00000000 0.00000000 0.00000000 15.00000000 0.00000000 0.00000000 0.00000000 15.00000000" energy_frozen_part=0.00000000 Properties=species:S:1:pos:R:3:velocities:R:3:Z:I:1
H         4.76271334       2.83967281      14.91617834         0.00000000       0.00000000       0.00000000          1
H         2.96852927       3.08033115      12.78843587         0.00000000       0.00000000       0.00000000          1
H         4.35758069       5.32420377      13.70486869         0.00000000       0.00000000       0.00000000          1
H         6.77640242       3.97327002      13.34636864         0.00000000       0.00000000       0.00000000          1
H         4.98222406       4.21391607      11.21862942         0.00000000       0.00000000       0.00000000          1
H         5.38735141       1.72938979      12.42994406         0.00000000       0.00000000       0.00000000          1
6
pbc=[F, F, F] list_num_par=6 frozen=false iter=20000 energy=-1.26974174 Lattice="15.00000000 0.00000000 0.00000000 0.00000000 15.00000000 0.00000000 0.00000000 0.00000000 15.00000000" energy_frozen_part=0.00000000 Properties=species:S:1:pos:R:3:velocities:R:3:Z:I:1
H         5.14332009       2.80330599      13.40022114         0.00000000       0.00000000       0.00000000          1
H         3.25575717       4.74801890      12.72233904         0.00000000       0.00000000       0.00000000          1
H         5.70158439       5.50501367      13.84000830         0.00000000       0.00000000       0.00000000          1
H         7.05140630       4.10864859      11.83191863         0.00000000       0.00000000       0.00000000          1
H         5.16384818       6.05336012      11.15404462         0.00000000       0.00000000       0.00000000          1
H         4.60558101       3.35165360      10.71424790         0.00000000       0.00000000       0.00000000          1
6
pbc=[F, F, F] list_num_par=6 frozen=false iter=20000 energy=-1.26974174 Lattice="15.00000000 0.00000000 0.00000000 0.00000000 15.00000000 0.00000000 0.00000000 0.00000000 15.00000000" energy_frozen_part=0.00000000 Properties=species:S:1:pos:R:3:velocities:R:3:Z:I:1
H         4.76334303       2.83912030      14.91636466         0.00000000       0.00000000       0.00000000          1
H         2.96853641       3.07911392      12.78908303         0.00000000       0.00000000       0.00000000          1
H         4.35729302       5.32342466      13.70488843         0.00000000       0.00000000       0.00000000          1
H         6.77634764       3.97302936      13.34589571         0.00000000       0.00000000       0.00000000          1
H         4.98154029       4.21301020      11.21860523         0.00000000       0.00000000       0.00000000          1
H         5.38759344       1.72871693      12.43008294         0.00000000       0.00000000       0.00000000          1
6
pbc=[F, F, F] list_num_par=6 frozen=false iter=20000 energy=-1.26974174 Lattice="15.00000000 0.00000000 0.00000000 0.00000000 15.00000000 0.00000000 0.00000000 0.00000000 15.00000000" energy_frozen_part=0.00000000 Properties=species:S:1:pos:R:3:velocities:R:3:Z:I:1
H         4.76271531       2.83968060      14.91620562         0.00000000       0.00000000       0.00000000          1
H         2.96852019       3.08027208      12.78847086         0.00000000       0.00000000       0.00000000          1
H         4.35752475       5.32418719      13.70486759         0.00000000       0.00000000       0.00000000          1
H         6.77638102       3.97328843      13.34638114         0.00000000       0.00000000       0.00000000          1
H         4.98218512       4.21387969      11.21864708         0.00000000       0.00000000       0.00000000          1
H         5.38737450       1.72936688      12.42998340         0.00000000       0.00000000       0.00000000          1
6
pbc=[F, F, F] list_num_par=6 frozen=false iter=20000 energy=-1.26974174 Lattice="15.00000000 0.00000000 0.00000000 0.00000000 15.00000000 0.00000000 0.00000000 0.00000000 15.00000000" energy_frozen_part=0.00000000 Properties=species:S:1:pos:R:3:velocities:R:3:Z:I:1
H         4.76271728       2.83967960      14.91617686         0.00000000       0.00000000       0.00000000          1
H         2.96852232       3.08031896      12.78844529         0.00000000       0.00000000       0.00000000          1
H         4.35756584       5.32420300      13.70485063         0.00000000       0.00000000       0.00000000          1
H         6.77639987       3.97327759      13.34635323         0.00000000       0.00000000       0.00000000          1
H         4.98220346       4.21391333      11.21862343         0.00000000       0.00000000       0.00000000          1
H         5.38735379       1.72939268      12.42993963         0.00000000       0.00000000       0.00000000          1
6
pbc=[F, F, F] list_num_par=6 frozen=false iter=20000 energy=-1.26974174 Lattice="15.00000000 0.00000000 0.00000000 0.00000000 15.00000000 0.00000000 0.00000000 0.00000000 15.00000000" energy_frozen_part=0.00000000 Properties=species:S:1:pos:R:3:velocities:R:3:Z:I:1
H         4.76333675       2.83915031      14.91638074         0.00000000       0.00000000       0.00000000          1
H         2.96858497       3.07906949      12.78904203         0.00000000       0.00000000       0.00000000          1
H         4.35729000       5.32341928      13.70485754         0.00000000       0.00000000       0.00000000          1
H         6.77637319       3.97305168      13.34595160         0.00000000       0.00000000       0.00000000          1
H         4.98161971       4.21298072      11.21861318         0.00000000       0.00000000       0.00000000          1
H         5.38767176       1.72870771      12.43013664         0.00000000       0.00000000       0.00000000          1
6
pbc=[F, F, F] list_num_par=6 frozen=false iter=20000 energy=-1.26974174 Lattice="15.00000000 0.00000000 0.00000000 0.00000000 15.00000000 0.00000000 0.00000000 0.00000000 15.00000000" energy_frozen_part=0.00000000 Properties=species:S:1:pos:R:3:velocities:R:3:Z:I:1
H         4.76329019       2.83911778      14.91636786         0.00000000       0.00000000       0.00000000          1
H         2.96859031       3.07915165      12.78899971         0.00000000       0.00000000       0.00000000          1
H         4.35730352       5.32344165      13.70492601         0.00000000       0.00000000       0.00000000          1
H         6.77637442       3.97304129      13.34602669         0.00000000       0.00000000       0.00000000          1
H         4.98167762       4.21307619      11.21865071         0.00000000       0.00000000       0.00000000          1
H         5.38766058       1.72875090      12.43010458         0.00000000       0.00000000       0.00000000          1
6
pbc=[F, F, F] list_num_par=6 frozen=false iter=20000 energy=-1.26974174 Lattice="15.00000000 0.00000000 0.00000000 0.00000000 15.00000000 0.00000000 0.00000000 0.00000000 15.00000000" energy_frozen_part=0.00000000 Properties=species:S:1:pos:R:3:velocities:R:3:Z:I:1
H         4.76267677       2.83982687      14.91614750         0.00000000       0.00000000       0.00000000          1
H         2.96847819       3.08036978      12.78841686         0.00000000       0.00000000       0.00000000          1
H         4.35746543       5.32431758      13.70476818         0.00000000       0.00000000       0.00000000          1
H         6.77632795       3.97343694      13.34630567         0.00000000       0.00000000       0.00000000          1
H         4.98212903       4.21397367      11.21856367         0.00000000       0.00000000       0.00000000          1
H         5.38734417       1.72949078      12.42994228         0.00000000       0.00000000       0.00000000          1
6
pbc=[F, F, F] list_num_par=6 frozen=false iter=20000 energy=-1.26974174 Lattice="15.00000000 0.00000000 0.00000000 0.00000000 15.00000000 0.00000000 0.00000000 0.00000000 15.00000000" energy_frozen_part=0.00000000 Properties=species:S:1:pos:R:3:velocities:R:3:Z:I:1
H         4.76270685       2.83968129      14.91619900         0.00000000       0.00000000       0.00000000          1
H         2.96851748       3.08026656      12.78846873         0.00000000       0.00000000       0.00000000          1
H         4.35752046       5.32418835      13.70486859         0.00000000       0.00000000       0.00000000          1
H         6.77637601       3.97329418      13.34637739         0.00000000       0.00000000       0.00000000          1
H         4.98217747       4.21387946      11.21864366         0.00000000       0.00000000       0.00000000          1
H         5.38737625       1.72937447      12.42998018         0.00000000       0.00000000       0.00000000          1
6
pbc=[F, F, F] list_num_par=6 frozen=false iter=20000 energy=-1.26974174 Lattice="15.00000000 0.00000000 0.00000000 0.00000000 15.00000000 0.00000000 0.00000000 0.00000000 15.00000000" energy_frozen_part=0.00000000 Properties=species:S:1:pos:R:3:velocities:R:3:Z:I:1
H         4.76329946       2.83913486      14.91637060         0.00000000       0.00000000       0.00000000          1
H         2.96859868       3.07914465      12.78899652         0.00000000       0.00000000       0.00000000          1
H         4.35729565       5.32344559      13.70490110         0.00000000       0.00000000       0.00000000          1
H         6.77637492       3.97305331      13.34601695         0.00000000       0.00000000       0.00000000          1
H         4.98167487       4.21306494      11.21864447         0.00000000       0.00000000       0.00000000          1
H         5.38767180       1.72875123      12.43010949         0.00000000       0.00000000       0.00000000          1
6
pbc=[F, F, F] list_num_par=6 frozen=false iter=20000 energy=-1.26974174 Lattice="15.00000000 0.00000000 0.00000000 0.00000000 15.00000000 0.00000000 0.00000000 0.00000000 15.00000000" energy_frozen_part=0.00000000 Properties=species:S:1:pos:R:3:velocities:R:3:Z:I:1
H         4.76265428       2.83969531      14.91627950         0.00000000       0.00000000       0.00000000          1
H         2.96847613       3.08031419      12.78853090         0.00000000       0.00000000       0.00000000          1
H         4.35751994       5.32420424      13.70492454         0.00000000       0.00000000       0.00000000          1
H         6.77635078       3.97324972      13.34645686         0.00000000       0.00000000       0.00000000          1
H         4.98217881       4.21387035      11.21871082         0.00000000       0.00000000       0.00000000          1
H         5.38730120       1.72935836      12.43006843         0.00000000       0.00000000       0.00000000          1
6
pbc=[F, F, F] list_num_par=6 frozen=false iter=20000 energy=-1.26974174 Lattice="15.00000000 0.00000000 0.00000000 0.00000000 15.00000000 0.00000000 0.00000000 0.00000000 15.00000000" energy_frozen_part=0.00000000 Properties=species:S:1:pos:R:3:velocities:R:3:Z:I:1
H         4.76332274       2.83934630      14.91636357         0.00000000       0.00000000       0.00000000          1
H         2.96860587       3.07918869      12.78898156         0.00000000       0.00000000       0.00000000          1
H         4.35722060       5.32358420      13.70479160         0.00000000       0.00000000       0.00000000          1
H         6.77635417       3.97328318      13.34595513         0.00000000       0.00000000       0.00000000          1
H         4.98163596       4.21311422      11.21857673         0.00000000       0.00000000       0.00000000          1
H         5.38774304       1.72887657      12.43015799         0.00000000       0.00000000       0.00000000          1
6
pbc=[F, F, F] list_num_par=6 frozen=false iter=20000 energy=-1.26974174 Lattice="15.00000000 0.00000000 0.00000000 0.00000000 15.00000000 0.00000000 0.00000000 0.00000000 15.00000000" energy_frozen_part=0.00000000 Properties=species:S:1:pos:R:3:velocities:R:3:Z:I:1
H         4.76269649       2.83965637      14.91619761         0.00000000       0.00000000       0.00000000          1
H         2.96853038       3.08026657      12.78844672         0.00000000       0.00000000       0.00000000          1
H         4.35755037       5.32416735      13.70485400         0.00000000       0.00000000       0.00000000          1
H         6.77638874       3.97324483      13.34638714         0.00000000       0.00000000       0.00000000          1
H         4.98222316       4.21384704      11.21863667         0.00000000       0.00000000       0.00000000          1
H         5.38736818       1.72933681      12.42998450         0.00000000       0.00000000       0.00000000          1
6
pbc=[F, F, F] list_num_par=6 frozen=false iter=20000 energy=-1.26974174 Lattice="15.00000000 0.00000000 0.00000000 0.00000000 15.00000000 0.00000000 0.00000000 0.00000000 15.00000000" energy_frozen_part=0.00000000 Properties=species:S:1:pos:R:3:velocities:R:3:Z:I:1
H         4.76265445       2.83977469      14.91615437         0.00000000       0.00000000       0.00000000          1
H         2.96848529       3.08035482      12.78838772         0.00000000       0.00000000       0.00000000          1
H         4.35749649       5.32426640      13.70477779         0.00000000       0.00000000       0.00000000          1
H         6.77634558       3.97334489      13.34634449         0.00000000       0.00000000       0.00000000          1
H         4.98218533       4.21392958      11.21857791         0.00000000       0.00000000       0.00000000          1
H         5.38733313       1.72943340      12.42994796         0.00000000       0.00000000       0.00000000          1
6
pbc=[F, F, F] list_num_par=6 frozen=false iter=20000 energy=-1.26974174 Lattice="15.00000000 0.00000000 0.00000000 0.00000000 15.00000000 0.00000000 0.00000000 0.00000000 15.00000000" energy_frozen_part=0.00000000 Properties=species:S:1:pos:R:3:velocities:R:3:Z:I:1
H         4.76268036       2.83971011      14.91620957         0.00000000       0.00000000       0.00000000          1
H         2.96851315       3.08036349      12.78845737         0.00000000       0.00000000       0.00000000          1
H         4.35759062       5.32422981      13.70487734         0.00000000       0.00000000       0.00000000          1
H         6.77639639       3.97325294      13.34640068         0.00000000       0.00000000       0.00000000          1
H         4.98222530       4.21391417      11.21864903         0.00000000       0.00000000       0.00000000          1
H         5.38732231       1.72939435      12.42998722         0.00000000       0.00000000       0.00000000          1
6
pbc=[F, F, F] list_num_par=6 frozen=false iter=20000 energy=-1.26974174 Lattice="15.00000000 0.00000000 0.00000000 0.00000000 15.00000000 0.00000000 0.00000000 0.00000000 15.00000000" energy_frozen_part=0.00000000 Properties=species:S:1:pos:R:3:velocities:R:3:Z:I:1
H         4.76334600       2.83912933      14.91639268         0.00000000       0.00000000       0.00000000          1
H         2.96860126       3.07913416      12.78904883         0.00000000       0.00000000       0.00000000          1
H         4.35733971       5.32343468      13.70491759         0.00000000       0.00000000       0.00000000          1
H         6.77640080       3.97303062      13.34598020         0.00000000       0.00000000       0.00000000          1
H         4.98165159       4.21304194      11.21864645         0.00000000       0.00000000       0.00000000          1
H         5.38765955       1.72872888      12.43012451         0.00000000       0.00000000       0.00000000          1
6
pbc=[F, F, F] list_num_par=6 frozen=false iter=20000 energy=-1.26974174 Lattice="15.00000000 0.00000000 0.00000000 0.00000000 15.00000000 0.00000000 0.00000000 0.00000000 15.00000000" energy_frozen_part=0.00000000 Properties=species:S:1:pos:R:3:velocities:R:3:Z:I:1
H         4.76329374       2.83914456      14.91636876         0.00000000       0.00000000       0.00000000          1
H         2.96859100       3.07915097      12.78899003         0.00000000       0.00000000       0.00000000          1
H         4.35730210       5.32344866      13.70490159         0.00000000       0.00000000       0.00000000          1
H         6.77637338       3.97306256      13.34601401         0.00000000       0.00000000       0.00000000          1
H         4.98167242       4.21307356      11.21863863         0.00000000       0.00000000       0.00000000          1
H         5.38766757       1.72876001      12.43011223         0.00000000       0.00000000       0.00000000          1
6
pbc=[F, F, F] list_num_par=6 frozen=false iter=20000 energy=-1.26974174 Lattice="15.00000000 0.00000000 0.00000000 0.00000000 15.00000000 0.00000000 0.00000000 0.00000000 15.00000000" energy_frozen_part=0.00000000 Properties=species:S:1:pos:R:3:velocities:R:3:Z:I:1
H         5.14331098       2.80330955      13.40020775         0.00000000       0.00000000       0.00000000          1
H         3.25575509       4.74802067      12.72233772         0.00000000       0.00000000       0.00000000          1
H         5.70157040       5.50501677      13.84001058         0.00000000       0.00000000       0.00000000          1
H         7.05140402       4.10865884      11.83191695         0.00000000       0.00000000       0.00000000          1
H         5.16384210       6.05336526      11.15404230         0.00000000       0.00000000       0.00000000          1
H         4.60558367       3.35166142      10.71424160         0.00000000       0.00000000       0.00000000          1
6
pbc=[F, F, F] list_num_par=6 frozen=false iter=20000 energy=-1.26974174 Lattice="15.00000000 0.00000000 0.00000000 0.00000000 15.00000000 0.00000000 0.00000000 0.00000000 15.00000000" energy_frozen_part=0.00000000 Properties=species:S:1:pos:R:3:velocities:R:3:Z:I:1
H         4.76333949       2.83912107      14.91636712         0.00000000       0.00000000       0.00000000          1
H         2.96858275       3.07907771      12.78902745         0.00000000       0.00000000       0.00000000          1
H         4.35726589       5.32341326      13.70487818         0.00000000       0.00000000       0.00000000          1
H         6.77636095       3.97307224      13.34595104         0.00000000       0.00000000       0.00000000          1
H         4.98160941       4.21301037      11.21861582         0.00000000       0.00000000       0.00000000          1
H         5.38767802       1.72872500      12.43010446         0.00000000       0.00000000       0.00000000          1
6
pbc=[F, F, F] list_num_par=6 frozen=false iter=20000 energy=-1.26974174 Lattice="15.00000000 0.00000000 0.00000000 0.00000000 15.00000000 0.00000000 0.00000000 0.00000000 15.00000000" energy_frozen_part=0.00000000 Properties=species:S:1:pos:R:3:velocities:R:3:Z:I:1
H         4.76329292       2.83911786      14.91637611         0.00000000       0.00000000       0.00000000          1
H         2.96859566       3.07914905      12.78900523         0.00000000       0.00000000       0.00000000          1
H         4.35731681       5.32344456      13.70492573         0.00000000       0.00000000       0.00000000          1
H         6.77638601       3.97304639      13.34603219         0.00000000       0.00000000       0.00000000          1
H         4.98168028       4.21307453      11.21866060         0.00000000       0.00000000       0.00000000          1
H         5.38767084       1.72875633      12.43010819         0.00000000       0.00000000       0.00000000          1
6
pbc=[F, F, F] list_num_par=6 frozen=false iter=20000 energy=-1.26974174 Lattice="15.00000000 0.00000000 0.00000000 0.00000000 15.00000000 0.00000000 0.00000000 0.00000000 15.00000000" energy_frozen_part=0.00000000 Properties=species:S:1:pos:R:3:velocities:R:3:Z:I:1
H         5.13950447       2.80442538      13.39970118         0.00000000       0.00000000       0.00000000          1
H         3.25402707       4.75033238      12.71945195         0.00000000       0.00000000       0.00000000          1
H         5.69982015       5.50593398      13.83813131         0.00000000       0.00000000       0.00000000          1
H         7.04966046       4.10714947      11.83173932         0.00000000       0.00000000       0.00000000          1
H         5.16418493       6.05305035      11.15148587         0.00000000       0.00000000       0.00000000          1
H         4.60387097       3.35154986      10.71306153         0.00000000       0.00000000       0.00000000          1
6
pbc=[F, F, F] list_num_par=6 frozen=false iter=20000 energy=-1.26974174 Lattice="15.00000000 0.00000000 0.00000000 0.00000000 15.00000000 0.00000000 0.00000000 0.00000000 15.00000000" energy_frozen_part=0.00000000 Properties=species:S:1:pos:R:3:velocities:R:3:Z:I:1
H         5.14332868       2.80330395      13.40021159         0.00000000       0.00000000       0.00000000          1
H         3.25576222       4.74800862      12.72232103         0.00000000       0.00000000       0.00000000          1
H         5.70157356       5.50500904      13.84000172         0.00000000       0.00000000       0.00000000          1
H         7.05141246       4.10865562      11.83191540         0.00000000       0.00000000       0.00000000          1
H         5.16384835       6.05335813      11.15402414         0.00000000       0.00000000       0.00000000          1
H         4.60559910       3.35164582      10.71423903         0.00000000       0.00000000       0.00000000          1
6
pbc=[F, F, F] list_num_par=6 frozen=false iter=20000 energy=-1.26974174 Lattice="15.00000000 0.00000000 0.00000000 0.00000000 15.00000000 0.00000000 0.00000000 0.00000000 15.00000000" energy_frozen_part=0.00000000 Properties=species:S:1:pos:R:3:velocities:R:3:Z:I:1
H         4.76333078       2.83914927      14.91636011         0.00000000       0.00000000       0.00000000          1
H         2.96852961       3.07913182      12.78906377         0.00000000       0.00000000       0.00000000          1
H         4.35729891       5.32344527      13.70486800         0.00000000       0.00000000       0.00000000          1
H         6.77634309       3.97302574      13.34589694         0.00000000       0.00000000       0.00000000          1
H         4.98154753       4.21301292      11.21859818         0.00000000       0.00000000       0.00000000          1
H         5.38758254       1.72871587      12.43009108         0.00000000       0.00000000       0.00000000          1
6
pbc=[F, F, F] list_num_par=6 frozen=false iter=20000 energy=-1.26974174 Lattice="15.00000000 0.00000000 0.00000000 0.00000000 15.00000000 0.00000000 0.00000000 0.00000000 15.00000000" energy_frozen_part=0.00000000 Properties=species:S:1:pos:R:3:velocities:R:3:Z:I:1
H         4.76271284       2.83967411      14.91620543         0.00000000       0.00000000       0.00000000          1
H         2.96852011       3.08027175      12.78846487         0.00000000       0.00000000       0.00000000          1
H         4.35752975       5.32418142      13.70487523         0.00000000       0.00000000       0.00000000          1
H         6.77638266       3.97328227      13.34638386         0.00000000       0.00000000       0.00000000          1
H         4.98218711       4.21388934      11.21864628         0.00000000       0.00000000       0.00000000          1
H         5.38737787       1.72938146      12.42997251         0.00000000       0.00000000       0.00000000          1
6
pbc=[F, F, F] list_num_par=6 frozen=false iter=20000 energy=-1.26974174 Lattice="15.00000000 0.00000000 0.00000000 0.00000000 15.00000000 0.00000000 0.00000000 0.00000000 15.00000000" energy_frozen_part=0.00000000 Properties=species:S:1:pos:R:3:velocities:R:3:Z:I:1
H         4.76333051       2.83911945      14.91636155         0.00000000       0.00000000       0.00000000          1
H         2.96854213       3.07912517      12.78905560         0.00000000       0.00000000       0.00000000          1
H         4.35730117       5.32342215      13.70490692         0.00000000       0.00000000       0.00000000          1
H         6.77636058       3.97301997      13.34592739         0.00000000       0.00000000       0.00000000          1
H         4.98157212       4.21303238      11.21862312         0.00000000       0.00000000       0.00000000          1
H         5.38759579       1.72872169      12.43007914         0.00000000       0.00000000       0.00000000          1
6
pbc=[F, F, F] list_num_par=6 frozen=false iter=20000 energy=-1.26974174 Lattice="15.00000000 0.00000000 0.00000000 0.00000000 15.00000000 0.00000000 0.00000000 0.00000000 15.00000000" energy_frozen_part=0.00000000 Properties=species:S:1:pos:R:3:velocities:R:3:Z:I:1
H         4.76270659       2.83967072      14.91620431         0.00000000       0.00000000       0.00000000          1
H         2.96851641       3.08027021      12.78846144         0.00000000       0.00000000       0.00000000          1
H         4.35751715       5.32418257      13.70486948         0.00000000       0.00000000       0.00000000          1
H         6.77637835       3.97328652      13.34638315         0.00000000       0.00000000       0.00000000          1
H         4.98218736       4.21388875      11.21864573         0.00000000       0.00000000       0.00000000          1
H         5.38736441       1.72937625      12.42997771         0.00000000       0.00000000       0.00000000          1
6
pbc=[F, F, F] list_num_par=6 frozen=false iter=20000 energy=-1.26974174 Lattice="15.00000000 0.00000000 0.00000000 0.00000000 15.00000000 0.00000000 0.00000000 0.00000000 15.00000000" energy_frozen_part=0.00000000 Properties=species:S:1:pos:R:3:velocities:R:3:Z:I:1
H         4.76329811       2.83916909      14.91642028         0.00000000       0.00000000       0.00000000          1
H         2.96857697       3.07917174      12.78905657         0.00000000       0.00000000       0.00000000          1
H         4.35731869       5.32346901      13.70491726         0.00000000       0.00000000       0.00000000          1
H         6.77637192       3.97303897      13.34602760         0.00000000       0.00000000       0.00000000          1
H         4.98164868       4.21303823      11.21866461         0.00000000       0.00000000       0.00000000          1
H         5.38763149       1.72874297      12.43016672         0.00000000       0.00000000       0.00000000          1
6
pbc=[F, F, F] list_num_par=6 frozen=false iter=20000 energy=-1.26974174 Lattice="15.00000000 0.00000000 0.00000000 0.00000000 15.00000000 0.00000000 0.00000000 0.00000000 15.00000000" energy_frozen_part=0.00000000 Properties=species:S:1:pos:R:3:velocities:R:3:Z:I:1
H         4.76336945       2.83909738      14.91638301         0.00000000       0.00000000       0.00000000          1
H         2.96856594       3.07913058      12.78909304         0.00000000       0.00000000       0.00000000          1
H         4.35733637       5.32341629      13.70495561         0.00000000       0.00000000       0.00000000          1
H         6.77638920       3.97301828      13.34594262         0.00000000       0.00000000       0.00000000          1
H         4.98158559       4.21305621      11.21865713         0.00000000       0.00000000       0.00000000          1
H         5.38762568       1.72873554      12.43007893         0.00000000       0.00000000       0.00000000          1
6
pbc=[F, F, F] list_num_par=6 frozen=false iter=20000 energy=-1.26974174 Lattice="15.00000000 0.00000000 0.00000000 0.00000000 15.00000000 0.00000000 0.00000000 0.00000000 15.00000000" energy_frozen_part=0.00000000 Properties=species:S:1:pos:R:3:velocities:R:3:Z:I:1
H         4.76268757       2.83981764      14.91614885         0.00000000       0.00000000       0.00000000          1
H         2.96847792       3.08037377      12.78842453         0.00000000       0.00000000       0.00000000          1
H         4.35747956       5.32430914      13.70477771         0.00000000       0.00000000       0.00000000          1
H         6.77633505       3.97342125      13.34630076         0.00000000       0.00000000       0.00000000          1
H         4.98213165       4.21396775      11.21856951         0.00000000       0.00000000       0.00000000          1
H         5.38733547       1.72947854      12.42994176         0.00000000       0.00000000       0.00000000          1
6
pbc=[F, F, F] list_num_par=6 frozen=false iter=20000 energy=-1.26974174 Lattice="15.00000000 0.00000000 0.00000000 0.00000000 15.00000000 0.00000000 0.00000000 0.00000000 15.00000000" energy_frozen_part=0.00000000 Properties=species:S:1:pos:R:3:velocities:R:3:Z:I:1
H         4.76269164       2.83970477      14.91618833         0.00000000       0.00000000       0.00000000          1
H         2.96851617       3.08036411      12.78844410         0.00000000       0.00000000       0.00000000          1
H         4.35758109       5.32423050      13.70486972         0.00000000       0.00000000       0.00000000          1
H         6.77639738       3.97326626      13.34638260         0.00000000       0.00000000       0.00000000          1
H         4.98223121       4.21392419      11.21863518         0.00000000       0.00000000       0.00000000          1
H         5.38733157       1.72939635      12.42996031         0.00000000       0.00000000       0.00000000          1
6
pbc=[F, F, F] list_num_par=6 frozen=false iter=20000 energy=-1.26974174 Lattice="15.00000000 0.00000000 0.00000000 0.00000000 15.00000000 0.00000000 0.00000000 0.00000000 15.00000000" energy_frozen_part=0.00000000 Properties=species:S:1:pos:R:3:velocities:R:3:Z:I:1
H         4.76336484       2.83914914      14.91637709         0.00000000       0.00000000       0.00000000          1
H         2.96861134       3.07912874      12.78904458         0.00000000       0.00000000       0.00000000          1
H         4.35735547       5.32343580      13.70488137         0.00000000       0.00000000       0.00000000          1
H         6.77641708       3.97303212      13.34595463         0.00000000       0.00000000       0.00000000          1
H         4.98165817       4.21300880      11.21861885         0.00000000       0.00000000       0.00000000          1
H         5.38767607       1.72872420      12.43012543         0.00000000       0.00000000       0.00000000          1
6
pbc=[F, F, F] list_num_par=6 frozen=false iter=20000 energy=-1.26974174 Lattice="15.00000000 0.00000000 0.00000000 0.00000000 15.00000000 0.00000000 0.00000000 0.00000000 15.00000000" energy_frozen_part=0.00000000 Properties=species:S:1:pos:R:3:velocities:R:3:Z:I:1
H         4.76334419       2.83913014      14.91637109         0.00000000       0.00000000       0.00000000          1
H         2.96858375       3.07906490      12.78903090         0.00000000       0.00000000       0.00000000          1
H         4.35725780       5.32340877      13.70487702         0.00000000       0.00000000       0.00000000          1
H         6.77636416       3.97307218      13.34595930         0.00000000       0.00000000       0.00000000          1
H         4.98161031       4.21300846      11.21861863         0.00000000       0.00000000       0.00000000          1
H         5.38768494       1.72873104      12.43011458         0.00000000       0.00000000       0.00000000          1
6
pbc=[F, F, F] list_num_par=6 frozen=false iter=20000 energy=-1.26974174 Lattice="15.00000000 0.00000000 0.00000000 0.00000000 15.00000000 0.00000000 0.00000000 0.00000000 15.00000000" energy_frozen_part=0.00000000 Properties=species:S:1:pos:R:3:velocities:R:3:Z:I:1
H         4.76263920       2.83969671      14.91626295         0.00000000       0.00000000       0.00000000          1
H         2.96846186       3.08030427      12.78851419         0.00000000       0.00000000       0.00000000          1
H         4.35750634       5.32420294      13.70491108         0.00000000       0.00000000       0.00000000          1
H         6.77633900       3.97326698      13.34644870         0.00000000       0.00000000       0.00000000          1
H         4.98216208       4.21387063      11.21869646         0.00000000       0.00000000       0.00000000          1
H         5.38729114       1.72937031      12.43005071         0.00000000       0.00000000       0.00000000          1
6
pbc=[F, F, F] list_num_par=6 frozen=false iter=20000 energy=-1.26974174 Lattice="15.00000000 0.00000000 0.00000000 0.00000000 15.00000000 0.00000000 0.00000000 0.00000000 15.00000000" energy_frozen_part=0.00000000 Properties=species:S:1:pos:R:3:velocities:R:3:Z:I:1
H         4.76328084       2.83910584      14.91636262         0.00000000       0.00000000       0.00000000          1
H         2.96859012       3.07914148      12.78898861         0.00000000       0.00000000       0.00000000          1
H         4.35729519       5.32343415      13.70491974         0.00000000       0.00000000       0.00000000          1
H         6.77636749       3.97305106      13.34602872         0.00000000       0.00000000       0.00000000          1
H         4.98167428       4.21307585      11.21865113         0.00000000       0.00000000       0.00000000          1
H         5.38767056       1.72875234      12.43009612         0.00000000       0.00000000       0.00000000          1
6
pbc=[F, F, F] list_num_par=6 frozen=false iter=20000 energy=-1.26974174 Lattice="15.00000000 0.00000000 0.00000000 0.00000000 15.00000000 0.00000000 0.00000000 0.00000000 15.00000000" energy_frozen_part=0.00000000 Properties=species:S:1:pos:R:3:velocities:R:3:Z:I:1
H         4.76333960       2.83911408      14.91636000         0.00000000       0.00000000       0.00000000          1
H         2.96853763       3.07911681      12.78907047         0.00000000       0.00000000       0.00000000          1
H         4.35728515       5.32341974      13.70489485         0.00000000       0.00000000       0.00000000          1
H         6.77634532       3.97302732      13.34589525         0.00000000       0.00000000       0.00000000          1
H         4.98154019       4.21303185      11.21861107         0.00000000       0.00000000       0.00000000          1
H         5.38759372       1.72872284      12.43006841         0.00000000       0.00000000       0.00000000          1
6
pbc=[F, F, F] list_num_par=6 frozen=false iter=20000 energy=-1.26974174 Lattice="15.00000000 0.00000000 0.00000000 0.00000000 15.00000000 0.00000000 0.00000000 0.00000000 15.00000000" energy_frozen_part=0.00000000 Properties=species:S:1:pos:R:3:velocities:R:3:Z:I:1
H         4.76273243       2.83968493      14.91619977         0.00000000       0.00000000       0.00000000          1
H         2.96850619       3.08028326      12.78849069         0.00000000       0.00000000       0.00000000          1
H         4.35753167       5.32419591      13.70487601         0.00000000       0.00000000       0.00000000          1
H         6.77637968       3.97329923      13.34635298         0.00000000       0.00000000       0.00000000          1
H         4.98215557       4.21389028      11.21864328         0.00000000       0.00000000       0.00000000          1
H         5.38735906       1.72938955      12.42996286         0.00000000       0.00000000       0.00000000          1
6
pbc=[F, F, F] list_num_par=6 frozen=false iter=20000 energy=-1.26974174 Lattice="15.00000000 0.00000000 0.00000000 0.00000000 15.00000000 0.00000000 0.00000000 0.00000000 15.00000000" energy_frozen_part=0.00000000 Properties=species:S:1:pos:R:3:velocities:R:3:Z:I:1
H         4.76332149       2.83913493      14.91638220         0.00000000       0.00000000       0.00000000          1
H         2.96858714       3.07906424      12.78902300         0.00000000       0.00000000       0.00000000          1
H         4.35727337       5.32341185      13.70485667         0.00000000       0.00000000       0.00000000          1
H         6.77636256       3.97305332      13.34596954         0.00000000       0.00000000       0.00000000          1
H         4.98162469       4.21297950      11.21861442         0.00000000       0.00000000       0.00000000          1
H         5.38768732       1.72870435      12.43014324         0.00000000       0.00000000       0.00000000          1
6
pbc=[F, F, F] list_num_par=6 frozen=false iter=20000 energy=-1.26974174 Lattice="15.00000000 0.00000000 0.00000000 0.00000000 15.00000000 0.00000000 0.00000000 0.00000000 15.00000000" energy_frozen_part=0.00000000 Properties=species:S:1:pos:R:3:velocities:R:3:Z:I:1
H         4.76263393       2.83969305      14.91624023         0.00000000       0.00000000       0.00000000          1
H         2.96848784       3.08031439      12.78847040         0.00000000       0.00000000       0.00000000          1
H         4.35750643       5.32420890      13.70489401         0.00000000       0.00000000       0.00000000          1
H         6.77635058       3.97328392      13.34645463         0.00000000       0.00000000       0.00000000          1
H         4.98219900       4.21389776      11.21868152         0.00000000       0.00000000       0.00000000          1
H         5.38733867       1.72938881      12.43002571         0.00000000       0.00000000       0.00000000          1
6
pbc=[F, F, F] list_num_par=6 frozen=false iter=20000 energy=-1.26974174 Lattice="15.00000000 0.00000000 0.00000000 0.00000000 15.00000000 0.00000000 0.00000000 0.00000000 15.00000000" energy_frozen_part=0.00000000 Properties=species:S:1:pos:R:3:velocities:R:3:Z:I:1
H         4.76265411       2.83970085      14.91627100         0.00000000       0.00000000       0.00000000          1
H         2.96847015       3.08031588      12.78853078         0.00000000       0.00000000       0.00000000          1
H         4.35751823       5.32421188      13.70491292         0.00000000       0.00000000       0.00000000          1
H         6.77634735       3.97325815      13.34644281         0.00000000       0.00000000       0.00000000          1
H         4.98216675       4.21387025      11.21870451         0.00000000       0.00000000       0.00000000          1
H         5.38729327       1.72936376      12.43005479         0.00000000       0.00000000       0.00000000          1
6
pbc=[F, F, F] list_num_par=6 frozen=false iter=20000 energy=-1.26974174 Lattice="15.00000000 0.00000000 0.00000000 0.00000000 15.00000000 0.00000000 0.00000000 0.00000000 15.00000000" energy_frozen_part=0.00000000 Properties=species:S:1:pos:R:3:velocities:R:3:Z:I:1
H         4.76266134       2.83978204      14.91614066         0.00000000       0.00000000       0.00000000          1
H         2.96849734       3.08035464      12.78836913         0.00000000       0.00000000       0.00000000          1
H         4.35749247       5.32427418      13.70476873         0.00000000       0.00000000       0.00000000          1
H         6.77634932       3.97338206      13.34633734         0.00000000       0.00000000       0.00000000          1
H         4.98219252       4.21394208      11.21856745         0.00000000       0.00000000       0.00000000          1
H         5.38735415       1.72945218      12.42994013         0.00000000       0.00000000       0.00000000          1
6
pbc=[F, F, F] list_num_par=6 frozen=false iter=20000 energy=-1.26974174 Lattice="15.00000000 0.00000000 0.00000000 0.00000000 15.00000000 0.00000000 0.00000000 0.00000000 15.00000000" energy_frozen_part=0.00000000 Properties=species:S:1:pos:R:3:velocities:R:3:Z:I:1
H         4.76266074       2.83965264      14.91622276         0.00000000       0.00000000       0.00000000          1
H         2.96850134       3.08026368      12.78845856         0.00000000       0.00000000       0.00000000          1
H         4.35749725       5.32416647      13.70488414         0.00000000       0.00000000       0.00000000          1
H         6.77635357       3.97326862      13.34643476         0.00000000       0.00000000       0.00000000          1
H         4.98219643       4.21386862      11.21866597         0.00000000       0.00000000       0.00000000          1
H         5.38735649       1.72935480      12.43000888         0.00000000       0.00000000       0.00000000          1
6
pbc=[F, F, F] list_num_par=6 frozen=false iter=20000 energy=-1.26974174 Lattice="15.00000000 0.00000000 0.00000000 0.00000000 15.00000000 0.00000000 0.00000000 0.00000000 15.00000000" energy_frozen_part=0.00000000 Properties=species:S:1:pos:R:3:velocities:R:3:Z:I:1
H         4.76269508       2.83969506      14.91619719         0.00000000       0.00000000       0.00000000          1
H         2.96852463       3.08034374      12.78845202         0.00000000       0.00000000       0.00000000          1
H         4.35759337       5.32422269      13.70486599         0.00000000       0.00000000       0.00000000          1
H         6.77640839       3.97324703      13.34639285         0.00000000       0.00000000       0.00000000          1
H         4.98223339       4.21390097      11.21864291         0.00000000       0.00000000       0.00000000          1
H         5.38733615       1.72937716      12.42997266         0.00000000       0.00000000       0.00000000          1
6
pbc=[F, F, F] list_num_par=6 frozen=false iter=20000 energy=-1.26974174 Lattice="15.00000000 0.00000000 0.00000000 0.00000000 15.00000000 0.00000000 0.00000000 0.00000000 15.00000000" energy_frozen_part=0.00000000 Properties=species:S:1:pos:R:3:velocities:R:3:Z:I:1
H         4.76265707       2.83975680      14.91614876         0.00000000       0.00000000       0.00000000          1
H         2.96849138       3.08035104      12.78838855         0.00000000       0.00000000       0.00000000          1
H         4.35751155       5.32425756      13.70478413         0.00000000       0.00000000       0.00000000          1
H         6.77635699       3.97333484      13.34634201         0.00000000       0.00000000       0.00000000          1
H         4.98219613       4.21393248      11.21857464         0.00000000       0.00000000       0.00000000          1
H         5.38732957       1.72942844      12.42993625         0.00000000       0.00000000       0.00000000          1
6
pbc=[F, F, F] list_num_par=6 frozen=false iter=20000 energy=-1.26974174 Lattice="15.00000000 0.00000000 0.00000000 0.00000000 15.00000000 0.00000000 0.00000000 0.00000000 15.00000000" energy_frozen_part=0.00000000 Properties=species:S:1:pos:R:3:velocities:R:3:Z:I:1
H         4.76264801       2.83963716      14.91623446         0.00000000       0.00000000       0.00000000          1
H         2.96848584       3.08026353      12.78846335         0.00000000       0.00000000       0.00000000          1
H         4.35748331       5.32416032      13.70492226         0.00000000       0.00000000       0.00000000          1
H         6.77634483       3.97326394      13.34646225         0.00000000       0.00000000       0.00000000          1
H         4.98219260       4.21388700      11.21869390         0.00000000       0.00000000       0.00000000          1
H         5.38734536       1.72936870      12.43000767         0.00000000       0.00000000       0.00000000          1
6
pbc=[F, F, F] list_num_par=6 frozen=false iter=20000 energy=-1.26974174 Lattice="15.00000000 0.00000000 0.00000000 0.00000000 15.00000000 0.00000000 0.00000000 0.00000000 15.00000000" energy_frozen_part=0.00000000 Properties=species:S:1:pos:R:3:velocities:R:3:Z:I:1
H         4.76335080       2.83912675      14.91635422         0.00000000       0.00000000       0.00000000          1
H         2.96854936       3.07910029      12.78906899         0.00000000       0.00000000       0.00000000          1
H         4.35730009       5.32342260      13.70487610         0.00000000       0.00000000       0.00000000          1
H         6.77636054       3.97302505      13.34589415         0.00000000       0.00000000       0.00000000          1
H         4.98155642       4.21300485      11.21860194         0.00000000       0.00000000       0.00000000          1
H         5.38761229       1.72870968      12.43008571         0.00000000       0.00000000       0.00000000          1
6
pbc=[F, F, F] list_num_par=6 frozen=false iter=20000 energy=-1.26974174 Lattice="15.00000000 0.00000000 0.00000000 0.00000000 15.00000000 0.00000000 0.00000000 0.00000000 15.00000000" energy_frozen_part=0.00000000 Properties=species:S:1:pos:R:3:velocities:R:3:Z:I:1
H         4.76336850       2.83912594      14.91639193         0.00000000       0.00000000       0.00000000          1
H         2.96859838       3.07910499      12.78906575         0.00000000       0.00000000       0.00000000          1
H         4.35732595       5.32342252      13.70490861         0.00000000       0.00000000       0.00000000          1
H         6.77639628       3.97303157      13.34595461         0.00000000       0.00000000       0.00000000          1
H         4.98162790       4.21302297      11.21863676         0.00000000       0.00000000       0.00000000          1
H         5.38766346       1.72872159      12.43011970         0.00000000       0.00000000       0.00000000          1
6
pbc=[F, F, F] list_num_par=6 frozen=false iter=20000 energy=-1.26974174 Lattice="15.00000000 0.00000000 0.00000000 0.00000000 15.00000000 0.00000000 0.00000000 0.00000000 15.00000000" energy_frozen_part=0.00000000 Properties=species:S:1:pos:R:3:velocities:R:3:Z:I:1
H         4.76332659       2.83913286      14.91635750         0.00000000       0.00000000       0.00000000          1
H         2.96852729       3.07912513      12.78906182         0.00000000       0.00000000       0.00000000          1
H         4.35729165       5.32343070      13.70487347         0.00000000       0.00000000       0.00000000          1
H         6.77634897       3.97301629      13.34589656         0.00000000       0.00000000       0.00000000          1
H         4.98154832       4.21301083      11.21860244         0.00000000       0.00000000       0.00000000          1
H         5.38758071       1.72871305      12.43009124         0.00000000       0.00000000       0.00000000          1
6
pbc=[F, F, F] list_num_par=6 frozen=false iter=20000 energy=-1.26974174 Lattice="15.00000000 0.00000000 0.00000000 0.00000000 15.00000000 0.00000000 0.00000000 0.00000000 15.00000000" energy_frozen_part=0.00000000 Properties=species:S:1:pos:R:3:velocities:R:3:Z:I:1
H         4.76265583       2.83975654      14.91615722         0.00000000       0.00000000       0.00000000          1
H         2.96850191       3.08034840      12.78838765         0.00000000       0.00000000       0.00000000          1
H         4.35750444       5.32426160      13.70479156         0.00000000       0.00000000       0.00000000          1
H         6.77635934       3.97334118      13.34636256         0.00000000       0.00000000       0.00000000          1
H         4.98220890       4.21393172      11.21858668         0.00000000       0.00000000       0.00000000          1
H         5.38734811       1.72943177      12.42995372         0.00000000       0.00000000       0.00000000          1
6
pbc=[F, F, F] list_num_par=6 frozen=false iter=20000 energy=-1.26974174 Lattice="15.00000000 0.00000000 0.00000000 0.00000000 15.00000000 0.00000000 0.00000000 0.00000000 15.00000000" energy_frozen_part=0.00000000 Properties=species:S:1:pos:R:3:velocities:R:3:Z:I:1
H         4.76264085       2.83969633      14.91626399         0.00000000       0.00000000       0.00000000          1
H         2.96846446       3.08032535      12.78851290         0.00000000       0.00000000       0.00000000          1
H         4.35752359       5.32420765      13.70490840         0.00000000       0.00000000       0.00000000          1
H         6.77634159       3.97325308      13.34644544         0.00000000       0.00000000       0.00000000          1
H         4.98216634       4.21387695      11.21868830         0.00000000       0.00000000       0.00000000          1
H         5.38728267       1.72937200      12.43004283         0.00000000       0.00000000       0.00000000          1
6
pbc=[F, F, F] list_num_par=6 frozen=false iter=20000 energy=-1.26974174 Lattice="15.00000000 0.00000000 0.00000000 0.00000000 15.00000000 0.00000000 0.00000000 0.00000000 15.00000000" energy_frozen_part=0.00000000 Properties=species:S:1:pos:R:3:velocities:R:3:Z:I:1
H         4.76269688       2.83968504      14.91618562         0.00000000       0.00000000       0.00000000          1
H         2.96851231       3.08033328      12.78844451         0.00000000       0.00000000       0.00000000          1
H         4.35757164       5.32420641      13.70485744         0.00000000       0.00000000       0.00000000          1
H         6.77639049       3.97326383      13.34637560         0.00000000       0.00000000       0.00000000          1
H         4.98221408       4.21390215      11.21862986         0.00000000       0.00000000       0.00000000          1
H         5.38733642       1.72938510      12.42995334         0.00000000       0.00000000       0.00000000          1
6
pbc=[F, F, F] list_num_par=6 frozen=false iter=20000 energy=-1.26974174 Lattice="15.00000000 0.00000000 0.00000000 0.00000000 15.00000000 0.00000000 0.00000000 0.00000000 15.00000000" energy_frozen_part=0.00000000 Properties=species:S:1:pos:R:3:velocities:R:3:Z:I:1
H         4.76334105       2.83913140      14.91634188         0.00000000       0.00000000       0.00000000          1
H         2.96852450       3.07911571      12.78905885         0.00000000       0.00000000       0.00000000          1
H         4.35727953       5.32342481      13.70486704         0.00000000       0.00000000       0.00000000          1
H         6.77633759       3.97303353      13.34587479         0.00000000       0.00000000       0.00000000          1
H         4.98152704       4.21302011      11.21858581         0.00000000       0.00000000       0.00000000          1
H         5.38758618       1.72871836      12.43005893         0.00000000       0.00000000       0.00000000          1
6
pbc=[F, F, F] list_num_par=6 frozen=false iter=20000 energy=-1.26974174 Lattice="15.00000000 0.00000000 0.00000000 0.00000000 15.00000000 0.00000000 0.00000000 0.00000000 15.00000000" energy_frozen_part=0.00000000 Properties=species:S:1:pos:R:3:velocities:R:3:Z:I:1
H         4.76332589       2.83912372      14.91635486         0.00000000       0.00000000       0.00000000          1
H         2.96853509       3.07912811      12.78906127         0.00000000       0.00000000       0.00000000          1
H         4.35729460       5.32342783      13.70489424         0.00000000       0.00000000       0.00000000          1
H         6.77634829       3.97302696      13.34589961         0.00000000       0.00000000       0.00000000          1
H         4.98154971       4.21302857      11.21860658         0.00000000       0.00000000       0.00000000          1
H         5.38758873       1.72872256      12.43007342         0.00000000       0.00000000       0.00000000          1
6
pbc=[F, F, F] list_num_par=6 frozen=false iter=20000 energy=-1.26974174 Lattice="15.00000000 0.00000000 0.00000000 0.00000000 15.00000000 0.00000000 0.00000000 0.00000000 15.00000000" energy_frozen_part=0.00000000 Properties=species:S:1:pos:R:3:velocities:R:3:Z:I:1
H         4.76319262       2.83913402      14.91637741         0.00000000       0.00000000       0.00000000          1
H         2.96849564       3.07914919      12.78899334         0.00000000       0.00000000       0.00000000          1
H         4.35718212       5.32344853      13.70492967         0.00000000       0.00000000       0.00000000          1
H         6.77627734       3.97308494      13.34604541         0.00000000       0.00000000       0.00000000          1
H         4.98158105       4.21309599      11.21866349         0.00000000       0.00000000       0.00000000          1
H         5.38758260       1.72878048      12.43010620         0.00000000       0.00000000       0.00000000          1
6
pbc=[F, F, F] list_num_par=6 frozen=false iter=20000 energy=-1.26974174 Lattice="15.00000000 0.00000000 0.00000000 0.00000000 15.00000000 0.00000000 0.00000000 0.00000000 15.00000000" energy_frozen_part=0.00000000 Properties=species:S:1:pos:R:3:velocities:R:3:Z:I:1
H         4.76270766       2.83968443      14.91618987         0.00000000       0.00000000       0.00000000          1
H         2.96851424       3.08025502      12.78845547         0.00000000       0.00000000       0.00000000          1
H         4.35748497       5.32418982      13.70486118         0.00000000       0.00000000       0.00000000          1
H         6.77636471       3.97334253      13.34637565         0.00000000       0.00000000       0.00000000          1
H         4.98217051       4.21390244      11.21863731         0.00000000       0.00000000       0.00000000          1
H         5.38739742       1.72940043      12.42996824         0.00000000       0.00000000       0.00000000          1
6
pbc=[F, F, F] list_num_par=6 frozen=false iter=20000 energy=-1.26974174 Lattice="15.00000000 0.00000000 0.00000000 0.00000000 15.00000000 0.00000000 0.00000000 0.00000000 15.00000000" energy_frozen_part=0.00000000 Properties=species:S:1:pos:R:3:velocities:R:3:Z:I:1
H         4.76271377       2.83968847      14.91621250         0.00000000       0.00000000       0.00000000          1
H         2.96851087       3.08026076      12.78848504         0.00000000       0.00000000       0.00000000          1
H         4.35752065       5.32418724      13.70485777         0.00000000       0.00000000       0.00000000          1
H         6.77637232       3.97329693      13.34637123         0.00000000       0.00000000       0.00000000          1
H         4.98216901       4.21386047      11.21863705         0.00000000       0.00000000       0.00000000          1
H         5.38736309       1.72936692      12.43000144         0.00000000       0.00000000       0.00000000          1
6
pbc=[F, F, F] list_num_par=6 frozen=false iter=20000 energy=-1.26974174 Lattice="15.00000000 0.00000000 0.00000000 0.00000000 15.00000000 0.00000000 0.00000000 0.00000000 15.00000000" energy_frozen_part=0.00000000 Properties=species:S:1:pos:R:3:velocities:R:3:Z:I:1
H         4.76266936       2.83970412      14.91626592         0.00000000       0.00000000       0.00000000          1
H         2.96846827       3.08030992      12.78853241         0.00000000       0.00000000       0.00000000          1
H         4.35751738       5.32420993      13.70491162         0.00000000       0.00000000       0.00000000          1
H         6.77634440       3.97327355      13.34642378         0.00000000       0.00000000       0.00000000          1
H         4.98214405       4.21388575      11.21869126         0.00000000       0.00000000       0.00000000          1
H         5.38730416       1.72938000      12.43003672         0.00000000       0.00000000       0.00000000          1
6
pbc=[F, F, F] list_num_par=6 frozen=false iter=20000 energy=-1.26974174 Lattice="15.00000000 0.00000000 0.00000000 0.00000000 15.00000000 0.00000000 0.00000000 0.00000000 15.00000000" energy_frozen_part=0.00000000 Properties=species:S:1:pos:R:3:velocities:R:3:Z:I:1
H         4.76329516       2.83935067      14.91635926         0.00000000       0.00000000       0.00000000          1
H         2.96860432       3.07920870      12.78896689         0.00000000       0.00000000       0.00000000          1
H         4.35723844       5.32359446      13.70477161         0.00000000       0.00000000       0.00000000          1
H         6.77635140       3.97325445      13.34596711         0.00000000       0.00000000       0.00000000          1
H         4.98165738       4.21310609      11.21856496         0.00000000       0.00000000       0.00000000          1
H         5.38772167       1.72886760      12.43015336         0.00000000       0.00000000       0.00000000          1
6
pbc=[F, F, F] list_num_par=6 frozen=false iter=20000 energy=-1.26974174 Lattice="15.00000000 0.00000000 0.00000000 0.00000000 15.00000000 0.00000000 0.00000000 0.00000000 15.00000000" energy_frozen_part=0.00000000 Properties=species:S:1:pos:R:3:velocities:R:3:Z:I:1
H         5.14331314       2.80330235      13.40023348         0.00000000       0.00000000       0.00000000          1
H         3.25575647       4.74801018      12.72233638         0.00000000       0.00000000       0.00000000          1
H         5.70157454       5.50501217      13.84000390         0.00000000       0.00000000       0.00000000          1
H         7.05140517       4.10863376      11.83193385         0.00000000       0.00000000       0.00000000          1
H         5.16384674       6.05333583      11.15402514         0.00000000       0.00000000       0.00000000          1
H         4.60559047       3.35162805      10.71425855         0.00000000       0.00000000       0.00000000          1
6
pbc=[F, F, F] list_num_par=6 frozen=false iter=20000 energy=-1.26974174 Lattice="15.00000000 0.00000000 0.00000000 0.00000000 15.00000000 0.00000000 0.00000000 0.00000000 15.00000000" energy_frozen_part=0.00000000 Properties=species:S:1:pos:R:3:velocities:R:3:Z:I:1
H         4.76267147       2.83982950      14.91616094         0.00000000       0.00000000       0.00000000          1
H         2.96847636       3.08036511      12.78841379         0.00000000       0.00000000       0.00000000          1
H         4.35746530       5.32430457      13.70477138         0.00000000       0.00000000       0.00000000          1
H         6.77632970       3.97343075      13.34630669         0.00000000       0.00000000       0.00000000          1
H         4.98213183       4.21396115      11.21856247         0.00000000       0.00000000       0.00000000          1
H         5.38733952       1.72948769      12.42995173         0.00000000       0.00000000       0.00000000          1
6
pbc=[F, F, F] list_num_par=6 frozen=false iter=20000 energy=-1.26974174 Lattice="15.00000000 0.00000000 0.00000000 0.00000000 15.00000000 0.00000000 0.00000000 0.00000000 15.00000000" energy_frozen_part=0.00000000 Properties=species:S:1:pos:R:3:velocities:R:3:Z:I:1
H         4.76266064       2.83978410      14.91615324         0.00000000       0.00000000       0.00000000          1
H         2.96850358       3.08036554      12.78838269         0.00000000       0.00000000       0.00000000          1
H         4.35750819       5.32428355      13.70478742         0.00000000       0.00000000       0.00000000          1
H         6.77636112       3.97336966      13.34634699         0.00000000       0.00000000       0.00000000          1
H         4.98220045       4.21395261      11.21858437         0.00000000       0.00000000       0.00000000          1
H         5.38736208       1.72945395      12.42995390         0.00000000       0.00000000       0.00000000          1
6
pbc=[F, F, F] list_num_par=6 frozen=false iter=20000 energy=-1.26974174 Lattice="15.00000000 0.00000000 0.00000000 0.00000000 15.00000000 0.00000000 0.00000000 0.00000000 15.00000000" energy_frozen_part=0.00000000 Properties=species:S:1:pos:R:3:velocities:R:3:Z:I:1
H         4.76334753       2.83911987      14.91637207         0.00000000       0.00000000       0.00000000          1
H         2.96852812       3.07910654      12.78908468         0.00000000       0.00000000       0.00000000          1
H         4.35728990       5.32341580      13.70490654         0.00000000       0.00000000       0.00000000          1
H         6.77634744       3.97302909      13.34590026         0.00000000       0.00000000       0.00000000          1
H         4.98152701       4.21301825      11.21862047         0.00000000       0.00000000       0.00000000          1
H         5.38758967       1.72871931      12.43008839         0.00000000       0.00000000       0.00000000          1
6
pbc=[F, F, F] list_num_par=6 frozen=false iter=20000 energy=-1.26974174 Lattice="15.00000000 0.00000000 0.00000000 0.00000000 15.00000000 0.00000000 0.00000000 0.00000000 15.00000000" energy_frozen_part=0.00000000 Properties=species:S:1:pos:R:3:velocities:R:3:Z:I:1
H         4.76329971       2.83935431      14.91635738         0.00000000       0.00000000       0.00000000          1
H         2.96860468       3.07918994      12.78895815         0.00000000       0.00000000       0.00000000          1
H         4.35721914       5.32358924      13.70476150         0.00000000       0.00000000       0.00000000          1
H         6.77634980       3.97328573      13.34596943         0.00000000       0.00000000       0.00000000          1
H         4.98165902       4.21310864      11.21856274         0.00000000       0.00000000       0.00000000          1
H         5.38774372       1.72887798      12.43015794         0.00000000       0.00000000       0.00000000          1
6
pbc=[F, F, F] list_num_par=6 frozen=false iter=20000 energy=-1.26974174 Lattice="15.00000000 0.00000000 0.00000000 0.00000000 15.00000000 0.00000000 0.00000000 0.00000000 15.00000000" energy_frozen_part=0.00000000 Properties=species:S:1:pos:R:3:velocities:R:3:Z:I:1
H         4.76282003       2.83973425      14.91615279         0.00000000       0.00000000       0.00000000          1
H         2.96854214       3.08020205      12.78846873         0.00000000       0.00000000       0.00000000          1
H         4.35746054       5.32420051      13.70479590         0.00000000       0.00000000       0.00000000          1
H         6.77637882       3.97342894      13.34624940         0.00000000       0.00000000       0.00000000          1
H         4.98209895       4.21389345      11.21856663         0.00000000       0.00000000       0.00000000          1
H         5.38745095       1.72942927      12.42992819         0.00000000       0.00000000       0.00000000          1
6
pbc=[F, F, F] list_num_par=6 frozen=false iter=20000 energy=-1.26974174 Lattice="15.00000000 0.00000000 0.00000000 0.00000000 15.00000000 0.00000000 0.00000000 0.00000000 15.00000000" energy_frozen_part=0.00000000 Properties=species:S:1:pos:R:3:velocities:R:3:Z:I:1
H         4.76265453       2.83978886      14.91615113         0.00000000       0.00000000       0.00000000          1
H         2.96850023       3.08034772      12.78837555         0.00000000       0.00000000       0.00000000          1
H         4.35748092       5.32427805      13.70478151         0.00000000       0.00000000       0.00000000          1
H         6.77634970       3.97339098      13.34635691         0.00000000       0.00000000       0.00000000          1
H         4.98219222       4.21394875      11.21858542         0.00000000       0.00000000       0.00000000          1
H         5.38736889       1.72945967      12.42996001         0.00000000       0.00000000       0.00000000          1
6
pbc=[F, F, F] list_num_par=6 frozen=false iter=20000 energy=-1.26974174 Lattice="15.00000000 0.00000000 0.00000000 0.00000000 15.00000000 0.00000000 0.00000000 0.00000000 15.00000000" energy_frozen_part=0.00000000 Properties=species:S:1:pos:R:3:velocities:R:3:Z:I:1
H         4.76266637       2.83968892      14.91626233         0.00000000       0.00000000       0.00000000          1
H         2.96846383       3.08032870      12.78853392         0.00000000       0.00000000       0.00000000          1
H         4.35753515       5.32420245      13.70492515         0.00000000       0.00000000       0.00000000          1
H         6.77635210       3.97325489      13.34642516         0.00000000       0.00000000       0.00000000          1
H         4.98215748       4.21389125      11.21869844         0.00000000       0.00000000       0.00000000          1
H         5.38728497       1.72937474      12.43002965         0.00000000       0.00000000       0.00000000          1
6
pbc=[F, F, F] list_num_par=6 frozen=false iter=20000 energy=-1.26974174 Lattice="15.00000000 0.00000000 0.00000000 0.00000000 15.00000000 0.00000000 0.00000000 0.00000000 15.00000000" energy_frozen_part=0.00000000 Properties=species:S:1:pos:R:3:velocities:R:3:Z:I:1
H         4.76266183       2.83975718      14.91614629         0.00000000       0.00000000       0.00000000          1
H         2.96849898       3.08034567      12.78838134         0.00000000       0.00000000       0.00000000          1
H         4.35750764       5.32425407      13.70479446         0.00000000       0.00000000       0.00000000          1
H         6.77636079       3.97334756      13.34634992         0.00000000       0.00000000       0.00000000          1
H         4.98220296       4.21393736      11.21858042         0.00000000       0.00000000       0.00000000          1
H         5.38735008       1.72943625      12.42994244         0.00000000       0.00000000       0.00000000          1
6
pbc=[F, F, F] list_num_par=6 frozen=false iter=20000 energy=-1.26974174 Lattice="15.00000000 0.00000000 0.00000000 0.00000000 15.00000000 0.00000000 0.00000000 0.00000000 15.00000000" energy_frozen_part=0.00000000 Properties=species:S:1:pos:R:3:velocities:R:3:Z:I:1
H         4.76333591       2.83911153      14.91636904         0.00000000       0.00000000       0.00000000          1
H         2.96858277       3.07907825      12.78903137         0.00000000       0.00000000       0.00000000          1
H         4.35727446       5.32340580      13.70488712         0.00000000       0.00000000       0.00000000          1
H         6.77636120       3.97304833      13.34596175         0.00000000       0.00000000       0.00000000          1
H         4.98161250       4.21301127      11.21861773         0.00000000       0.00000000       0.00000000          1
H         5.38767063       1.72872194      12.43009653         0.00000000       0.00000000       0.00000000          1
6
pbc=[F, F, F] list_num_par=6 frozen=false iter=20000 energy=-1.26974174 Lattice="15.00000000 0.00000000 0.00000000 0.00000000 15.00000000 0.00000000 0.00000000 0.00000000 15.00000000" energy_frozen_part=0.00000000 Properties=species:S:1:pos:R:3:velocities:R:3:Z:I:1
H         4.76267892       2.83969596      14.91618809         0.00000000       0.00000000       0.00000000          1
H         2.96851797       3.08031817      12.78843081         0.00000000       0.00000000       0.00000000          1
H         4.35755877       5.32420290      13.70484191         0.00000000       0.00000000       0.00000000          1
H         6.77638659       3.97326008      13.34637783         0.00000000       0.00000000       0.00000000          1
H         4.98222152       4.21388695      11.21862349         0.00000000       0.00000000       0.00000000          1
H         5.38734397       1.72937331      12.42996792         0.00000000       0.00000000       0.00000000          1
6
pbc=[F, F, F] list_num_par=6 frozen=false iter=20000 energy=-1.26974174 Lattice="15.00000000 0.00000000 0.00000000 0.00000000 15.00000000 0.00000000 0.00000000 0.00000000 15.00000000" energy_frozen_part=0.00000000 Properties=species:S:1:pos:R:3:velocities:R:3:Z:I:1
H         4.76331328       2.83934832      14.91636043         0.00000000       0.00000000       0.00000000          1
H         2.96860900       3.07918523      12.78896453         0.00000000       0.00000000       0.00000000          1
H         4.35722633       5.32358291      13.70476705         0.00000000       0.00000000       0.00000000          1
H         6.77636011       3.97327174      13.34596179         0.00000000       0.00000000       0.00000000          1
H         4.98165988       4.21310951      11.21856278         0.00000000       0.00000000       0.00000000          1
H         5.38773567       1.72887313      12.43015884         0.00000000       0.00000000       0.00000000          1
6
pbc=[F, F, F] list_num_par=6 frozen=false iter=20000 energy=-1.26974174 Lattice="15.00000000 0.00000000 0.00000000 0.00000000 15.00000000 0.00000000 0.00000000 0.00000000 15.00000000" energy_frozen_part=0.00000000 Properties=species:S:1:pos:R:3:velocities:R:3:Z:I:1
H         4.76329418       2.83912519      14.91635998         0.00000000       0.00000000       0.00000000          1
H         2.96858114       3.07915800      12.78899961         0.00000000       0.00000000       0.00000000          1
H         4.35730874       5.32344211      13.70490844         0.00000000       0.00000000       0.00000000          1
H         6.77637531       3.97303383      13.34600910         0.00000000       0.00000000       0.00000000          1
H         4.98166869       4.21306677      11.21864361         0.00000000       0.00000000       0.00000000          1
H         5.38764649       1.72874961      12.43009380         0.00000000       0.00000000       0.00000000          1
6
pbc=[F, F, F] list_num_par=6 frozen=false iter=20000 energy=-1.26974174 Lattice="15.00000000 0.00000000 0.00000000 0.00000000 15.00000000 0.00000000 0.00000000 0.00000000 15.00000000" energy_frozen_part=0.00000000 Properties=species:S:1:pos:R:3:velocities:R:3:Z:I:1
H         4.76265329       2.83976975      14.91615416         0.00000000       0.00000000       0.00000000          1
H         2.96849743       3.08035329      12.78837981         0.00000000       0.00000000       0.00000000          1
H         4.35751639       5.32426451      13.70478335         0.00000000       0.00000000       0.00000000          1
H         6.77635983       3.97333753      13.34634783         0.00000000       0.00000000       0.00000000          1
H         4.98219663       4.21393224      11.21858051         0.00000000       0.00000000       0.00000000          1
H         5.38734041       1.72943072      12.42994960         0.00000000       0.00000000       0.00000000          1
6
pbc=[F, F, F] list_num_par=6 frozen=false iter=20000 energy=-1.26974174 Lattice="15.00000000 0.00000000 0.00000000 0.00000000 15.00000000 0.00000000 0.00000000 0.00000000 15.00000000" energy_frozen_part=0.00000000 Properties=species:S:1:pos:R:3:velocities:R:3:Z:I:1
H         4.76334963       2.83913317      14.91634493         0.00000000       0.00000000       0.00000000          1
H         2.96853608       3.07911646      12.78906159         0.00000000       0.00000000       0.00000000          1
H         4.35729538       5.32343055      13.70487447         0.00000000       0.00000000       0.00000000          1
H         6.77634815       3.97302991      13.34587041         0.00000000       0.00000000       0.00000000          1
H         4.98153582       4.21301320      11.21858957         0.00000000       0.00000000       0.00000000          1
H         5.38758762       1.72871925      12.43006756         0.00000000       0.00000000       0.00000000          1
6
pbc=[F, F, F] list_num_par=6 frozen=false iter=20000 energy=-1.26974174 Lattice="15.00000000 0.00000000 0.00000000 0.00000000 15.00000000 0.00000000 0.00000000 0.00000000 15.00000000" energy_frozen_part=0.00000000 Properties=species:S:1:pos:R:3:velocities:R:3:Z:I:1
H         4.76335495       2.83912779      14.91635106         0.00000000       0.00000000       0.00000000          1
H         2.96854499       3.07911194      12.78907032         0.00000000       0.00000000       0.00000000          1
H         4.35729259       5.32342584      13.70487903         0.00000000       0.00000000       0.00000000          1
H         6.77634987       3.97303020      13.34587582         0.00000000       0.00000000       0.00000000          1
H         4.98154126       4.21301422      11.21859599         0.00000000       0.00000000       0.00000000          1
H         5.38760081       1.72871830      12.43007110         0.00000000       0.00000000       0.00000000          1
6
pbc=[F, F, F] list_num_par=6 frozen=false iter=20000 energy=-1.26974174 Lattice="15.00000000 0.00000000 0.00000000 0.00000000 15.00000000 0.00000000 0.00000000 0.00000000 15.00000000" energy_frozen_part=0.00000000 Properties=species:S:1:pos:R:3:velocities:R:3:Z:I:1
H         4.76333804       2.83911834      14.91636758         0.00000000       0.00000000       0.00000000          1
H         2.96857903       3.07907348      12.78904021         0.00000000       0.00000000       0.00000000          1
H         4.35726560       5.32341235      13.70488922         0.00000000       0.00000000       0.00000000          1
H         6.77636302       3.97306471      13.34595434         0.00000000       0.00000000       0.00000000          1
H         4.98160446       4.21301927      11.21862280         0.00000000       0.00000000       0.00000000          1
H         5.38767045       1.72872879      12.43010266         0.00000000       0.00000000       0.00000000          1
6
pbc=[F, F, F] list_num_par=6 frozen=false iter=20000 energy=-1.26974174 Lattice="15.00000000 0.00000000 0.00000000 0.00000000 15.00000000 0.00000000 0.00000000 0.00000000 15.00000000" energy_frozen_part=0.00000000 Properties=species:S:1:pos:R:3:velocities:R:3:Z:I:1
H         4.76268584       2.83970906      14.91620184         0.00000000       0.00000000       0.00000000          1
H         2.96851264       3.08036313      12.78845533         0.00000000       0.00000000       0.00000000          1
H         4.35758072       5.32423342      13.70486748         0.00000000       0.00000000       0.00000000          1
H         6.77639866       3.97325643      13.34639463         0.00000000       0.00000000       0.00000000          1
H         4.98222966       4.21390979      11.21864712         0.00000000       0.00000000       0.00000000          1
H         5.38732090       1.72938818      12.42997955         0.00000000       0.00000000       0.00000000          1
6
pbc=[F, F, F] list_num_par=6 frozen=false iter=20000 energy=-1.26974174 Lattice="15.00000000 0.00000000 0.00000000 0.00000000 15.00000000 0.00000000 0.00000000 0.00000000 15.00000000" energy_frozen_part=0.00000000 Properties=species:S:1:pos:R:3:velocities:R:3:Z:I:1
H         4.76332244       2.83913933      14.91635927         0.00000000       0.00000000       0.00000000          1
H         2.96853108       3.07914046      12.78906226         0.00000000       0.00000000       0.00000000          1
H         4.35729476       5.32343806      13.70487787         0.00000000       0.00000000       0.00000000          1
H         6.77634580       3.97301680      13.34590738         0.00000000       0.00000000       0.00000000          1
H         4.98155672       4.21301458      11.21860238         0.00000000       0.00000000       0.00000000          1
H         5.38757792       1.72871914      12.43008648         0.00000000       0.00000000       0.00000000          1
6
pbc=[F, F, F] list_num_par=6 frozen=false iter=20000 energy=-1.26974174 Lattice="15.00000000 0.00000000 0.00000000 0.00000000 15.00000000 0.00000000 0.00000000 0.00000000 15.00000000" energy_frozen_part=0.00000000 Properties=species:S:1:pos:R:3:velocities:R:3:Z:I:1
H         4.76335996       2.83912469      14.91636535         0.00000000       0.00000000       0.00000000          1
H         2.96859637       3.07906200      12.78903014         0.00000000       0.00000000       0.00000000          1
H         4.35727194       5.32340936      13.70487380         0.00000000       0.00000000       0.00000000          1
H         6.77637196       3.97307766      13.34594006         0.00000000       0.00000000       0.00000000          1
H         4.98161198       4.21300763      11.21861034         0.00000000       0.00000000       0.00000000          1
H         5.38770135       1.72872411      12.43010993         0.00000000       0.00000000       0.00000000          1
6
pbc=[F, F, F] list_num_par=6 frozen=false iter=20000 energy=-1.26974174 Lattice="15.00000000 0.00000000 0.00000000 0.00000000 15.00000000 0.00000000 0.00000000 0.00000000 15.00000000" energy_frozen_part=0.00000000 Properties=species:S:1:pos:R:3:velocities:R:3:Z:I:1
H         4.76268825       2.83968131      14.91618061         0.00000000       0.00000000       0.00000000          1
H         2.96851913       3.08031522      12.78842207         0.00000000       0.00000000       0.00000000          1
H         4.35755174       5.32420451      13.70485340         0.00000000       0.00000000       0.00000000          1
H         6.77638423       3.97327268      13.34638126         0.00000000       0.00000000       0.00000000          1
H         4.98221849       4.21390233      11.21862600         0.00000000       0.00000000       0.00000000          1
H         5.38735196       1.72938452      12.42995793         0.00000000       0.00000000       0.00000000          1
6
pbc=[F, F, F] list_num_par=6 frozen=false iter=20000 energy=-1.26974174 Lattice="15.00000000 0.00000000 0.00000000 0.00000000 15.00000000 0.00000000 0.00000000 0.00000000 15.00000000" energy_frozen_part=0.00000000 Properties=species:S:1:pos:R:3:velocities:R:3:Z:I:1
H         4.76333741       2.83911560      14.91637934         0.00000000       0.00000000       0.00000000          1
H         2.96857876       3.07907846      12.78904368         0.00000000       0.00000000       0.00000000          1
H         4.35728086       5.32340240      13.70489618         0.00000000       0.00000000       0.00000000          1
H         6.77636772       3.97303673      13.34595650         0.00000000       0.00000000       0.00000000          1
H         4.98160771       4.21300422      11.21862879         0.00000000       0.00000000       0.00000000          1
H         5.38766080       1.72871047      12.43011806         0.00000000       0.00000000       0.00000000          1
6
pbc=[F, F, F] list_num_par=6 frozen=false iter=20000 energy=-1.26974174 Lattice="15.00000000 0.00000000 0.00000000 0.00000000 15.00000000 0.00000000 0.00000000 0.00000000 15.00000000" energy_frozen_part=0.00000000 Properties=species:S:1:pos:R:3:velocities:R:3:Z:I:1
H         4.76330817       2.83910703      14.91634763         0.00000000       0.00000000       0.00000000          1
H         2.96852168       3.07910939      12.78904260         0.00000000       0.00000000       0.00000000          1
H         4.35727781       5.32340882      13.70488005         0.00000000       0.00000000       0.00000000          1
H         6.77633368       3.97300752      13.34591046         0.00000000       0.00000000       0.00000000          1
H         4.98155158       4.21301477      11.21860546         0.00000000       0.00000000       0.00000000          1
H         5.38757691       1.72871096      12.43006590         0.00000000       0.00000000       0.00000000          1
6
pbc=[F, F, F] list_num_par=6 frozen=false iter=20000 energy=-1.26974174 Lattice="15.00000000 0.00000000 0.00000000 0.00000000 15.00000000 0.00000000 0.00000000 0.00000000 15.00000000" energy_frozen_part=0.00000000 Properties=species:S:1:pos:R:3:velocities:R:3:Z:I:1
H         4.76333576       2.83913801      14.91637824         0.00000000       0.00000000       0.00000000          1
H         2.96858861       3.07906553      12.78903420         0.00000000       0.00000000       0.00000000          1
H         4.35727929       5.32340823      13.70484919         0.00000000       0.00000000       0.00000000          1
H         6.77636885       3.97304810      13.34595416         0.00000000       0.00000000       0.00000000          1
H         4.98161995       4.21296993      11.21860910         0.00000000       0.00000000       0.00000000          1
H         5.38768063       1.72870264      12.43013440         0.00000000       0.00000000       0.00000000          1
6
pbc=[F, F, F] list_num_par=6 frozen=false iter=20000 energy=-1.26974174 Lattice="15.00000000 0.00000000 0.00000000 0.00000000 15.00000000 0.00000000 0.00000000 0.00000000 15.00000000" energy_frozen_part=0.00000000 Properties=species:S:1:pos:R:3:velocities:R:3:Z:I:1
H         4.76335873       2.83914273      14.91637865         0.00000000       0.00000000       0.00000000          1
H         2.96860435       3.07912514      12.78904471         0.00000000       0.00000000       0.00000000          1
H         4.35734335       5.32343434      13.70489037         0.00000000       0.00000000       0.00000000          1
H         6.77640890       3.97303249      13.34595722         0.00000000       0.00000000       0.00000000          1
H         4.98165297       4.21301570      11.21862432         0.00000000       0.00000000       0.00000000          1
H         5.38767094       1.72872443      12.43011622         0.00000000       0.00000000       0.00000000          1
6
pbc=[F, F, F] list_num_par=6 frozen=false iter=20000 energy=-1.26974174 Lattice="15.00000000 0.00000000 0.00000000 0.00000000 15.00000000 0.00000000 0.00000000 0.00000000 15.00000000" energy_frozen_part=0.00000000 Properties=species:S:1:pos:R:3:velocities:R:3:Z:I:1
H         4.76330597       2.83911394      14.91635847         0.00000000       0.00000000       0.00000000          1
H         2.96853568       3.07913297      12.78904536         0.00000000       0.00000000       0.00000000          1
H         4.35729410       5.32342445      13.70489774         0.00000000       0.00000000       0.00000000          1
H         6.77634763       3.97301176      13.34593387         0.00000000       0.00000000       0.00000000          1
H         4.98157294       4.21302408      11.21862317         0.00000000       0.00000000       0.00000000          1
H         5.38758612       1.72871778      12.43008564         0.00000000       0.00000000       0.00000000          1
6
pbc=[F, F, F] list_num_par=6 frozen=false iter=20000 energy=-1.26974174 Lattice="15.00000000 0.00000000 0.00000000 0.00000000 15.00000000 0.00000000 0.00000000 0.00000000 15.00000000" energy_frozen_part=0.00000000 Properties=species:S:1:pos:R:3:velocities:R:3:Z:I:1
H         4.76266019       2.83977354      14.91613500         0.00000000       0.00000000       0.00000000          1
H         2.96850764       3.08034532      12.78835632         0.00000000       0.00000000       0.00000000          1
H         4.35750097       5.32426703      13.70476798         0.00000000       0.00000000       0.00000000          1
H         6.77636123       3.97337085      13.34634461         0.00000000       0.00000000       0.00000000          1
H         4.98220964       4.21394443      11.21857073         0.00000000       0.00000000       0.00000000          1
H         5.38737062       1.72945090      12.42993595         0.00000000       0.00000000       0.00000000          1
6
pbc=[F, F, F] list_num_par=6 frozen=false iter=20000 energy=-1.26974174 Lattice="15.00000000 0.00000000 0.00000000 0.00000000 15.00000000 0.00000000 0.00000000 0.00000000 15.00000000" energy_frozen_part=0.00000000 Properties=species:S:1:pos:R:3:velocities:R:3:Z:I:1
H         4.76329120       2.83914766      14.91640222         0.00000000       0.00000000       0.00000000          1
H         2.96857244       3.07909186      12.78902688         0.00000000       0.00000000       0.00000000          1
H         4.35723374       5.32343266      13.70490309         0.00000000       0.00000000       0.00000000          1
H         6.77633706       3.97308762      13.34602384         0.00000000       0.00000000       0.00000000          1
H         4.98162519       4.21303341      11.21865146         0.00000000       0.00000000       0.00000000          1
H         5.38767246       1.72874704      12.43015396         0.00000000       0.00000000       0.00000000          1
6
pbc=[F, F, F] list_num_par=6 frozen=false iter=20000 energy=-1.26974174 Lattice="15.00000000 0.00000000 0.00000000 0.00000000 15.00000000 0.00000000 0.00000000 0.00000000 15.00000000" energy_frozen_part=0.00000000 Properties=species:S:1:pos:R:3:velocities:R:3:Z:I:1
H         4.76266854       2.83968463      14.91625730         0.00000000       0.00000000       0.00000000          1
H         2.96846441       3.08032603      12.78853750         0.00000000       0.00000000       0.00000000          1
H         4.35753787       5.32420029      13.70492411         0.00000000       0.00000000       0.00000000          1
H         6.77634858       3.97323544      13.34641519         0.00000000       0.00000000       0.00000000          1
H         4.98214797       4.21387877      11.21869507         0.00000000       0.00000000       0.00000000          1
H         5.38727428       1.72935884      12.43002695         0.00000000       0.00000000       0.00000000          1
