6
pbc=[F, F, F] list_num_par=6 frozen=false iter=20000 energy=-1.26974174 Lattice="15.00000000 0.00000000 0.00000000 0.00000000 15.00000000 0.00000000 0.00000000 0.00000000 15.00000000" energy_frozen_part=0.00000000 Properties=species:S:1:pos:R:3:velocities:R:3:Z:I:1
H         8.45335550       3.41307749      10.52008361         0.00000000       0.00000000       0.00000000          1
H         9.53929625       4.40469580       8.14486111         0.00000000       0.00000000       0.00000000          1
H         7.27277917       5.60482443       9.25249923         0.00000000       0.00000000       0.00000000          1
H         8.23813150       1.93265137       8.16078046         0.00000000       0.00000000       0.00000000          1
H         7.05754913       4.12439982       6.89320033         0.00000000       0.00000000       0.00000000          1
H         5.97160792       3.13278335       9.26842427         0.00000000       0.00000000       0.00000000          1
6
pbc=[F, F, F] list_num_par=6 frozen=false iter=20000 energy=-1.26974174 Lattice="15.00000000 0.00000000 0.00000000 0.00000000 15.00000000 0.00000000 0.00000000 0.00000000 15.00000000" energy_frozen_part=0.00000000 Properties=species:S:1:pos:R:3:velocities:R:3:Z:I:1
H         8.45305591       3.41275604      10.52007334         0.00000000       0.00000000       0.00000000          1
H         9.53927782       4.40414222       8.14487510         0.00000000       0.00000000       0.00000000          1
H         7.27294615       5.60471269       9.25241129         0.00000000       0.00000000       0.00000000          1
H         8.23763672       1.93235357       8.16077119         0.00000000       0.00000000       0.00000000          1
H         7.05752629       4.12430907       6.89311295         0.00000000       0.00000000       0.00000000          1
H         5.97130257       3.13292021       9.26831058         0.00000000       0.00000000       0.00000000          1
6
pbc=[F, F, F] list_num_par=6 frozen=false iter=20000 energy=-1.26974174 Lattice="15.00000000 0.00000000 0.00000000 0.00000000 15.00000000 0.00000000 0.00000000 0.00000000 15.00000000" energy_frozen_part=0.00000000 Properties=species:S:1:pos:R:3:velocities:R:3:Z:I:1
H         8.45306430       3.41279936      10.52010570         0.00000000       0.00000000       0.00000000          1
H         9.53928871       4.40413106       8.14488449         0.00000000       0.00000000       0.00000000          1
H         7.27294961       5.60471999       9.25239563         0.00000000       0.00000000       0.00000000          1
H         8.23765103       1.93233814       8.16084481         0.00000000       0.00000000       0.00000000          1
H         7.05753622       4.12425976       6.89312920         0.00000000       0.00000000       0.00000000          1
H         5.97131516       3.13292354       9.26835385         0.00000000       0.00000000       0.00000000          1
6
pbc=[F, F, F] list_num_par=6 frozen=false iter=20000 energy=-1.26974174 Lattice="15.00000000 0.00000000 0.00000000 0.00000000 15.00000000 0.00000000 0.00000000 0.00000000 15.00000000" energy_frozen_part=0.00000000 Properties=species:S:1:pos:R:3:velocities:R:3:Z:I:1
H         8.45264797       3.41070157      10.49391171         0.00000000       0.00000000       0.00000000          1
H         9.50318659       4.43080659       8.11482592         0.00000000       0.00000000       0.00000000          1
H         7.22187358       5.58378032       9.24202421         0.00000000       0.00000000       0.00000000          1
H         8.24946986       1.93436446       8.13098584         0.00000000       0.00000000       0.00000000          1
H         7.01869972       4.10744405       6.87909726         0.00000000       0.00000000       0.00000000          1
H         5.96815682       3.08733869       9.25817377         0.00000000       0.00000000       0.00000000          1
6
pbc=[F, F, F] list_num_par=6 frozen=false iter=20000 energy=-1.26974174 Lattice="15.00000000 0.00000000 0.00000000 0.00000000 15.00000000 0.00000000 0.00000000 0.00000000 15.00000000" energy_frozen_part=0.00000000 Properties=species:S:1:pos:R:3:velocities:R:3:Z:I:1
H         8.45305829       3.41280909      10.52006499         0.00000000       0.00000000       0.00000000          1
H         9.53926057       4.40417402       8.14484888         0.00000000       0.00000000       0.00000000          1
H         7.27293022       5.60474587       9.25239354         0.00000000       0.00000000       0.00000000          1
H         8.23762752       1.93237113       8.16078780         0.00000000       0.00000000       0.00000000          1
H         7.05750002       4.12430621       6.89312115         0.00000000       0.00000000       0.00000000          1
H         5.97129794       3.13294079       9.26833351         0.00000000       0.00000000       0.00000000          1
6
pbc=[F, F, F] list_num_par=6 frozen=false iter=20000 energy=-1.26974174 Lattice="15.00000000 0.00000000 0.00000000 0.00000000 15.00000000 0.00000000 0.00000000 0.00000000 15.00000000" energy_frozen_part=0.00000000 Properties=species:S:1:pos:R:3:velocities:R:3:Z:I:1
H         8.45264054       3.41071459      10.49394082         0.00000000       0.00000000       0.00000000          1
H         9.50319579       4.43080038       8.11485433         0.00000000       0.00000000       0.00000000          1
H         7.22188327       5.58378965       9.24202794         0.00000000       0.00000000       0.00000000          1
H         8.24946984       1.93436322       8.13101810         0.00000000       0.00000000       0.00000000          1
H         7.01871759       4.10743977       6.87910868         0.00000000       0.00000000       0.00000000          1
H         5.96816010       3.08734742       9.25819646         0.00000000       0.00000000       0.00000000          1
6
pbc=[F, F, F] list_num_par=6 frozen=false iter=20000 energy=-1.26974174 Lattice="15.00000000 0.00000000 0.00000000 0.00000000 15.00000000 0.00000000 0.00000000 0.00000000 15.00000000" energy_frozen_part=0.00000000 Properties=species:S:1:pos:R:3:velocities:R:3:Z:I:1
H         8.45306852       3.41279475      10.52009569         0.00000000       0.00000000       0.00000000          1
H         9.53928450       4.40413083       8.14487922         0.00000000       0.00000000       0.00000000          1
H         7.27295833       5.60472548       9.25239984         0.00000000       0.00000000       0.00000000          1
H         8.23764429       1.93234057       8.16083388         0.00000000       0.00000000       0.00000000          1
H         7.05753285       4.12426734       6.89313768         0.00000000       0.00000000       0.00000000          1
H         5.97131174       3.13292943       9.26835455         0.00000000       0.00000000       0.00000000          1
6
pbc=[F, F, F] list_num_par=6 frozen=false iter=20000 energy=-1.26974174 Lattice="15.00000000 0.00000000 0.00000000 0.00000000 15.00000000 0.00000000 0.00000000 0.00000000 15.00000000" energy_frozen_part=0.00000000 Properties=species:S:1:pos:R:3:velocities:R:3:Z:I:1
H         8.45333881       3.41304747      10.52001556         0.00000000       0.00000000       0.00000000          1
H         9.53933013       4.40463137       8.14479467         0.00000000       0.00000000       0.00000000          1
H         7.27286835       5.60485850       9.25244559         0.00000000       0.00000000       0.00000000          1
H         8.23804059       1.93264974       8.16071310         0.00000000       0.00000000       0.00000000          1
H         7.05757075       4.12445794       6.89313827         0.00000000       0.00000000       0.00000000          1
H         5.97157929       3.13287830       9.26835743         0.00000000       0.00000000       0.00000000          1
6
pbc=[F, F, F] list_num_par=6 frozen=false iter=20000 energy=-1.26974174 Lattice="15.00000000 0.00000000 0.00000000 0.00000000 15.00000000 0.00000000 0.00000000 0.00000000 15.00000000" energy_frozen_part=0.00000000 Properties=species:S:1:pos:R:3:velocities:R:3:Z:I:1
H         8.45305714       3.41280079      10.52011045         0.00000000       0.00000000       0.00000000          1
H         9.53928480       4.40413359       8.14488689         0.00000000       0.00000000       0.00000000          1
H         7.27294535       5.60472408       9.25240285         0.00000000       0.00000000       0.00000000          1
H         8.23764276       1.93234283       8.16084723         0.00000000       0.00000000       0.00000000          1
H         7.05753300       4.12426613       6.89314214         0.00000000       0.00000000       0.00000000          1
H         5.97130416       3.13293443       9.26835703         0.00000000       0.00000000       0.00000000          1
6
pbc=[F, F, F] list_num_par=6 frozen=false iter=20000 energy=-1.26974174 Lattice="15.00000000 0.00000000 0.00000000 0.00000000 15.00000000 0.00000000 0.00000000 0.00000000 15.00000000" energy_frozen_part=0.00000000 Properties=species:S:1:pos:R:3:velocities:R:3:Z:I:1
H         8.45265504       3.41070113      10.49389277         0.00000000       0.00000000       0.00000000          1
H         9.50318878       4.43078385       8.11480321         0.00000000       0.00000000       0.00000000          1
H         7.22190892       5.58379749       9.24201772         0.00000000       0.00000000       0.00000000          1
H         8.24942536       1.93436574       8.13097177         0.00000000       0.00000000       0.00000000          1
H         7.01868429       4.10746447       6.87909056         0.00000000       0.00000000       0.00000000          1
H         5.96814668       3.08738272       9.25819156         0.00000000       0.00000000       0.00000000          1
6
pbc=[F, F, F] list_num_par=6 frozen=false iter=20000 energy=-1.26974174 Lattice="15.00000000 0.00000000 0.00000000 0.00000000 15.00000000 0.00000000 0.00000000 0.00000000 15.00000000" energy_frozen_part=0.00000000 Properties=species:S:1:pos:R:3:velocities:R:3:Z:I:1
H         8.45306105       3.41280590      10.52006110         0.00000000       0.00000000       0.00000000          1
H         9.53925704       4.40416634       8.14484466         0.00000000       0.00000000       0.00000000          1
H         7.27293646       5.60475326       9.25239275         0.00000000       0.00000000       0.00000000          1
H         8.23762185       1.93237305       8.16078214         0.00000000       0.00000000       0.00000000          1
H         7.05749789       4.12431399       6.89311410         0.00000000       0.00000000       0.00000000          1
H         5.97129724       3.13295461       9.26833666         0.00000000       0.00000000       0.00000000          1
6
pbc=[F, F, F] list_num_par=6 frozen=false iter=20000 energy=-1.26974174 Lattice="15.00000000 0.00000000 0.00000000 0.00000000 15.00000000 0.00000000 0.00000000 0.00000000 15.00000000" energy_frozen_part=0.00000000 Properties=species:S:1:pos:R:3:velocities:R:3:Z:I:1
H         8.45265370       3.41070782      10.49393288         0.00000000       0.00000000       0.00000000          1
H         9.50320603       4.43081307       8.11486230         0.00000000       0.00000000       0.00000000          1
H         7.22189527       5.58379496       9.24204546         0.00000000       0.00000000       0.00000000          1
H         8.24947614       1.93438103       8.13099902         0.00000000       0.00000000       0.00000000          1
H         7.01872797       4.10746802       6.87910732         0.00000000       0.00000000       0.00000000          1
H         5.96816467       3.08736312       9.25818504         0.00000000       0.00000000       0.00000000          1
6
pbc=[F, F, F] list_num_par=6 frozen=false iter=20000 energy=-1.26974174 Lattice="15.00000000 0.00000000 0.00000000 0.00000000 15.00000000 0.00000000 0.00000000 0.00000000 15.00000000" energy_frozen_part=0.00000000 Properties=species:S:1:pos:R:3:velocities:R:3:Z:I:1
H         8.45306620       3.41280955      10.52009816         0.00000000       0.00000000       0.00000000          1
H         9.53928285       4.40412875       8.14487577         0.00000000       0.00000000       0.00000000          1
H         7.27295132       5.60473251       9.25238155         0.00000000       0.00000000       0.00000000          1
H         8.23764266       1.93233673       8.16084609         0.00000000       0.00000000       0.00000000          1
H         7.05753331       4.12426319       6.89313150         0.00000000       0.00000000       0.00000000          1
H         5.97130901       3.13293793       9.26835578         0.00000000       0.00000000       0.00000000          1
6
pbc=[F, F, F] list_num_par=6 frozen=false iter=20000 energy=-1.26974174 Lattice="15.00000000 0.00000000 0.00000000 0.00000000 15.00000000 0.00000000 0.00000000 0.00000000 15.00000000" energy_frozen_part=0.00000000 Properties=species:S:1:pos:R:3:velocities:R:3:Z:I:1
H         8.45340598       3.41295776      10.52002150         0.00000000       0.00000000       0.00000000          1
H         9.53935021       4.40465683       8.14483064         0.00000000       0.00000000       0.00000000          1
H         7.27288154       5.60479788       9.25254425         0.00000000       0.00000000       0.00000000          1
H         8.23811515       1.93265008       8.16064692         0.00000000       0.00000000       0.00000000          1
H         7.05758703       4.12449230       6.89317797         0.00000000       0.00000000       0.00000000          1
H         5.97164308       3.13278901       9.26836938         0.00000000       0.00000000       0.00000000          1
6
pbc=[F, F, F] list_num_par=6 frozen=false iter=20000 energy=-1.26974174 Lattice="15.00000000 0.00000000 0.00000000 0.00000000 15.00000000 0.00000000 0.00000000 0.00000000 15.00000000" energy_frozen_part=0.00000000 Properties=species:S:1:pos:R:3:velocities:R:3:Z:I:1
H         8.45339929       3.41295423      10.52001892         0.00000000       0.00000000       0.00000000          1
H         9.53934941       4.40465849       8.14483160         0.00000000       0.00000000       0.00000000          1
H         7.27287229       5.60479716       9.25254445         0.00000000       0.00000000       0.00000000          1
H         8.23811515       1.93265273       8.16065063         0.00000000       0.00000000       0.00000000          1
H         7.05758164       4.12448749       6.89317799         0.00000000       0.00000000       0.00000000          1
H         5.97163757       3.13278427       9.26836693         0.00000000       0.00000000       0.00000000          1
6
pbc=[F, F, F] list_num_par=6 frozen=false iter=20000 energy=-1.26974174 Lattice="15.00000000 0.00000000 0.00000000 0.00000000 15.00000000 0.00000000 0.00000000 0.00000000 15.00000000" energy_frozen_part=0.00000000 Properties=species:S:1:pos:R:3:velocities:R:3:Z:I:1
H         8.45266025       3.41070558      10.49390963         0.00000000       0.00000000       0.00000000          1
H         9.50318294       4.43082637       8.11483165         0.00000000       0.00000000       0.00000000          1
H         7.22187670       5.58378704       9.24204608         0.00000000       0.00000000       0.00000000          1
H         8.24946221       1.93438710       8.13096955         0.00000000       0.00000000       0.00000000          1
H         7.01868569       4.10746932       6.87910952         0.00000000       0.00000000       0.00000000          1
H         5.96816133       3.08735047       9.25819438         0.00000000       0.00000000       0.00000000          1
6
pbc=[F, F, F] list_num_par=6 frozen=false iter=20000 energy=-1.26974174 Lattice="15.00000000 0.00000000 0.00000000 0.00000000 15.00000000 0.00000000 0.00000000 0.00000000 15.00000000" energy_frozen_part=0.00000000 Properties=species:S:1:pos:R:3:velocities:R:3:Z:I:1
H         8.45416263       3.41464617      10.51897927         0.00000000       0.00000000       0.00000000          1
H         9.53840650       4.40579716       8.14277966         0.00000000       0.00000000       0.00000000          1
H         7.27190882       5.60532277       9.25111123         0.00000000       0.00000000       0.00000000          1
H         8.23839585       1.93316105       8.16039482         0.00000000       0.00000000       0.00000000          1
H         7.05614337       4.12383273       6.89252549         0.00000000       0.00000000       0.00000000          1
H         5.97189045       3.13268735       9.26872589         0.00000000       0.00000000       0.00000000          1
6
pbc=[F, F, F] list_num_par=6 frozen=false iter=20000 energy=-1.26974174 Lattice="15.00000000 0.00000000 0.00000000 0.00000000 15.00000000 0.00000000 0.00000000 0.00000000 15.00000000" energy_frozen_part=0.00000000 Properties=species:S:1:pos:R:3:velocities:R:3:Z:I:1
H         8.45264325       3.41070485      10.49392914         0.00000000       0.00000000       0.00000000          1
H         9.50320284       4.43081496       8.11486031         0.00000000       0.00000000       0.00000000          1
H         7.22189576       5.58379701       9.24204740         0.00000000       0.00000000       0.00000000          1
H         8.24947665       1.93438243       8.13099668         0.00000000       0.00000000       0.00000000          1
H         7.01871991       4.10747337       6.87911124         0.00000000       0.00000000       0.00000000          1
H         5.96816287       3.08736467       9.25818168         0.00000000       0.00000000       0.00000000          1
6
pbc=[F, F, F] list_num_par=6 frozen=false iter=20000 energy=-1.26974174 Lattice="15.00000000 0.00000000 0.00000000 0.00000000 15.00000000 0.00000000 0.00000000 0.00000000 15.00000000" energy_frozen_part=0.00000000 Properties=species:S:1:pos:R:3:velocities:R:3:Z:I:1
H         8.45415278       3.41463666      10.51898735         0.00000000       0.00000000       0.00000000          1
H         9.53841230       4.40579026       8.14279991         0.00000000       0.00000000       0.00000000          1
H         7.27191340       5.60532309       9.25110861         0.00000000       0.00000000       0.00000000          1
H         8.23839558       1.93315128       8.16039908         0.00000000       0.00000000       0.00000000          1
H         7.05615504       4.12383393       6.89252138         0.00000000       0.00000000       0.00000000          1
H         5.97189456       3.13268842       9.26871489         0.00000000       0.00000000       0.00000000          1
6
pbc=[F, F, F] list_num_par=6 frozen=false iter=20000 energy=-1.26974174 Lattice="15.00000000 0.00000000 0.00000000 0.00000000 15.00000000 0.00000000 0.00000000 0.00000000 15.00000000" energy_frozen_part=0.00000000 Properties=species:S:1:pos:R:3:velocities:R:3:Z:I:1
H         8.45335103       3.41303449      10.52000622         0.00000000       0.00000000       0.00000000          1
H         9.53932445       4.40462583       8.14478334         0.00000000       0.00000000       0.00000000          1
H         7.27286675       5.60485317       9.25244701         0.00000000       0.00000000       0.00000000          1
H         8.23802965       1.93264984       8.16069288         0.00000000       0.00000000       0.00000000          1
H         7.05755656       4.12446187       6.89313393         0.00000000       0.00000000       0.00000000          1
H         5.97157738       3.13287754       9.26836093         0.00000000       0.00000000       0.00000000          1
6
pbc=[F, F, F] list_num_par=6 frozen=false iter=20000 energy=-1.26974174 Lattice="15.00000000 0.00000000 0.00000000 0.00000000 15.00000000 0.00000000 0.00000000 0.00000000 15.00000000" energy_frozen_part=0.00000000 Properties=species:S:1:pos:R:3:velocities:R:3:Z:I:1
H         8.45407692       3.41470871      10.51902235         0.00000000       0.00000000       0.00000000          1
H         9.53833484       4.40584694       8.14283139         0.00000000       0.00000000       0.00000000          1
H         7.27183204       5.60538112       9.25113597         0.00000000       0.00000000       0.00000000          1
H         8.23832929       1.93320571       8.16044334         0.00000000       0.00000000       0.00000000          1
H         7.05608304       4.12387926       6.89255534         0.00000000       0.00000000       0.00000000          1
H         5.97182384       3.13273691       9.26874908         0.00000000       0.00000000       0.00000000          1
6
pbc=[F, F, F] list_num_par=6 frozen=false iter=20000 energy=-1.26974174 Lattice="15.00000000 0.00000000 0.00000000 0.00000000 15.00000000 0.00000000 0.00000000 0.00000000 15.00000000" energy_frozen_part=0.00000000 Properties=species:S:1:pos:R:3:velocities:R:3:Z:I:1
H         8.45409520       3.41470828      10.51902812         0.00000000       0.00000000       0.00000000          1
H         9.53835356       4.40586210       8.14284582         0.00000000       0.00000000       0.00000000          1
H         7.27183426       5.60537375       9.25114461         0.00000000       0.00000000       0.00000000          1
H         8.23835907       1.93321211       8.16044539         0.00000000       0.00000000       0.00000000          1
H         7.05610632       4.12387733       6.89256182         0.00000000       0.00000000       0.00000000          1
H         5.97184224       3.13272821       9.26874929         0.00000000       0.00000000       0.00000000          1
6
pbc=[F, F, F] list_num_par=6 frozen=false iter=20000 energy=-1.26974174 Lattice="15.00000000 0.00000000 0.00000000 0.00000000 15.00000000 0.00000000 0.00000000 0.00000000 15.00000000" energy_frozen_part=0.00000000 Properties=species:S:1:pos:R:3:velocities:R:3:Z:I:1
H         8.45305795       3.41274043      10.52005780         0.00000000       0.00000000       0.00000000          1
H         9.53926507       4.40412300       8.14485415         0.00000000       0.00000000       0.00000000          1
H         7.27294668       5.60470519       9.25240819         0.00000000       0.00000000       0.00000000          1
H         8.23761298       1.93233537       8.16076296         0.00000000       0.00000000       0.00000000          1
H         7.05751191       4.12429807       6.89311680         0.00000000       0.00000000       0.00000000          1
H         5.97129304       3.13291880       9.26831983         0.00000000       0.00000000       0.00000000          1
6
pbc=[F, F, F] list_num_par=6 frozen=false iter=20000 energy=-1.26974174 Lattice="15.00000000 0.00000000 0.00000000 0.00000000 15.00000000 0.00000000 0.00000000 0.00000000 15.00000000" energy_frozen_part=0.00000000 Properties=species:S:1:pos:R:3:velocities:R:3:Z:I:1
H         8.45304430       3.41275595      10.52005964         0.00000000       0.00000000       0.00000000          1
H         9.53927041       4.40415246       8.14487180         0.00000000       0.00000000       0.00000000          1
H         7.27292368       5.60471193       9.25241679         0.00000000       0.00000000       0.00000000          1
H         8.23763848       1.93235511       8.16076342         0.00000000       0.00000000       0.00000000          1
H         7.05752296       4.12431190       6.89311193         0.00000000       0.00000000       0.00000000          1
H         5.97129814       3.13291309       9.26830329         0.00000000       0.00000000       0.00000000          1
6
pbc=[F, F, F] list_num_par=6 frozen=false iter=20000 energy=-1.26974174 Lattice="15.00000000 0.00000000 0.00000000 0.00000000 15.00000000 0.00000000 0.00000000 0.00000000 15.00000000" energy_frozen_part=0.00000000 Properties=species:S:1:pos:R:3:velocities:R:3:Z:I:1
H         8.45411694       3.41470895      10.51901873         0.00000000       0.00000000       0.00000000          1
H         9.53842219       4.40581241       8.14282744         0.00000000       0.00000000       0.00000000          1
H         7.27188352       5.60534290       9.25105692         0.00000000       0.00000000       0.00000000          1
H         8.23842972       1.93316072       8.16046002         0.00000000       0.00000000       0.00000000          1
H         7.05619452       4.12379659       6.89250501         0.00000000       0.00000000       0.00000000          1
H         5.97188931       3.13269336       9.26869919         0.00000000       0.00000000       0.00000000          1
6
pbc=[F, F, F] list_num_par=6 frozen=false iter=20000 energy=-1.26974174 Lattice="15.00000000 0.00000000 0.00000000 0.00000000 15.00000000 0.00000000 0.00000000 0.00000000 15.00000000" energy_frozen_part=0.00000000 Properties=species:S:1:pos:R:3:velocities:R:3:Z:I:1
H         8.45415925       3.41464363      10.51898829         0.00000000       0.00000000       0.00000000          1
H         9.53841041       4.40578892       8.14278725         0.00000000       0.00000000       0.00000000          1
H         7.27191055       5.60532279       9.25110542         0.00000000       0.00000000       0.00000000          1
H         8.23839369       1.93315307       8.16040266         0.00000000       0.00000000       0.00000000          1
H         7.05614475       4.12382917       6.89252627         0.00000000       0.00000000       0.00000000          1
H         5.97189898       3.13268546       9.26872332         0.00000000       0.00000000       0.00000000          1
6
pbc=[F, F, F] list_num_par=6 frozen=false iter=20000 energy=-1.26974174 Lattice="15.00000000 0.00000000 0.00000000 0.00000000 15.00000000 0.00000000 0.00000000 0.00000000 15.00000000" energy_frozen_part=0.00000000 Properties=species:S:1:pos:R:3:velocities:R:3:Z:I:1
H         8.45415154       3.41462273      10.51898032         0.00000000       0.00000000       0.00000000          1
H         9.53841454       4.40576624       8.14278609         0.00000000       0.00000000       0.00000000          1
H         7.27191882       5.60530865       9.25110400         0.00000000       0.00000000       0.00000000          1
H         8.23838828       1.93314114       8.16039388         0.00000000       0.00000000       0.00000000          1
H         7.05615307       4.12382152       6.89251395         0.00000000       0.00000000       0.00000000          1
H         5.97189170       3.13267712       9.26870614         0.00000000       0.00000000       0.00000000          1
6
pbc=[F, F, F] list_num_par=6 frozen=false iter=20000 energy=-1.26974174 Lattice="15.00000000 0.00000000 0.00000000 0.00000000 15.00000000 0.00000000 0.00000000 0.00000000 15.00000000" energy_frozen_part=0.00000000 Properties=species:S:1:pos:R:3:velocities:R:3:Z:I:1
H         8.45304904       3.41274374      10.52005975         0.00000000       0.00000000       0.00000000          1
H         9.53927201       4.40414050       8.14486665         0.00000000       0.00000000       0.00000000          1
H         7.27293782       5.60470607       9.25240548         0.00000000       0.00000000       0.00000000          1
H         8.23763386       1.93234451       8.16076572         0.00000000       0.00000000       0.00000000          1
H         7.05752198       4.12429484       6.89310931         0.00000000       0.00000000       0.00000000          1
H         5.97129710       3.13291294       9.26830208         0.00000000       0.00000000       0.00000000          1
6
pbc=[F, F, F] list_num_par=6 frozen=false iter=20000 energy=-1.26974174 Lattice="15.00000000 0.00000000 0.00000000 0.00000000 15.00000000 0.00000000 0.00000000 0.00000000 15.00000000" energy_frozen_part=0.00000000 Properties=species:S:1:pos:R:3:velocities:R:3:Z:I:1
H         8.45264941       3.41070050      10.49389877         0.00000000       0.00000000       0.00000000          1
H         9.50319508       4.43074841       8.11479312         0.00000000       0.00000000       0.00000000          1
H         7.22191257       5.58377855       9.24198358         0.00000000       0.00000000       0.00000000          1
H         8.24943227       1.93433119       8.13098823         0.00000000       0.00000000       0.00000000          1
H         7.01869676       4.10740639       6.87907473         0.00000000       0.00000000       0.00000000          1
H         5.96814834       3.08736063       9.25817628         0.00000000       0.00000000       0.00000000          1
6
pbc=[F, F, F] list_num_par=6 frozen=false iter=20000 energy=-1.26974174 Lattice="15.00000000 0.00000000 0.00000000 0.00000000 15.00000000 0.00000000 0.00000000 0.00000000 15.00000000" energy_frozen_part=0.00000000 Properties=species:S:1:pos:R:3:velocities:R:3:Z:I:1
H         8.45415947       3.41463018      10.51897357         0.00000000       0.00000000       0.00000000          1
H         9.53840660       4.40579237       8.14277615         0.00000000       0.00000000       0.00000000          1
H         7.27191022       5.60532411       9.25112514         0.00000000       0.00000000       0.00000000          1
H         8.23837833       1.93316342       8.16037252         0.00000000       0.00000000       0.00000000          1
H         7.05612926       4.12385657       6.89253151         0.00000000       0.00000000       0.00000000          1
H         5.97188685       3.13269127       9.26872414         0.00000000       0.00000000       0.00000000          1
6
pbc=[F, F, F] list_num_par=6 frozen=false iter=20000 energy=-1.26974174 Lattice="15.00000000 0.00000000 0.00000000 0.00000000 15.00000000 0.00000000 0.00000000 0.00000000 15.00000000" energy_frozen_part=0.00000000 Properties=species:S:1:pos:R:3:velocities:R:3:Z:I:1
H         8.45304693       3.41279255      10.52006771         0.00000000       0.00000000       0.00000000          1
H         9.53926938       4.40415028       8.14485659         0.00000000       0.00000000       0.00000000          1
H         7.27293527       5.60473483       9.25238233         0.00000000       0.00000000       0.00000000          1
H         8.23763074       1.93236190       8.16078156         0.00000000       0.00000000       0.00000000          1
H         7.05751643       4.12430564       6.89310439         0.00000000       0.00000000       0.00000000          1
H         5.97129638       3.13294460       9.26831463         0.00000000       0.00000000       0.00000000          1
6
pbc=[F, F, F] list_num_par=6 frozen=false iter=20000 energy=-1.26974174 Lattice="15.00000000 0.00000000 0.00000000 0.00000000 15.00000000 0.00000000 0.00000000 0.00000000 15.00000000" energy_frozen_part=0.00000000 Properties=species:S:1:pos:R:3:velocities:R:3:Z:I:1
H         8.45308450       3.41278962      10.52010642         0.00000000       0.00000000       0.00000000          1
H         9.53927964       4.40412296       8.14487622         0.00000000       0.00000000       0.00000000          1
H         7.27296665       5.60472071       9.25241889         0.00000000       0.00000000       0.00000000          1
H         8.23763055       1.93233811       8.16083961         0.00000000       0.00000000       0.00000000          1
H         7.05750826       4.12427247       6.89315464         0.00000000       0.00000000       0.00000000          1
H         5.97131528       3.13293913       9.26838574         0.00000000       0.00000000       0.00000000          1
6
pbc=[F, F, F] list_num_par=6 frozen=false iter=20000 energy=-1.26974174 Lattice="15.00000000 0.00000000 0.00000000 0.00000000 15.00000000 0.00000000 0.00000000 0.00000000 15.00000000" energy_frozen_part=0.00000000 Properties=species:S:1:pos:R:3:velocities:R:3:Z:I:1
H         8.45333102       3.41301526      10.52000198         0.00000000       0.00000000       0.00000000          1
H         9.53932714       4.40460137       8.14478170         0.00000000       0.00000000       0.00000000          1
H         7.27287226       5.60482954       9.25242777         0.00000000       0.00000000       0.00000000          1
H         8.23804067       1.93262323       8.16068283         0.00000000       0.00000000       0.00000000          1
H         7.05757294       4.12443440       6.89311274         0.00000000       0.00000000       0.00000000          1
H         5.97157504       3.13285525       9.26832720         0.00000000       0.00000000       0.00000000          1
6
pbc=[F, F, F] list_num_par=6 frozen=false iter=20000 energy=-1.26974174 Lattice="15.00000000 0.00000000 0.00000000 0.00000000 15.00000000 0.00000000 0.00000000 0.00000000 15.00000000" energy_frozen_part=0.00000000 Properties=species:S:1:pos:R:3:velocities:R:3:Z:I:1
H         8.45258214       3.41074848      10.49370765         0.00000000       0.00000000       0.00000000          1
H         9.50324430       4.43106437       8.11476404         0.00000000       0.00000000       0.00000000          1
H         7.22186896       5.58392416       9.24193931         0.00000000       0.00000000       0.00000000          1
H         8.24954398       1.93461800       8.13063918         0.00000000       0.00000000       0.00000000          1
H         7.01882426       4.10779240       6.87887159         0.00000000       0.00000000       0.00000000          1
H         5.96816048       3.08747032       9.25780943         0.00000000       0.00000000       0.00000000          1
6
pbc=[F, F, F] list_num_par=6 frozen=false iter=20000 energy=-1.26974174 Lattice="15.00000000 0.00000000 0.00000000 0.00000000 15.00000000 0.00000000 0.00000000 0.00000000 15.00000000" energy_frozen_part=0.00000000 Properties=species:S:1:pos:R:3:velocities:R:3:Z:I:1
H         8.45336183       3.41307290      10.52008556         0.00000000       0.00000000       0.00000000          1
H         9.53928552       4.40469876       8.14485134         0.00000000       0.00000000       0.00000000          1
H         7.27276325       5.60481281       9.25250976         0.00000000       0.00000000       0.00000000          1
H         8.23812868       1.93265045       8.16077929         0.00000000       0.00000000       0.00000000          1
H         7.05753620       4.12439238       6.89320620         0.00000000       0.00000000       0.00000000          1
H         5.97161273       3.13276940       9.26843844         0.00000000       0.00000000       0.00000000          1
6
pbc=[F, F, F] list_num_par=6 frozen=false iter=20000 energy=-1.26974174 Lattice="15.00000000 0.00000000 0.00000000 0.00000000 15.00000000 0.00000000 0.00000000 0.00000000 15.00000000" energy_frozen_part=0.00000000 Properties=species:S:1:pos:R:3:velocities:R:3:Z:I:1
H         8.45307260       3.41279417      10.52011496         0.00000000       0.00000000       0.00000000          1
H         9.53927125       4.40413377       8.14489052         0.00000000       0.00000000       0.00000000          1
H         7.27295650       5.60473367       9.25243185         0.00000000       0.00000000       0.00000000          1
H         8.23762512       1.93234733       8.16084985         0.00000000       0.00000000       0.00000000          1
H         7.05751377       4.12428709       6.89316563         0.00000000       0.00000000       0.00000000          1
H         5.97130816       3.13294494       9.26838514         0.00000000       0.00000000       0.00000000          1
6
pbc=[F, F, F] list_num_par=6 frozen=false iter=20000 energy=-1.26974174 Lattice="15.00000000 0.00000000 0.00000000 0.00000000 15.00000000 0.00000000 0.00000000 0.00000000 15.00000000" energy_frozen_part=0.00000000 Properties=species:S:1:pos:R:3:velocities:R:3:Z:I:1
H         8.45410440       3.41471490      10.51903825         0.00000000       0.00000000       0.00000000          1
H         9.53843851       4.40580378       8.14285163         0.00000000       0.00000000       0.00000000          1
H         7.27188953       5.60535205       9.25105569         0.00000000       0.00000000       0.00000000          1
H         8.23844082       1.93315531       8.16048230         0.00000000       0.00000000       0.00000000          1
H         7.05621974       4.12379456       6.89250795         0.00000000       0.00000000       0.00000000          1
H         5.97189051       3.13270211       9.26869098         0.00000000       0.00000000       0.00000000          1
6
pbc=[F, F, F] list_num_par=6 frozen=false iter=20000 energy=-1.26974174 Lattice="15.00000000 0.00000000 0.00000000 0.00000000 15.00000000 0.00000000 0.00000000 0.00000000 15.00000000" energy_frozen_part=0.00000000 Properties=species:S:1:pos:R:3:velocities:R:3:Z:I:1
H         8.45269348       3.41067106      10.49388495         0.00000000       0.00000000       0.00000000          1
H         9.50318702       4.43072061       8.11476171         0.00000000       0.00000000       0.00000000          1
H         7.22193899       5.58376455       9.24201578         0.00000000       0.00000000       0.00000000          1
H         8.24940113       1.93431148       8.13098354         0.00000000       0.00000000       0.00000000          1
H         7.01865376       4.10740481       6.87910629         0.00000000       0.00000000       0.00000000          1
H         5.96815622       3.08736001       9.25822931         0.00000000       0.00000000       0.00000000          1
6
pbc=[F, F, F] list_num_par=6 frozen=false iter=20000 energy=-1.26974174 Lattice="15.00000000 0.00000000 0.00000000 0.00000000 15.00000000 0.00000000 0.00000000 0.00000000 15.00000000" energy_frozen_part=0.00000000 Properties=species:S:1:pos:R:3:velocities:R:3:Z:I:1
H         8.45268700       3.41071707      10.49388077         0.00000000       0.00000000       0.00000000          1
H         9.50319605       4.43079851       8.11477669         0.00000000       0.00000000       0.00000000          1
H         7.22191799       5.58380601       9.24200744         0.00000000       0.00000000       0.00000000          1
H         8.24943881       1.93437228       8.13096581         0.00000000       0.00000000       0.00000000          1
H         7.01868130       4.10746509       6.87909075         0.00000000       0.00000000       0.00000000          1
H         5.96816791       3.08737871       9.25819608         0.00000000       0.00000000       0.00000000          1
6
pbc=[F, F, F] list_num_par=6 frozen=false iter=20000 energy=-1.26974174 Lattice="15.00000000 0.00000000 0.00000000 0.00000000 15.00000000 0.00000000 0.00000000 0.00000000 15.00000000" energy_frozen_part=0.00000000 Properties=species:S:1:pos:R:3:velocities:R:3:Z:I:1
H         8.45264342       3.41068321      10.49390393         0.00000000       0.00000000       0.00000000          1
H         9.50319474       4.43073550       8.11480091         0.00000000       0.00000000       0.00000000          1
H         7.22191494       5.58376440       9.24198700         0.00000000       0.00000000       0.00000000          1
H         8.24942418       1.93432053       8.13099537         0.00000000       0.00000000       0.00000000          1
H         7.01869197       4.10739983       6.87908363         0.00000000       0.00000000       0.00000000          1
H         5.96814545       3.08735275       9.25819128         0.00000000       0.00000000       0.00000000          1
6
pbc=[F, F, F] list_num_par=6 frozen=false iter=20000 energy=-1.26974174 Lattice="15.00000000 0.00000000 0.00000000 0.00000000 15.00000000 0.00000000 0.00000000 0.00000000 15.00000000" energy_frozen_part=0.00000000 Properties=species:S:1:pos:R:3:velocities:R:3:Z:I:1
H         8.45307857       3.41279100      10.52010839         0.00000000       0.00000000       0.00000000          1
H         9.53928683       4.40413270       8.14488429         0.00000000       0.00000000       0.00000000          1
H         7.27296646       5.60473521       9.25242967         0.00000000       0.00000000       0.00000000          1
H         8.23762848       1.93234220       8.16084433         0.00000000       0.00000000       0.00000000          1
H         7.05752164       4.12428376       6.89315930         0.00000000       0.00000000       0.00000000          1
H         5.97131380       3.13294765       9.26838634         0.00000000       0.00000000       0.00000000          1
6
pbc=[F, F, F] list_num_par=6 frozen=false iter=20000 energy=-1.26974174 Lattice="15.00000000 0.00000000 0.00000000 0.00000000 15.00000000 0.00000000 0.00000000 0.00000000 15.00000000" energy_frozen_part=0.00000000 Properties=species:S:1:pos:R:3:velocities:R:3:Z:I:1
H         8.45268166       3.41067576      10.49389021         0.00000000       0.00000000       0.00000000          1
H         9.50318634       4.43072874       8.11476888         0.00000000       0.00000000       0.00000000          1
H         7.22193051       5.58376744       9.24201105         0.00000000       0.00000000       0.00000000          1
H         8.24940341       1.93431506       8.13098441         0.00000000       0.00000000       0.00000000          1
H         7.01865942       4.10740850       6.87910256         0.00000000       0.00000000       0.00000000          1
H         5.96815359       3.08735949       9.25823108         0.00000000       0.00000000       0.00000000          1
6
pbc=[F, F, F] list_num_par=6 frozen=false iter=20000 energy=-1.26974174 Lattice="15.00000000 0.00000000 0.00000000 0.00000000 15.00000000 0.00000000 0.00000000 0.00000000 15.00000000" energy_frozen_part=0.00000000 Properties=species:S:1:pos:R:3:velocities:R:3:Z:I:1
H         8.45412353       3.41470117      10.51901139         0.00000000       0.00000000       0.00000000          1
H         9.53836879       4.40583667       8.14280908         0.00000000       0.00000000       0.00000000          1
H         7.27187211       5.60537300       9.25113433         0.00000000       0.00000000       0.00000000          1
H         8.23835805       1.93319556       8.16044227         0.00000000       0.00000000       0.00000000          1
H         7.05610581       4.12386847       6.89256112         0.00000000       0.00000000       0.00000000          1
H         5.97185417       3.13273560       9.26875739         0.00000000       0.00000000       0.00000000          1
6
pbc=[F, F, F] list_num_par=6 frozen=false iter=20000 energy=-1.26974174 Lattice="15.00000000 0.00000000 0.00000000 0.00000000 15.00000000 0.00000000 0.00000000 0.00000000 15.00000000" energy_frozen_part=0.00000000 Properties=species:S:1:pos:R:3:velocities:R:3:Z:I:1
H         8.45411818       3.41472374      10.51901191         0.00000000       0.00000000       0.00000000          1
H         9.53834306       4.40583745       8.14279035         0.00000000       0.00000000       0.00000000          1
H         7.27185013       5.60538259       9.25111366         0.00000000       0.00000000       0.00000000          1
H         8.23833149       1.93320199       8.16045211         0.00000000       0.00000000       0.00000000          1
H         7.05606704       4.12385168       6.89255541         0.00000000       0.00000000       0.00000000          1
H         5.97184335       3.13274541       9.26877921         0.00000000       0.00000000       0.00000000          1
6
pbc=[F, F, F] list_num_par=6 frozen=false iter=20000 energy=-1.26974174 Lattice="15.00000000 0.00000000 0.00000000 0.00000000 15.00000000 0.00000000 0.00000000 0.00000000 15.00000000" energy_frozen_part=0.00000000 Properties=species:S:1:pos:R:3:velocities:R:3:Z:I:1
H         8.45408149       3.41470791      10.51902457         0.00000000       0.00000000       0.00000000          1
H         9.53836276       4.40585087       8.14284315         0.00000000       0.00000000       0.00000000          1
H         7.27184368       5.60538047       9.25113143         0.00000000       0.00000000       0.00000000          1
H         8.23835353       1.93321168       8.16044896         0.00000000       0.00000000       0.00000000          1
H         7.05611350       4.12388254       6.89255389         0.00000000       0.00000000       0.00000000          1
H         5.97183116       3.13274079       9.26874265         0.00000000       0.00000000       0.00000000          1
6
pbc=[F, F, F] list_num_par=6 frozen=false iter=20000 energy=-1.26974174 Lattice="15.00000000 0.00000000 0.00000000 0.00000000 15.00000000 0.00000000 0.00000000 0.00000000 15.00000000" energy_frozen_part=0.00000000 Properties=species:S:1:pos:R:3:velocities:R:3:Z:I:1
H         8.45307995       3.41279613      10.52008394         0.00000000       0.00000000       0.00000000          1
H         9.53927900       4.40414046       8.14485868         0.00000000       0.00000000       0.00000000          1
H         7.27294106       5.60472000       9.25239615         0.00000000       0.00000000       0.00000000          1
H         8.23765254       1.93234047       8.16082075         0.00000000       0.00000000       0.00000000          1
H         7.05752077       4.12426225       6.89313595         0.00000000       0.00000000       0.00000000          1
H         5.97131804       3.13291322       9.26835767         0.00000000       0.00000000       0.00000000          1
6
pbc=[F, F, F] list_num_par=6 frozen=false iter=20000 energy=-1.26974174 Lattice="15.00000000 0.00000000 0.00000000 0.00000000 15.00000000 0.00000000 0.00000000 0.00000000 15.00000000" energy_frozen_part=0.00000000 Properties=species:S:1:pos:R:3:velocities:R:3:Z:I:1
H         8.45333275       3.41309305      10.52011262         0.00000000       0.00000000       0.00000000          1
H         9.53925954       4.40469283       8.14486758         0.00000000       0.00000000       0.00000000          1
H         7.27271303       5.60478735       9.25248824         0.00000000       0.00000000       0.00000000          1
H         8.23814271       1.93262615       8.16083020         0.00000000       0.00000000       0.00000000          1
H         7.05752746       4.12432819       6.89320460         0.00000000       0.00000000       0.00000000          1
H         5.97159665       3.13272097       9.26844122         0.00000000       0.00000000       0.00000000          1
6
pbc=[F, F, F] list_num_par=6 frozen=false iter=20000 energy=-1.26974174 Lattice="15.00000000 0.00000000 0.00000000 0.00000000 15.00000000 0.00000000 0.00000000 0.00000000 15.00000000" energy_frozen_part=0.00000000 Properties=species:S:1:pos:R:3:velocities:R:3:Z:I:1
H         8.45343356       3.41300470      10.51997048         0.00000000       0.00000000       0.00000000          1
H         9.53932548       4.40463746       8.14472720         0.00000000       0.00000000       0.00000000          1
H         7.27289076       5.60482462       9.25247740         0.00000000       0.00000000       0.00000000          1
H         8.23806964       1.93264364       8.16063776         0.00000000       0.00000000       0.00000000          1
H         7.05752771       4.12446255       6.89314481         0.00000000       0.00000000       0.00000000          1
H         5.97163531       3.13282912       9.26839627         0.00000000       0.00000000       0.00000000          1
6
pbc=[F, F, F] list_num_par=6 frozen=false iter=20000 energy=-1.26974174 Lattice="15.00000000 0.00000000 0.00000000 0.00000000 15.00000000 0.00000000 0.00000000 0.00000000 15.00000000" energy_frozen_part=0.00000000 Properties=species:S:1:pos:R:3:velocities:R:3:Z:I:1
H         8.45264798       3.41071264      10.49393872         0.00000000       0.00000000       0.00000000          1
H         9.50319705       4.43082126       8.11486407         0.00000000       0.00000000       0.00000000          1
H         7.22188548       5.58379727       9.24204623         0.00000000       0.00000000       0.00000000          1
H         8.24946911       1.93438361       8.13100301         0.00000000       0.00000000       0.00000000          1
H         7.01871472       4.10746953       6.87911424         0.00000000       0.00000000       0.00000000          1
H         5.96815827       3.08736358       9.25818788         0.00000000       0.00000000       0.00000000          1
6
pbc=[F, F, F] list_num_par=6 frozen=false iter=20000 energy=-1.26974174 Lattice="15.00000000 0.00000000 0.00000000 0.00000000 15.00000000 0.00000000 0.00000000 0.00000000 15.00000000" energy_frozen_part=0.00000000 Properties=species:S:1:pos:R:3:velocities:R:3:Z:I:1
H         8.45261037       3.41071554      10.49393419         0.00000000       0.00000000       0.00000000          1
H         9.50319043       4.43080358       8.11486065         0.00000000       0.00000000       0.00000000          1
H         7.22187316       5.58379381       9.24202133         0.00000000       0.00000000       0.00000000          1
H         8.24945784       1.93437213       8.13100882         0.00000000       0.00000000       0.00000000          1
H         7.01871911       4.10744724       6.87908916         0.00000000       0.00000000       0.00000000          1
H         5.96813811       3.08735929       9.25816831         0.00000000       0.00000000       0.00000000          1
6
pbc=[F, F, F] list_num_par=6 frozen=false iter=20000 energy=-1.26974174 Lattice="15.00000000 0.00000000 0.00000000 0.00000000 15.00000000 0.00000000 0.00000000 0.00000000 15.00000000" energy_frozen_part=0.00000000 Properties=species:S:1:pos:R:3:velocities:R:3:Z:I:1
H         8.45332881       3.41306657      10.52012332         0.00000000       0.00000000       0.00000000          1
H         9.53927008       4.40472110       8.14490768         0.00000000       0.00000000       0.00000000          1
H         7.27272297       5.60480435       9.25254798         0.00000000       0.00000000       0.00000000          1
H         8.23813854       1.93265677       8.16080916         0.00000000       0.00000000       0.00000000          1
H         7.05752683       4.12439294       6.89323730         0.00000000       0.00000000       0.00000000          1
H         5.97159306       3.13273782       9.26845665         0.00000000       0.00000000       0.00000000          1
6
pbc=[F, F, F] list_num_par=6 frozen=false iter=20000 energy=-1.26974174 Lattice="15.00000000 0.00000000 0.00000000 0.00000000 15.00000000 0.00000000 0.00000000 0.00000000 15.00000000" energy_frozen_part=0.00000000 Properties=species:S:1:pos:R:3:velocities:R:3:Z:I:1
H         8.45264562       3.41070751      10.49392055         0.00000000       0.00000000       0.00000000          1
H         9.50319790       4.43080021       8.11483294         0.00000000       0.00000000       0.00000000          1
H         7.22188786       5.58378478       9.24202426         0.00000000       0.00000000       0.00000000          1
H         8.24946573       1.93436759       8.13099477         0.00000000       0.00000000       0.00000000          1
H         7.01870751       4.10745032       6.87909615         0.00000000       0.00000000       0.00000000          1
H         5.96816105       3.08735413       9.25818295         0.00000000       0.00000000       0.00000000          1
6
pbc=[F, F, F] list_num_par=6 frozen=false iter=20000 energy=-1.26974174 Lattice="15.00000000 0.00000000 0.00000000 0.00000000 15.00000000 0.00000000 0.00000000 0.00000000 15.00000000" energy_frozen_part=0.00000000 Properties=species:S:1:pos:R:3:velocities:R:3:Z:I:1
H         8.45265614       3.41069265      10.49388487         0.00000000       0.00000000       0.00000000          1
H         9.50319971       4.43073296       8.11477467         0.00000000       0.00000000       0.00000000          1
H         7.22192920       5.58377988       9.24197801         0.00000000       0.00000000       0.00000000          1
H         8.24941023       1.93432699       8.13098465         0.00000000       0.00000000       0.00000000          1
H         7.01869238       4.10741413       6.87907149         0.00000000       0.00000000       0.00000000          1
H         5.96814117       3.08737899       9.25817943         0.00000000       0.00000000       0.00000000          1
6
pbc=[F, F, F] list_num_par=6 frozen=false iter=20000 energy=-1.26974174 Lattice="15.00000000 0.00000000 0.00000000 0.00000000 15.00000000 0.00000000 0.00000000 0.00000000 15.00000000" energy_frozen_part=0.00000000 Properties=species:S:1:pos:R:3:velocities:R:3:Z:I:1
H         8.45265180       3.41070435      10.49388963         0.00000000       0.00000000       0.00000000          1
H         9.50318843       4.43075075       8.11478475         0.00000000       0.00000000       0.00000000          1
H         7.22190602       5.58378290       9.24198250         0.00000000       0.00000000       0.00000000          1
H         8.24942462       1.93433200       8.13098975         0.00000000       0.00000000       0.00000000          1
H         7.01868528       4.10740697       6.87907960         0.00000000       0.00000000       0.00000000          1
H         5.96814859       3.08736101       9.25818883         0.00000000       0.00000000       0.00000000          1
6
pbc=[F, F, F] list_num_par=6 frozen=false iter=20000 energy=-1.26974174 Lattice="15.00000000 0.00000000 0.00000000 0.00000000 15.00000000 0.00000000 0.00000000 0.00000000 15.00000000" energy_frozen_part=0.00000000 Properties=species:S:1:pos:R:3:velocities:R:3:Z:I:1
H         8.45415958       3.41466077      10.51895431         0.00000000       0.00000000       0.00000000          1
H         9.53841503       4.40582796       8.14276655         0.00000000       0.00000000       0.00000000          1
H         7.27188815       5.60532275       9.25107964         0.00000000       0.00000000       0.00000000          1
H         8.23844217       1.93317560       8.16036663         0.00000000       0.00000000       0.00000000          1
H         7.05616480       4.12383516       6.89248570         0.00000000       0.00000000       0.00000000          1
H         5.97190845       3.13266963       9.26867149         0.00000000       0.00000000       0.00000000          1
6
pbc=[F, F, F] list_num_par=6 frozen=false iter=20000 energy=-1.26974174 Lattice="15.00000000 0.00000000 0.00000000 0.00000000 15.00000000 0.00000000 0.00000000 0.00000000 15.00000000" energy_frozen_part=0.00000000 Properties=species:S:1:pos:R:3:velocities:R:3:Z:I:1
H         8.45264866       3.41069675      10.49394313         0.00000000       0.00000000       0.00000000          1
H         9.50318803       4.43081322       8.11486615         0.00000000       0.00000000       0.00000000          1
H         7.22188248       5.58378590       9.24207814         0.00000000       0.00000000       0.00000000          1
H         8.24945604       1.93437671       8.13100444         0.00000000       0.00000000       0.00000000          1
H         7.01869053       4.10746765       6.87913576         0.00000000       0.00000000       0.00000000          1
H         5.96815644       3.08734451       9.25821543         0.00000000       0.00000000       0.00000000          1
6
pbc=[F, F, F] list_num_par=6 frozen=false iter=20000 energy=-1.26974174 Lattice="15.00000000 0.00000000 0.00000000 0.00000000 15.00000000 0.00000000 0.00000000 0.00000000 15.00000000" energy_frozen_part=0.00000000 Properties=species:S:1:pos:R:3:velocities:R:3:Z:I:1
H         8.45263859       3.41069521      10.49391215         0.00000000       0.00000000       0.00000000          1
H         9.50318145       4.43080231       8.11482591         0.00000000       0.00000000       0.00000000          1
H         7.22187668       5.58377820       9.24202687         0.00000000       0.00000000       0.00000000          1
H         8.24946095       1.93436585       8.13097918         0.00000000       0.00000000       0.00000000          1
H         7.01869171       4.10745215       6.87909722         0.00000000       0.00000000       0.00000000          1
H         5.96815474       3.08734102       9.25817501         0.00000000       0.00000000       0.00000000          1
6
pbc=[F, F, F] list_num_par=6 frozen=false iter=20000 energy=-1.26974174 Lattice="15.00000000 0.00000000 0.00000000 0.00000000 15.00000000 0.00000000 0.00000000 0.00000000 15.00000000" energy_frozen_part=0.00000000 Properties=species:S:1:pos:R:3:velocities:R:3:Z:I:1
H         8.45333273       3.41308501      10.52011307         0.00000000       0.00000000       0.00000000          1
H         9.53926493       4.40469432       8.14487874         0.00000000       0.00000000       0.00000000          1
H         7.27271591       5.60479201       9.25250037         0.00000000       0.00000000       0.00000000          1
H         8.23813720       1.93263115       8.16082220         0.00000000       0.00000000       0.00000000          1
H         7.05752111       4.12434463       6.89321716         0.00000000       0.00000000       0.00000000          1
H         5.97159168       3.13272687       9.26845130         0.00000000       0.00000000       0.00000000          1
6
pbc=[F, F, F] list_num_par=6 frozen=false iter=20000 energy=-1.26974174 Lattice="15.00000000 0.00000000 0.00000000 0.00000000 15.00000000 0.00000000 0.00000000 0.00000000 15.00000000" energy_frozen_part=0.00000000 Properties=species:S:1:pos:R:3:velocities:R:3:Z:I:1
H         8.45415835       3.41469183      10.51898334         0.00000000       0.00000000       0.00000000          1
H         9.53841897       4.40581808       8.14278721         0.00000000       0.00000000       0.00000000          1
H         7.27188087       5.60532746       9.25106073         0.00000000       0.00000000       0.00000000          1
H         8.23844404       1.93316059       8.16042376         0.00000000       0.00000000       0.00000000          1
H         7.05617245       4.12379415       6.89250374         0.00000000       0.00000000       0.00000000          1
H         5.97190836       3.13267022       9.26870942         0.00000000       0.00000000       0.00000000          1
6
pbc=[F, F, F] list_num_par=6 frozen=false iter=20000 energy=-1.26974174 Lattice="15.00000000 0.00000000 0.00000000 0.00000000 15.00000000 0.00000000 0.00000000 0.00000000 15.00000000" energy_frozen_part=0.00000000 Properties=species:S:1:pos:R:3:velocities:R:3:Z:I:1
H         8.45414915       3.41467977      10.51898030         0.00000000       0.00000000       0.00000000          1
H         9.53841626       4.40581534       8.14278737         0.00000000       0.00000000       0.00000000          1
H         7.27188896       5.60533487       9.25106907         0.00000000       0.00000000       0.00000000          1
H         8.23843499       1.93316028       8.16041318         0.00000000       0.00000000       0.00000000          1
H         7.05617931       4.12381347       6.89249722         0.00000000       0.00000000       0.00000000          1
H         5.97190718       3.13267724       9.26868834         0.00000000       0.00000000       0.00000000          1
6
pbc=[F, F, F] list_num_par=6 frozen=false iter=20000 energy=-1.26974174 Lattice="15.00000000 0.00000000 0.00000000 0.00000000 15.00000000 0.00000000 0.00000000 0.00000000 15.00000000" energy_frozen_part=0.00000000 Properties=species:S:1:pos:R:3:velocities:R:3:Z:I:1
H         8.45266618       3.41069763      10.49391710         0.00000000       0.00000000       0.00000000          1
H         9.50317767       4.43083195       8.11483537         0.00000000       0.00000000       0.00000000          1
H         7.22186779       5.58377222       9.24206057         0.00000000       0.00000000       0.00000000          1
H         8.24947884       1.93438190       8.13097474         0.00000000       0.00000000       0.00000000          1
H         7.01868654       4.10746494       6.87910949         0.00000000       0.00000000       0.00000000          1
H         5.96817132       3.08732543       9.25819116         0.00000000       0.00000000       0.00000000          1
6
pbc=[F, F, F] list_num_par=6 frozen=false iter=20000 energy=-1.26974174 Lattice="15.00000000 0.00000000 0.00000000 0.00000000 15.00000000 0.00000000 0.00000000 0.00000000 15.00000000" energy_frozen_part=0.00000000 Properties=species:S:1:pos:R:3:velocities:R:3:Z:I:1
H         8.45414370       3.41463651      10.51898196         0.00000000       0.00000000       0.00000000          1
H         9.53841983       4.40577927       8.14279651         0.00000000       0.00000000       0.00000000          1
H         7.27192154       5.60533119       9.25110319         0.00000000       0.00000000       0.00000000          1
H         8.23838503       1.93314827       8.16039331         0.00000000       0.00000000       0.00000000          1
H         7.05615953       4.12384231       6.89251847         0.00000000       0.00000000       0.00000000          1
H         5.97188721       3.13269936       9.26870890         0.00000000       0.00000000       0.00000000          1
6
pbc=[F, F, F] list_num_par=6 frozen=false iter=20000 energy=-1.26974174 Lattice="15.00000000 0.00000000 0.00000000 0.00000000 15.00000000 0.00000000 0.00000000 0.00000000 15.00000000" energy_frozen_part=0.00000000 Properties=species:S:1:pos:R:3:velocities:R:3:Z:I:1
H         8.45309306       3.41284044      10.52012301         0.00000000       0.00000000       0.00000000          1
H         9.53932239       4.40412964       8.14489152         0.00000000       0.00000000       0.00000000          1
H         7.27300461       5.60476459       9.25240238         0.00000000       0.00000000       0.00000000          1
H         8.23765211       1.93235386       8.16087848         0.00000000       0.00000000       0.00000000          1
H         7.05755976       4.12428609       6.89316078         0.00000000       0.00000000       0.00000000          1
H         5.97133606       3.13298623       9.26838757         0.00000000       0.00000000       0.00000000          1
6
pbc=[F, F, F] list_num_par=6 frozen=false iter=20000 energy=-1.26974174 Lattice="15.00000000 0.00000000 0.00000000 0.00000000 15.00000000 0.00000000 0.00000000 0.00000000 15.00000000" energy_frozen_part=0.00000000 Properties=species:S:1:pos:R:3:velocities:R:3:Z:I:1
H         8.45264369       3.41069125      10.49395040         0.00000000       0.00000000       0.00000000          1
H         9.50318807       4.43080421       8.11487094         0.00000000       0.00000000       0.00000000          1
H         7.22188580       5.58378196       9.24206887         0.00000000       0.00000000       0.00000000          1
H         8.24945958       1.93437267       8.13101339         0.00000000       0.00000000       0.00000000          1
H         7.01869824       4.10746289       6.87912951         0.00000000       0.00000000       0.00000000          1
H         5.96815891       3.08734694       9.25820660         0.00000000       0.00000000       0.00000000          1
6
pbc=[F, F, F] list_num_par=6 frozen=false iter=20000 energy=-1.26974174 Lattice="15.00000000 0.00000000 0.00000000 0.00000000 15.00000000 0.00000000 0.00000000 0.00000000 15.00000000" energy_frozen_part=0.00000000 Properties=species:S:1:pos:R:3:velocities:R:3:Z:I:1
H         8.45415143       3.41461614      10.51897880         0.00000000       0.00000000       0.00000000          1
H         9.53842044       4.40575840       8.14278781         0.00000000       0.00000000       0.00000000          1
H         7.27191836       5.60530306       9.25110419         0.00000000       0.00000000       0.00000000          1
H         8.23839300       1.93313388       8.16039343         0.00000000       0.00000000       0.00000000          1
H         7.05615871       4.12381520       6.89251527         0.00000000       0.00000000       0.00000000          1
H         5.97188950       3.13267652       9.26870582         0.00000000       0.00000000       0.00000000          1
6
pbc=[F, F, F] list_num_par=6 frozen=false iter=20000 energy=-1.26974174 Lattice="15.00000000 0.00000000 0.00000000 0.00000000 15.00000000 0.00000000 0.00000000 0.00000000 15.00000000" energy_frozen_part=0.00000000 Properties=species:S:1:pos:R:3:velocities:R:3:Z:I:1
H         8.45415303       3.41461091      10.51896924         0.00000000       0.00000000       0.00000000          1
H         9.53841843       4.40575147       8.14278284         0.00000000       0.00000000       0.00000000          1
H         7.27192690       5.60530230       9.25110308         0.00000000       0.00000000       0.00000000          1
H         8.23838036       1.93312482       8.16038294         0.00000000       0.00000000       0.00000000          1
H         7.05615518       4.12382256       6.89251403         0.00000000       0.00000000       0.00000000          1
H         5.97189216       3.13267355       9.26870868         0.00000000       0.00000000       0.00000000          1
6
pbc=[F, F, F] list_num_par=6 frozen=false iter=20000 energy=-1.26974174 Lattice="15.00000000 0.00000000 0.00000000 0.00000000 15.00000000 0.00000000 0.00000000 0.00000000 15.00000000" energy_frozen_part=0.00000000 Properties=species:S:1:pos:R:3:velocities:R:3:Z:I:1
H         8.45413671       3.41464149      10.51899046         0.00000000       0.00000000       0.00000000          1
H         9.53841203       4.40576370       8.14279663         0.00000000       0.00000000       0.00000000          1
H         7.27191325       5.60532455       9.25110083         0.00000000       0.00000000       0.00000000          1
H         8.23837642       1.93313424       8.16041508         0.00000000       0.00000000       0.00000000          1
H         7.05615139       4.12382056       6.89253102         0.00000000       0.00000000       0.00000000          1
H         5.97188071       3.13269196       9.26872311         0.00000000       0.00000000       0.00000000          1
6
pbc=[F, F, F] list_num_par=6 frozen=false iter=20000 energy=-1.26974174 Lattice="15.00000000 0.00000000 0.00000000 0.00000000 15.00000000 0.00000000 0.00000000 0.00000000 15.00000000" energy_frozen_part=0.00000000 Properties=species:S:1:pos:R:3:velocities:R:3:Z:I:1
H         8.45332697       3.41303144      10.52001643         0.00000000       0.00000000       0.00000000          1
H         9.53934145       4.40463404       8.14481874         0.00000000       0.00000000       0.00000000          1
H         7.27286426       5.60485706       9.25244913         0.00000000       0.00000000       0.00000000          1
H         8.23805444       1.93265302       8.16069209         0.00000000       0.00000000       0.00000000          1
H         7.05759875       4.12447586       6.89312750         0.00000000       0.00000000       0.00000000          1
H         5.97157921       3.13287252       9.26832678         0.00000000       0.00000000       0.00000000          1
6
pbc=[F, F, F] list_num_par=6 frozen=false iter=20000 energy=-1.26974174 Lattice="15.00000000 0.00000000 0.00000000 0.00000000 15.00000000 0.00000000 0.00000000 0.00000000 15.00000000" energy_frozen_part=0.00000000 Properties=species:S:1:pos:R:3:velocities:R:3:Z:I:1
H         8.45413343       3.41469324      10.51900709         0.00000000       0.00000000       0.00000000          1
H         9.53837748       4.40583704       8.14280969         0.00000000       0.00000000       0.00000000          1
H         7.27187809       5.60536875       9.25113973         0.00000000       0.00000000       0.00000000          1
H         8.23835920       1.93319720       8.16042642         0.00000000       0.00000000       0.00000000          1
H         7.05610446       4.12387228       6.89256223         0.00000000       0.00000000       0.00000000          1
H         5.97186047       3.13272854       9.26876577         0.00000000       0.00000000       0.00000000          1
6
pbc=[F, F, F] list_num_par=6 frozen=false iter=20000 energy=-1.26974174 Lattice="15.00000000 0.00000000 0.00000000 0.00000000 15.00000000 0.00000000 0.00000000 0.00000000 15.00000000" energy_frozen_part=0.00000000 Properties=species:S:1:pos:R:3:velocities:R:3:Z:I:1
H         8.45411440       3.41470029      10.51901538         0.00000000       0.00000000       0.00000000          1
H         9.53844162       4.40579708       8.14283325         0.00000000       0.00000000       0.00000000          1
H         7.27189070       5.60534232       9.25105587         0.00000000       0.00000000       0.00000000          1
H         8.23844340       1.93315429       8.16046246         0.00000000       0.00000000       0.00000000          1
H         7.05621908       4.12379210       6.89250170         0.00000000       0.00000000       0.00000000          1
H         5.97189624       3.13269043       9.26868487         0.00000000       0.00000000       0.00000000          1
6
pbc=[F, F, F] list_num_par=6 frozen=false iter=20000 energy=-1.26974174 Lattice="15.00000000 0.00000000 0.00000000 0.00000000 15.00000000 0.00000000 0.00000000 0.00000000 15.00000000" energy_frozen_part=0.00000000 Properties=species:S:1:pos:R:3:velocities:R:3:Z:I:1
H         8.45334159       3.41302188      10.52000605         0.00000000       0.00000000       0.00000000          1
H         9.53933249       4.40460221       8.14478068         0.00000000       0.00000000       0.00000000          1
H         7.27287570       5.60483598       9.25243782         0.00000000       0.00000000       0.00000000          1
H         8.23804163       1.93262852       8.16068864         0.00000000       0.00000000       0.00000000          1
H         7.05757041       4.12444076       6.89312462         0.00000000       0.00000000       0.00000000          1
H         5.97158381       3.13285586       9.26833920         0.00000000       0.00000000       0.00000000          1
6
pbc=[F, F, F] list_num_par=6 frozen=false iter=20000 energy=-1.26974174 Lattice="15.00000000 0.00000000 0.00000000 0.00000000 15.00000000 0.00000000 0.00000000 0.00000000 15.00000000" energy_frozen_part=0.00000000 Properties=species:S:1:pos:R:3:velocities:R:3:Z:I:1
H         8.45268937       3.41066952      10.49388717         0.00000000       0.00000000       0.00000000          1
H         9.50318206       4.43072781       8.11476849         0.00000000       0.00000000       0.00000000          1
H         7.22193174       5.58375719       9.24201728         0.00000000       0.00000000       0.00000000          1
H         8.24940670       1.93431388       8.13097614         0.00000000       0.00000000       0.00000000          1
H         7.01864970       4.10741102       6.87910706         0.00000000       0.00000000       0.00000000          1
H         5.96815665       3.08734519       9.25822821         0.00000000       0.00000000       0.00000000          1
6
pbc=[F, F, F] list_num_par=6 frozen=false iter=20000 energy=-1.26974174 Lattice="15.00000000 0.00000000 0.00000000 0.00000000 15.00000000 0.00000000 0.00000000 0.00000000 15.00000000" energy_frozen_part=0.00000000 Properties=species:S:1:pos:R:3:velocities:R:3:Z:I:1
H         8.45414796       3.41461917      10.51897876         0.00000000       0.00000000       0.00000000          1
H         9.53841601       4.40576587       8.14278763         0.00000000       0.00000000       0.00000000          1
H         7.27190937       5.60529830       9.25111057         0.00000000       0.00000000       0.00000000          1
H         8.23838821       1.93313423       8.16039134         0.00000000       0.00000000       0.00000000          1
H         7.05615504       4.12381736       6.89251976         0.00000000       0.00000000       0.00000000          1
H         5.97188587       3.13266869       9.26870592         0.00000000       0.00000000       0.00000000          1
6
pbc=[F, F, F] list_num_par=6 frozen=false iter=20000 energy=-1.26974174 Lattice="15.00000000 0.00000000 0.00000000 0.00000000 15.00000000 0.00000000 0.00000000 0.00000000 15.00000000" energy_frozen_part=0.00000000 Properties=species:S:1:pos:R:3:velocities:R:3:Z:I:1
H         8.45414592       3.41470702      10.51900220         0.00000000       0.00000000       0.00000000          1
H         9.53837952       4.40585923       8.14279388         0.00000000       0.00000000       0.00000000          1
H         7.27186997       5.60536330       9.25113143         0.00000000       0.00000000       0.00000000          1
H         8.23839014       1.93320619       8.16042279         0.00000000       0.00000000       0.00000000          1
H         7.05611133       4.12387006       6.89255010         0.00000000       0.00000000       0.00000000          1
H         5.97187791       3.13271367       9.26875456         0.00000000       0.00000000       0.00000000          1
6
pbc=[F, F, F] list_num_par=6 frozen=false iter=20000 energy=-1.26974174 Lattice="15.00000000 0.00000000 0.00000000 0.00000000 15.00000000 0.00000000 0.00000000 0.00000000 15.00000000" energy_frozen_part=0.00000000 Properties=species:S:1:pos:R:3:velocities:R:3:Z:I:1
H         8.45411574       3.41471711      10.51901452         0.00000000       0.00000000       0.00000000          1
H         9.53833822       4.40582401       8.14278386         0.00000000       0.00000000       0.00000000          1
H         7.27184139       5.60536553       9.25111355         0.00000000       0.00000000       0.00000000          1
H         8.23833001       1.93318163       8.16045734         0.00000000       0.00000000       0.00000000          1
H         7.05605910       4.12382978       6.89255481         0.00000000       0.00000000       0.00000000          1
H         5.97184097       3.13272426       9.26878639         0.00000000       0.00000000       0.00000000          1
6
pbc=[F, F, F] list_num_par=6 frozen=false iter=20000 energy=-1.26974174 Lattice="15.00000000 0.00000000 0.00000000 0.00000000 15.00000000 0.00000000 0.00000000 0.00000000 15.00000000" energy_frozen_part=0.00000000 Properties=species:S:1:pos:R:3:velocities:R:3:Z:I:1
H         8.45264704       3.41071589      10.49393197         0.00000000       0.00000000       0.00000000          1
H         9.50318938       4.43083192       8.11485402         0.00000000       0.00000000       0.00000000          1
H         7.22187414       5.58379510       9.24204720         0.00000000       0.00000000       0.00000000          1
H         8.24947426       1.93438949       8.13100094         0.00000000       0.00000000       0.00000000          1
H         7.01869699       4.10746405       6.87911719         0.00000000       0.00000000       0.00000000          1
H         5.96815984       3.08735133       9.25819190         0.00000000       0.00000000       0.00000000          1
6
pbc=[F, F, F] list_num_par=6 frozen=false iter=20000 energy=-1.26974174 Lattice="15.00000000 0.00000000 0.00000000 0.00000000 15.00000000 0.00000000 0.00000000 0.00000000 15.00000000" energy_frozen_part=0.00000000 Properties=species:S:1:pos:R:3:velocities:R:3:Z:I:1
H         8.45411767       3.41470407      10.51900745         0.00000000       0.00000000       0.00000000          1
H         9.53842702       4.40580480       8.14281394         0.00000000       0.00000000       0.00000000          1
H         7.27188254       5.60534387       9.25105239         0.00000000       0.00000000       0.00000000          1
H         8.23843064       1.93315905       8.16044814         0.00000000       0.00000000       0.00000000          1
H         7.05620102       4.12379845       6.89249830         0.00000000       0.00000000       0.00000000          1
H         5.97189192       3.13269515       9.26868380         0.00000000       0.00000000       0.00000000          1
6
pbc=[F, F, F] list_num_par=6 frozen=false iter=20000 energy=-1.26974174 Lattice="15.00000000 0.00000000 0.00000000 0.00000000 15.00000000 0.00000000 0.00000000 0.00000000 15.00000000" energy_frozen_part=0.00000000 Properties=species:S:1:pos:R:3:velocities:R:3:Z:I:1
H         8.45413593       3.41463292      10.51898486         0.00000000       0.00000000       0.00000000          1
H         9.53841466       4.40576623       8.14279423         0.00000000       0.00000000       0.00000000          1
H         7.27191192       5.60531865       9.25110014         0.00000000       0.00000000       0.00000000          1
H         8.23838229       1.93313785       8.16040187         0.00000000       0.00000000       0.00000000          1
H         7.05616117       4.12383159       6.89251877         0.00000000       0.00000000       0.00000000          1
H         5.97188182       3.13268752       9.26870514         0.00000000       0.00000000       0.00000000          1
6
pbc=[F, F, F] list_num_par=6 frozen=false iter=20000 energy=-1.26974174 Lattice="15.00000000 0.00000000 0.00000000 0.00000000 15.00000000 0.00000000 0.00000000 0.00000000 15.00000000" energy_frozen_part=0.00000000 Properties=species:S:1:pos:R:3:velocities:R:3:Z:I:1
H         8.45416070       3.41462923      10.51897113         0.00000000       0.00000000       0.00000000          1
H         9.53840597       4.40579458       8.14277716         0.00000000       0.00000000       0.00000000          1
H         7.27191646       5.60532219       9.25112167         0.00000000       0.00000000       0.00000000          1
H         8.23838210       1.93316167       8.16038288         0.00000000       0.00000000       0.00000000          1
H         7.05613022       4.12384772       6.89252852         0.00000000       0.00000000       0.00000000          1
H         5.97188637       3.13269229       9.26872543         0.00000000       0.00000000       0.00000000          1
6
pbc=[F, F, F] list_num_par=6 frozen=false iter=20000 energy=-1.26974174 Lattice="15.00000000 0.00000000 0.00000000 0.00000000 15.00000000 0.00000000 0.00000000 0.00000000 15.00000000" energy_frozen_part=0.00000000 Properties=species:S:1:pos:R:3:velocities:R:3:Z:I:1
H         8.45409536       3.41472828      10.51902335         0.00000000       0.00000000       0.00000000          1
H         9.53834730       4.40585691       8.14282131         0.00000000       0.00000000       0.00000000          1
H         7.27183049       5.60538243       9.25112079         0.00000000       0.00000000       0.00000000          1
H         8.23835067       1.93320796       8.16045989         0.00000000       0.00000000       0.00000000          1
H         7.05608809       4.12385689       6.89255385         0.00000000       0.00000000       0.00000000          1
H         5.97183656       3.13272976       9.26876516         0.00000000       0.00000000       0.00000000          1
6
pbc=[F, F, F] list_num_par=6 frozen=false iter=20000 energy=-1.26974174 Lattice="15.00000000 0.00000000 0.00000000 0.00000000 15.00000000 0.00000000 0.00000000 0.00000000 15.00000000" energy_frozen_part=0.00000000 Properties=species:S:1:pos:R:3:velocities:R:3:Z:I:1
H         8.45333569       3.41308138      10.52012733         0.00000000       0.00000000       0.00000000          1
H         9.53927918       4.40468688       8.14489629         0.00000000       0.00000000       0.00000000          1
H         7.27273110       5.60479214       9.25251287         0.00000000       0.00000000       0.00000000          1
H         8.23814169       1.93262689       8.16084669         0.00000000       0.00000000       0.00000000          1
H         7.05754373       4.12433787       6.89322486         0.00000000       0.00000000       0.00000000          1
H         5.97159412       3.13273508       9.26845662         0.00000000       0.00000000       0.00000000          1
6
pbc=[F, F, F] list_num_par=6 frozen=false iter=20000 energy=-1.26974174 Lattice="15.00000000 0.00000000 0.00000000 0.00000000 15.00000000 0.00000000 0.00000000 0.00000000 15.00000000" energy_frozen_part=0.00000000 Properties=species:S:1:pos:R:3:velocities:R:3:Z:I:1
H         8.45332972       3.41308541      10.52013188         0.00000000       0.00000000       0.00000000          1
H         9.53926205       4.40471130       8.14490121         0.00000000       0.00000000       0.00000000          1
H         7.27270041       5.60478823       9.25251273         0.00000000       0.00000000       0.00000000          1
H         8.23815536       1.93263166       8.16083906         0.00000000       0.00000000       0.00000000          1
H         7.05752999       4.12433703       6.89322422         0.00000000       0.00000000       0.00000000          1
H         5.97159830       3.13271439       9.26845225         0.00000000       0.00000000       0.00000000          1
6
pbc=[F, F, F] list_num_par=6 frozen=false iter=20000 energy=-1.26974174 Lattice="15.00000000 0.00000000 0.00000000 0.00000000 15.00000000 0.00000000 0.00000000 0.00000000 15.00000000" energy_frozen_part=0.00000000 Properties=species:S:1:pos:R:3:velocities:R:3:Z:I:1
H         8.45340601       3.41295591      10.52002153         0.00000000       0.00000000       0.00000000          1
H         9.53936296       4.40464151       8.14483288         0.00000000       0.00000000       0.00000000          1
H         7.27289665       5.60479941       9.25254716         0.00000000       0.00000000       0.00000000          1
H         8.23810742       1.93264311       8.16065668         0.00000000       0.00000000       0.00000000          1
H         7.05759123       4.12448613       6.89318262         0.00000000       0.00000000       0.00000000          1
H         5.97163599       3.13280135       9.26837784         0.00000000       0.00000000       0.00000000          1
6
pbc=[F, F, F] list_num_par=6 frozen=false iter=20000 energy=-1.26974174 Lattice="15.00000000 0.00000000 0.00000000 0.00000000 15.00000000 0.00000000 0.00000000 0.00000000 15.00000000" energy_frozen_part=0.00000000 Properties=species:S:1:pos:R:3:velocities:R:3:Z:I:1
H         8.45411431       3.41469668      10.51901683         0.00000000       0.00000000       0.00000000          1
H         9.53843605       4.40580092       8.14283383         0.00000000       0.00000000       0.00000000          1
H         7.27188784       5.60534239       9.25105723         0.00000000       0.00000000       0.00000000          1
H         8.23843383       1.93315607       8.16046070         0.00000000       0.00000000       0.00000000          1
H         7.05620960       4.12379558       6.89250297         0.00000000       0.00000000       0.00000000          1
H         5.97189310       3.13269224       9.26868644         0.00000000       0.00000000       0.00000000          1
6
pbc=[F, F, F] list_num_par=6 frozen=false iter=20000 energy=-1.26974174 Lattice="15.00000000 0.00000000 0.00000000 0.00000000 15.00000000 0.00000000 0.00000000 0.00000000 15.00000000" energy_frozen_part=0.00000000 Properties=species:S:1:pos:R:3:velocities:R:3:Z:I:1
H         8.45332860       3.41307494      10.52012353         0.00000000       0.00000000       0.00000000          1
H         9.53926942       4.40471629       8.14490385         0.00000000       0.00000000       0.00000000          1
H         7.27272477       5.60480767       9.25254352         0.00000000       0.00000000       0.00000000          1
H         8.23812887       1.93266054       8.16081243         0.00000000       0.00000000       0.00000000          1
H         7.05752888       4.12440238       6.89323301         0.00000000       0.00000000       0.00000000          1
H         5.97158989       3.13274779       9.26845095         0.00000000       0.00000000       0.00000000          1
6
pbc=[F, F, F] list_num_par=6 frozen=false iter=20000 energy=-1.26974174 Lattice="15.00000000 0.00000000 0.00000000 0.00000000 15.00000000 0.00000000 0.00000000 0.00000000 15.00000000" energy_frozen_part=0.00000000 Properties=species:S:1:pos:R:3:velocities:R:3:Z:I:1
H         8.45416357       3.41465222      10.51898801         0.00000000       0.00000000       0.00000000          1
H         9.53841530       4.40578692       8.14278299         0.00000000       0.00000000       0.00000000          1
H         7.27191389       5.60532049       9.25109671         0.00000000       0.00000000       0.00000000          1
H         8.23840644       1.93314590       8.16041171         0.00000000       0.00000000       0.00000000          1
H         7.05615835       4.12381655       6.89251969         0.00000000       0.00000000       0.00000000          1
H         5.97190111       3.13268321       9.26871530         0.00000000       0.00000000       0.00000000          1
6
pbc=[F, F, F] list_num_par=6 frozen=false iter=20000 energy=-1.26974174 Lattice="15.00000000 0.00000000 0.00000000 0.00000000 15.00000000 0.00000000 0.00000000 0.00000000 15.00000000" energy_frozen_part=0.00000000 Properties=species:S:1:pos:R:3:velocities:R:3:Z:I:1
H         8.45414544       3.41461605      10.51897798         0.00000000       0.00000000       0.00000000          1
H         9.53841957       4.40576842       8.14279587         0.00000000       0.00000000       0.00000000          1
H         7.27192094       5.60531069       9.25110740         0.00000000       0.00000000       0.00000000          1
H         8.23839101       1.93313240       8.16038991         0.00000000       0.00000000       0.00000000          1
H         7.05616564       4.12382154       6.89251845         0.00000000       0.00000000       0.00000000          1
H         5.97188909       3.13268172       9.26870149         0.00000000       0.00000000       0.00000000          1
6
pbc=[F, F, F] list_num_par=6 frozen=false iter=20000 energy=-1.26974174 Lattice="15.00000000 0.00000000 0.00000000 0.00000000 15.00000000 0.00000000 0.00000000 0.00000000 15.00000000" energy_frozen_part=0.00000000 Properties=species:S:1:pos:R:3:velocities:R:3:Z:I:1
H         8.45264123       3.41071923      10.49394256         0.00000000       0.00000000       0.00000000          1
H         9.50320072       4.43080833       8.11485906         0.00000000       0.00000000       0.00000000          1
H         7.22188463       5.58378572       9.24202564         0.00000000       0.00000000       0.00000000          1
H         8.24948156       1.93436693       8.13101848         0.00000000       0.00000000       0.00000000          1
H         7.01871757       4.10743561       6.87910741         0.00000000       0.00000000       0.00000000          1
H         5.96816101       3.08734497       9.25819280         0.00000000       0.00000000       0.00000000          1
6
pbc=[F, F, F] list_num_par=6 frozen=false iter=20000 energy=-1.26974174 Lattice="15.00000000 0.00000000 0.00000000 0.00000000 15.00000000 0.00000000 0.00000000 0.00000000 15.00000000" energy_frozen_part=0.00000000 Properties=species:S:1:pos:R:3:velocities:R:3:Z:I:1
H         8.45265408       3.41070190      10.49389928         0.00000000       0.00000000       0.00000000          1
H         9.50318788       4.43078755       8.11480660         0.00000000       0.00000000       0.00000000          1
H         7.22191468       5.58380331       9.24202278         0.00000000       0.00000000       0.00000000          1
H         8.24943296       1.93437017       8.13097471         0.00000000       0.00000000       0.00000000          1
H         7.01868493       4.10746532       6.87909580         0.00000000       0.00000000       0.00000000          1
H         5.96814909       3.08738438       9.25818492         0.00000000       0.00000000       0.00000000          1
6
pbc=[F, F, F] list_num_par=6 frozen=false iter=20000 energy=-1.26974174 Lattice="15.00000000 0.00000000 0.00000000 0.00000000 15.00000000 0.00000000 0.00000000 0.00000000 15.00000000" energy_frozen_part=0.00000000 Properties=species:S:1:pos:R:3:velocities:R:3:Z:I:1
H         8.45265359       3.41070526      10.49393140         0.00000000       0.00000000       0.00000000          1
H         9.50319675       4.43079809       8.11484388         0.00000000       0.00000000       0.00000000          1
H         7.22189356       5.58377970       9.24202776         0.00000000       0.00000000       0.00000000          1
H         8.24947475       1.93436380       8.13100245         0.00000000       0.00000000       0.00000000          1
H         7.01871100       4.10743886       6.87910445         0.00000000       0.00000000       0.00000000          1
H         5.96817008       3.08734523       9.25818770         0.00000000       0.00000000       0.00000000          1
6
pbc=[F, F, F] list_num_par=6 frozen=false iter=20000 energy=-1.26974174 Lattice="15.00000000 0.00000000 0.00000000 0.00000000 15.00000000 0.00000000 0.00000000 0.00000000 15.00000000" energy_frozen_part=0.00000000 Properties=species:S:1:pos:R:3:velocities:R:3:Z:I:1
H         8.45413242       3.41467328      10.51900751         0.00000000       0.00000000       0.00000000          1
H         9.53836554       4.40582309       8.14280554         0.00000000       0.00000000       0.00000000          1
H         7.27187906       5.60536370       9.25114912         0.00000000       0.00000000       0.00000000          1
H         8.23834721       1.93319016       8.16042434         0.00000000       0.00000000       0.00000000          1
H         7.05609526       4.12387536       6.89256017         0.00000000       0.00000000       0.00000000          1
H         5.97185828       3.13272676       9.26876315         0.00000000       0.00000000       0.00000000          1
6
pbc=[F, F, F] list_num_par=6 frozen=false iter=20000 energy=-1.26974174 Lattice="15.00000000 0.00000000 0.00000000 0.00000000 15.00000000 0.00000000 0.00000000 0.00000000 15.00000000" energy_frozen_part=0.00000000 Properties=species:S:1:pos:R:3:velocities:R:3:Z:I:1
H         8.45258616       3.41074454      10.49370244         0.00000000       0.00000000       0.00000000          1
H         9.50325453       4.43106789       8.11476896         0.00000000       0.00000000       0.00000000          1
H         7.22187957       5.58392579       9.24193985         0.00000000       0.00000000       0.00000000          1
H         8.24954693       1.93462159       8.13062675         0.00000000       0.00000000       0.00000000          1
H         7.01883886       4.10780974       6.87886379         0.00000000       0.00000000       0.00000000          1
H         5.96817374       3.08747801       9.25779346         0.00000000       0.00000000       0.00000000          1
6
pbc=[F, F, F] list_num_par=6 frozen=false iter=20000 energy=-1.26974174 Lattice="15.00000000 0.00000000 0.00000000 0.00000000 15.00000000 0.00000000 0.00000000 0.00000000 15.00000000" energy_frozen_part=0.00000000 Properties=species:S:1:pos:R:3:velocities:R:3:Z:I:1
H         8.45307843       3.41278833      10.52009251         0.00000000       0.00000000       0.00000000          1
H         9.53928591       4.40413784       8.14487176         0.00000000       0.00000000       0.00000000          1
H         7.27295278       5.60472181       9.25240047         0.00000000       0.00000000       0.00000000          1
H         8.23765200       1.93234311       8.16082446         0.00000000       0.00000000       0.00000000          1
H         7.05753147       4.12427067       6.89313004         0.00000000       0.00000000       0.00000000          1
H         5.97131761       3.13292608       9.26835179         0.00000000       0.00000000       0.00000000          1
6
pbc=[F, F, F] list_num_par=6 frozen=false iter=20000 energy=-1.26974174 Lattice="15.00000000 0.00000000 0.00000000 0.00000000 15.00000000 0.00000000 0.00000000 0.00000000 15.00000000" energy_frozen_part=0.00000000 Properties=species:S:1:pos:R:3:velocities:R:3:Z:I:1
H         8.45333212       3.41309678      10.52012523         0.00000000       0.00000000       0.00000000          1
H         9.53925874       4.40470691       8.14488901         0.00000000       0.00000000       0.00000000          1
H         7.27271061       5.60479780       9.25250256         0.00000000       0.00000000       0.00000000          1
H         8.23814356       1.93263149       8.16084398         0.00000000       0.00000000       0.00000000          1
H         7.05752712       4.12433550       6.89322018         0.00000000       0.00000000       0.00000000          1
H         5.97159302       3.13272832       9.26846171         0.00000000       0.00000000       0.00000000          1
6
pbc=[F, F, F] list_num_par=6 frozen=false iter=20000 energy=-1.26974174 Lattice="15.00000000 0.00000000 0.00000000 0.00000000 15.00000000 0.00000000 0.00000000 0.00000000 15.00000000" energy_frozen_part=0.00000000 Properties=species:S:1:pos:R:3:velocities:R:3:Z:I:1
H         8.45411532       3.41470428      10.51902179         0.00000000       0.00000000       0.00000000          1
H         9.53843368       4.40580366       8.14283296         0.00000000       0.00000000       0.00000000          1
H         7.27188908       5.60534281       9.25105330         0.00000000       0.00000000       0.00000000          1
H         8.23843372       1.93315633       8.16046133         0.00000000       0.00000000       0.00000000          1
H         7.05621142       4.12379383       6.89250139         0.00000000       0.00000000       0.00000000          1
H         5.97189283       3.13269962       9.26869231         0.00000000       0.00000000       0.00000000          1
6
pbc=[F, F, F] list_num_par=6 frozen=false iter=20000 energy=-1.26974174 Lattice="15.00000000 0.00000000 0.00000000 0.00000000 15.00000000 0.00000000 0.00000000 0.00000000 15.00000000" energy_frozen_part=0.00000000 Properties=species:S:1:pos:R:3:velocities:R:3:Z:I:1
H         8.45304576       3.41280156      10.52006364         0.00000000       0.00000000       0.00000000          1
H         9.53927139       4.40416870       8.14486259         0.00000000       0.00000000       0.00000000          1
H         7.27292788       5.60473779       9.25238141         0.00000000       0.00000000       0.00000000          1
H         8.23763856       1.93236640       8.16078104         0.00000000       0.00000000       0.00000000          1
H         7.05752866       4.12431116       6.89309931         0.00000000       0.00000000       0.00000000          1
H         5.97130055       3.13293805       9.26829847         0.00000000       0.00000000       0.00000000          1
6
pbc=[F, F, F] list_num_par=6 frozen=false iter=20000 energy=-1.26974174 Lattice="15.00000000 0.00000000 0.00000000 0.00000000 15.00000000 0.00000000 0.00000000 0.00000000 15.00000000" energy_frozen_part=0.00000000 Properties=species:S:1:pos:R:3:velocities:R:3:Z:I:1
H         8.45332155       3.41307113      10.52013000         0.00000000       0.00000000       0.00000000          1
H         9.53926654       4.40472099       8.14491227         0.00000000       0.00000000       0.00000000          1
H         7.27272142       5.60481007       9.25255066         0.00000000       0.00000000       0.00000000          1
H         8.23813456       1.93266123       8.16081363         0.00000000       0.00000000       0.00000000          1
H         7.05753375       4.12439719       6.89323526         0.00000000       0.00000000       0.00000000          1
H         5.97158687       3.13275225       9.26845075         0.00000000       0.00000000       0.00000000          1
6
pbc=[F, F, F] list_num_par=6 frozen=false iter=20000 energy=-1.26974174 Lattice="15.00000000 0.00000000 0.00000000 0.00000000 15.00000000 0.00000000 0.00000000 0.00000000 15.00000000" energy_frozen_part=0.00000000 Properties=species:S:1:pos:R:3:velocities:R:3:Z:I:1
H         8.45264546       3.41071154      10.49393753         0.00000000       0.00000000       0.00000000          1
H         9.50319105       4.43081843       8.11486373         0.00000000       0.00000000       0.00000000          1
H         7.22188324       5.58379499       9.24204993         0.00000000       0.00000000       0.00000000          1
H         8.24946815       1.93438370       8.13099891         0.00000000       0.00000000       0.00000000          1
H         7.01871042       4.10746955       6.87911755         0.00000000       0.00000000       0.00000000          1
H         5.96816083       3.08735671       9.25819432         0.00000000       0.00000000       0.00000000          1
6
pbc=[F, F, F] list_num_par=6 frozen=false iter=20000 energy=-1.26974174 Lattice="15.00000000 0.00000000 0.00000000 0.00000000 15.00000000 0.00000000 0.00000000 0.00000000 15.00000000" energy_frozen_part=0.00000000 Properties=species:S:1:pos:R:3:velocities:R:3:Z:I:1
H         8.45411419       3.41470750      10.51902468         0.00000000       0.00000000       0.00000000          1
H         9.53844628       4.40579830       8.14284091         0.00000000       0.00000000       0.00000000          1
H         7.27189858       5.60535143       9.25106110         0.00000000       0.00000000       0.00000000          1
H         8.23843703       1.93315621       8.16047779         0.00000000       0.00000000       0.00000000          1
H         7.05622216       4.12379877       6.89250887         0.00000000       0.00000000       0.00000000          1
H         5.97189080       3.13270742       9.26869201         0.00000000       0.00000000       0.00000000          1
6
pbc=[F, F, F] list_num_par=6 frozen=false iter=20000 energy=-1.26974174 Lattice="15.00000000 0.00000000 0.00000000 0.00000000 15.00000000 0.00000000 0.00000000 0.00000000 15.00000000" energy_frozen_part=0.00000000 Properties=species:S:1:pos:R:3:velocities:R:3:Z:I:1
H         8.45412770       3.41469601      10.51900948         0.00000000       0.00000000       0.00000000          1
H         9.53836405       4.40583512       8.14280633         0.00000000       0.00000000       0.00000000          1
H         7.27186666       5.60536932       9.25113922         0.00000000       0.00000000       0.00000000          1
H         8.23835255       1.93319814       8.16043381         0.00000000       0.00000000       0.00000000          1
H         7.05609325       4.12387698       6.89255910         0.00000000       0.00000000       0.00000000          1
H         5.97185547       3.13272817       9.26876075         0.00000000       0.00000000       0.00000000          1
6
pbc=[F, F, F] list_num_par=6 frozen=false iter=20000 energy=-1.26974174 Lattice="15.00000000 0.00000000 0.00000000 0.00000000 15.00000000 0.00000000 0.00000000 0.00000000 15.00000000" energy_frozen_part=0.00000000 Properties=species:S:1:pos:R:3:velocities:R:3:Z:I:1
H         8.45264816       3.41071435      10.49394169         0.00000000       0.00000000       0.00000000          1
H         9.50319505       4.43081175       8.11485490         0.00000000       0.00000000       0.00000000          1
H         7.22187811       5.58378571       9.24203810         0.00000000       0.00000000       0.00000000          1
H         8.24948203       1.93436737       8.13101887         0.00000000       0.00000000       0.00000000          1
H         7.01871442       4.10744179       6.87911628         0.00000000       0.00000000       0.00000000          1
H         5.96816293       3.08734394       9.25819631         0.00000000       0.00000000       0.00000000          1
6
pbc=[F, F, F] list_num_par=6 frozen=false iter=20000 energy=-1.26974174 Lattice="15.00000000 0.00000000 0.00000000 0.00000000 15.00000000 0.00000000 0.00000000 0.00000000 15.00000000" energy_frozen_part=0.00000000 Properties=species:S:1:pos:R:3:velocities:R:3:Z:I:1
H         8.45266384       3.41068699      10.49388622         0.00000000       0.00000000       0.00000000          1
H         9.50319536       4.43078051       8.11479626         0.00000000       0.00000000       0.00000000          1
H         7.22191802       5.58379719       9.24202322         0.00000000       0.00000000       0.00000000          1
H         8.24942621       1.93436878       8.13095038         0.00000000       0.00000000       0.00000000          1
H         7.01868754       4.10747852       6.87908716         0.00000000       0.00000000       0.00000000          1
H         5.96815326       3.08737731       9.25817829         0.00000000       0.00000000       0.00000000          1
6
pbc=[F, F, F] list_num_par=6 frozen=false iter=20000 energy=-1.26974174 Lattice="15.00000000 0.00000000 0.00000000 0.00000000 15.00000000 0.00000000 0.00000000 0.00000000 15.00000000" energy_frozen_part=0.00000000 Properties=species:S:1:pos:R:3:velocities:R:3:Z:I:1
H         8.45266424       3.41070302      10.49391838         0.00000000       0.00000000       0.00000000          1
H         9.50317956       4.43082777       8.11483689         0.00000000       0.00000000       0.00000000          1
H         7.22187652       5.58378794       9.24205621         0.00000000       0.00000000       0.00000000          1
H         8.24946738       1.93438288       8.13097912         0.00000000       0.00000000       0.00000000          1
H         7.01868578       4.10746940       6.87911183         0.00000000       0.00000000       0.00000000          1
H         5.96816902       3.08734129       9.25819632         0.00000000       0.00000000       0.00000000          1
6
pbc=[F, F, F] list_num_par=6 frozen=false iter=20000 energy=-1.26974174 Lattice="15.00000000 0.00000000 0.00000000 0.00000000 15.00000000 0.00000000 0.00000000 0.00000000 15.00000000" energy_frozen_part=0.00000000 Properties=species:S:1:pos:R:3:velocities:R:3:Z:I:1
H         8.45333213       3.41307123      10.52012417         0.00000000       0.00000000       0.00000000          1
H         9.53927128       4.40471739       8.14490828         0.00000000       0.00000000       0.00000000          1
H         7.27272646       5.60480615       9.25254641         0.00000000       0.00000000       0.00000000          1
H         8.23813661       1.93266125       8.16080957         0.00000000       0.00000000       0.00000000          1
H         7.05752915       4.12439435       6.89323868         0.00000000       0.00000000       0.00000000          1
H         5.97159683       3.13274229       9.26845741         0.00000000       0.00000000       0.00000000          1
6
pbc=[F, F, F] list_num_par=6 frozen=false iter=20000 energy=-1.26974174 Lattice="15.00000000 0.00000000 0.00000000 0.00000000 15.00000000 0.00000000 0.00000000 0.00000000 15.00000000" energy_frozen_part=0.00000000 Properties=species:S:1:pos:R:3:velocities:R:3:Z:I:1
H         8.45264964       3.41070309      10.49391889         0.00000000       0.00000000       0.00000000          1
H         9.50319813       4.43080166       8.11483298         0.00000000       0.00000000       0.00000000          1
H         7.22189111       5.58378345       9.24202193         0.00000000       0.00000000       0.00000000          1
H         8.24946293       1.93436459       8.13099044         0.00000000       0.00000000       0.00000000          1
H         7.01870748       4.10744747       6.87909408         0.00000000       0.00000000       0.00000000          1
H         5.96815813       3.08735397       9.25817919         0.00000000       0.00000000       0.00000000          1
6
pbc=[F, F, F] list_num_par=6 frozen=false iter=20000 energy=-1.26974174 Lattice="15.00000000 0.00000000 0.00000000 0.00000000 15.00000000 0.00000000 0.00000000 0.00000000 15.00000000" energy_frozen_part=0.00000000 Properties=species:S:1:pos:R:3:velocities:R:3:Z:I:1
H         8.45333912       3.41309462      10.52012902         0.00000000       0.00000000       0.00000000          1
H         9.53926412       4.40469591       8.14488509         0.00000000       0.00000000       0.00000000          1
H         7.27271713       5.60479344       9.25249871         0.00000000       0.00000000       0.00000000          1
H         8.23814318       1.93263264       8.16084694         0.00000000       0.00000000       0.00000000          1
H         7.05752729       4.12433257       6.89321812         0.00000000       0.00000000       0.00000000          1
H         5.97159889       3.13272790       9.26846074         0.00000000       0.00000000       0.00000000          1
6
pbc=[F, F, F] list_num_par=6 frozen=false iter=20000 energy=-1.26974174 Lattice="15.00000000 0.00000000 0.00000000 0.00000000 15.00000000 0.00000000 0.00000000 0.00000000 15.00000000" energy_frozen_part=0.00000000 Properties=species:S:1:pos:R:3:velocities:R:3:Z:I:1
H         8.45413406       3.41467207      10.51900513         0.00000000       0.00000000       0.00000000          1
H         9.53837184       4.40581904       8.14280470         0.00000000       0.00000000       0.00000000          1
H         7.27188262       5.60535750       9.25114682         0.00000000       0.00000000       0.00000000          1
H         8.23834904       1.93319318       8.16041529         0.00000000       0.00000000       0.00000000          1
H         7.05609491       4.12387592       6.89256054         0.00000000       0.00000000       0.00000000          1
H         5.97186031       3.13272347       9.26876041         0.00000000       0.00000000       0.00000000          1
6
pbc=[F, F, F] list_num_par=6 frozen=false iter=20000 energy=-1.26974174 Lattice="15.00000000 0.00000000 0.00000000 0.00000000 15.00000000 0.00000000 0.00000000 0.00000000 15.00000000" energy_frozen_part=0.00000000 Properties=species:S:1:pos:R:3:velocities:R:3:Z:I:1
H         8.45335760       3.41306861      10.52009295         0.00000000       0.00000000       0.00000000          1
H         9.53929171       4.40469148       8.14486004         0.00000000       0.00000000       0.00000000          1
H         7.27277208       5.60481285       9.25251193         0.00000000       0.00000000       0.00000000          1
H         8.23813176       1.93264970       8.16078833         0.00000000       0.00000000       0.00000000          1
H         7.05754164       4.12439623       6.89320590         0.00000000       0.00000000       0.00000000          1
H         5.97161201       3.13277019       9.26843736         0.00000000       0.00000000       0.00000000          1
6
pbc=[F, F, F] list_num_par=6 frozen=false iter=20000 energy=-1.26974174 Lattice="15.00000000 0.00000000 0.00000000 0.00000000 15.00000000 0.00000000 0.00000000 0.00000000 15.00000000" energy_frozen_part=0.00000000 Properties=species:S:1:pos:R:3:velocities:R:3:Z:I:1
H         8.45305427       3.41277359      10.52005797         0.00000000       0.00000000       0.00000000          1
H         9.53927088       4.40415771       8.14485905         0.00000000       0.00000000       0.00000000          1
H         7.27293601       5.60472503       9.25239647         0.00000000       0.00000000       0.00000000          1
H         8.23764015       1.93236053       8.16077193         0.00000000       0.00000000       0.00000000          1
H         7.05751781       4.12430693       6.89310742         0.00000000       0.00000000       0.00000000          1
H         5.97130029       3.13292879       9.26830474         0.00000000       0.00000000       0.00000000          1
6
pbc=[F, F, F] list_num_par=6 frozen=false iter=20000 energy=-1.26974174 Lattice="15.00000000 0.00000000 0.00000000 0.00000000 15.00000000 0.00000000 0.00000000 0.00000000 15.00000000" energy_frozen_part=0.00000000 Properties=species:S:1:pos:R:3:velocities:R:3:Z:I:1
H         8.45334031       3.41301896      10.52000201         0.00000000       0.00000000       0.00000000          1
H         9.53933903       4.40460052       8.14477815         0.00000000       0.00000000       0.00000000          1
H         7.27288333       5.60483736       9.25243607         0.00000000       0.00000000       0.00000000          1
H         8.23803814       1.93263139       8.16068318         0.00000000       0.00000000       0.00000000          1
H         7.05757401       4.12444645       6.89311805         0.00000000       0.00000000       0.00000000          1
H         5.97158018       3.13286480       9.26833688         0.00000000       0.00000000       0.00000000          1
6
pbc=[F, F, F] list_num_par=6 frozen=false iter=20000 energy=-1.26974174 Lattice="15.00000000 0.00000000 0.00000000 0.00000000 15.00000000 0.00000000 0.00000000 0.00000000 15.00000000" energy_frozen_part=0.00000000 Properties=species:S:1:pos:R:3:velocities:R:3:Z:I:1
H         8.45308270       3.41279136      10.52008665         0.00000000       0.00000000       0.00000000          1
H         9.53927470       4.40414214       8.14486181         0.00000000       0.00000000       0.00000000          1
H         7.27294445       5.60471782       9.25239616         0.00000000       0.00000000       0.00000000          1
H         8.23765231       1.93233908       8.16082200         0.00000000       0.00000000       0.00000000          1
H         7.05751351       4.12426099       6.89313381         0.00000000       0.00000000       0.00000000          1
H         5.97132160       3.13291864       9.26835681         0.00000000       0.00000000       0.00000000          1
6
pbc=[F, F, F] list_num_par=6 frozen=false iter=20000 energy=-1.26974174 Lattice="15.00000000 0.00000000 0.00000000 0.00000000 15.00000000 0.00000000 0.00000000 0.00000000 15.00000000" energy_frozen_part=0.00000000 Properties=species:S:1:pos:R:3:velocities:R:3:Z:I:1
H         8.45408318       3.41469428      10.51903725         0.00000000       0.00000000       0.00000000          1
H         9.53835239       4.40585657       8.14284796         0.00000000       0.00000000       0.00000000          1
H         7.27182748       5.60535956       9.25114981         0.00000000       0.00000000       0.00000000          1
H         8.23836663       1.93320587       8.16044929         0.00000000       0.00000000       0.00000000          1
H         7.05610790       4.12386988       6.89256329         0.00000000       0.00000000       0.00000000          1
H         5.97183754       3.13270726       9.26874379         0.00000000       0.00000000       0.00000000          1
6
pbc=[F, F, F] list_num_par=6 frozen=false iter=20000 energy=-1.26974174 Lattice="15.00000000 0.00000000 0.00000000 0.00000000 15.00000000 0.00000000 0.00000000 0.00000000 15.00000000" energy_frozen_part=0.00000000 Properties=species:S:1:pos:R:3:velocities:R:3:Z:I:1
H         8.45415007       3.41468914      10.51897696         0.00000000       0.00000000       0.00000000          1
H         9.53841134       4.40581862       8.14277779         0.00000000       0.00000000       0.00000000          1
H         7.27187358       5.60532449       9.25105561         0.00000000       0.00000000       0.00000000          1
H         8.23844880       1.93315895       8.16041110         0.00000000       0.00000000       0.00000000          1
H         7.05616819       4.12379381       6.89249237         0.00000000       0.00000000       0.00000000          1
H         5.97190697       3.13265935       9.26869487         0.00000000       0.00000000       0.00000000          1
6
pbc=[F, F, F] list_num_par=6 frozen=false iter=20000 energy=-1.26974174 Lattice="15.00000000 0.00000000 0.00000000 0.00000000 15.00000000 0.00000000 0.00000000 0.00000000 15.00000000" energy_frozen_part=0.00000000 Properties=species:S:1:pos:R:3:velocities:R:3:Z:I:1
H         8.45264375       3.41069784      10.49393010         0.00000000       0.00000000       0.00000000          1
H         9.50319855       4.43079644       8.11485178         0.00000000       0.00000000       0.00000000          1
H         7.22188319       5.58377320       9.24203582         0.00000000       0.00000000       0.00000000          1
H         8.24947949       1.93435932       8.13100331         0.00000000       0.00000000       0.00000000          1
H         7.01871548       4.10743719       6.87910329         0.00000000       0.00000000       0.00000000          1
H         5.96815970       3.08733485       9.25818209         0.00000000       0.00000000       0.00000000          1
6
pbc=[F, F, F] list_num_par=6 frozen=false iter=20000 energy=-1.26974174 Lattice="15.00000000 0.00000000 0.00000000 0.00000000 15.00000000 0.00000000 0.00000000 0.00000000 15.00000000" energy_frozen_part=0.00000000 Properties=species:S:1:pos:R:3:velocities:R:3:Z:I:1
H         8.45334799       3.41307986      10.52009151         0.00000000       0.00000000       0.00000000          1
H         9.53929032       4.40469899       8.14486185         0.00000000       0.00000000       0.00000000          1
H         7.27276885       5.60482440       9.25250208         0.00000000       0.00000000       0.00000000          1
H         8.23812597       1.93265561       8.16078548         0.00000000       0.00000000       0.00000000          1
H         7.05754631       4.12439638       6.89319709         0.00000000       0.00000000       0.00000000          1
H         5.97160497       3.13277637       9.26842865         0.00000000       0.00000000       0.00000000          1
6
pbc=[F, F, F] list_num_par=6 frozen=false iter=20000 energy=-1.26974174 Lattice="15.00000000 0.00000000 0.00000000 0.00000000 15.00000000 0.00000000 0.00000000 0.00000000 15.00000000" energy_frozen_part=0.00000000 Properties=species:S:1:pos:R:3:velocities:R:3:Z:I:1
H         8.45333452       3.41306793      10.52012112         0.00000000       0.00000000       0.00000000          1
H         9.53927046       4.40471674       8.14490341         0.00000000       0.00000000       0.00000000          1
H         7.27273449       5.60480959       9.25254858         0.00000000       0.00000000       0.00000000          1
H         8.23813437       1.93265536       8.16080897         0.00000000       0.00000000       0.00000000          1
H         7.05753221       4.12439738       6.89323525         0.00000000       0.00000000       0.00000000          1
H         5.97159577       3.13274701       9.26845679         0.00000000       0.00000000       0.00000000          1
6
pbc=[F, F, F] list_num_par=6 frozen=false iter=20000 energy=-1.26974174 Lattice="15.00000000 0.00000000 0.00000000 0.00000000 15.00000000 0.00000000 0.00000000 0.00000000 15.00000000" energy_frozen_part=0.00000000 Properties=species:S:1:pos:R:3:velocities:R:3:Z:I:1
H         8.45268730       3.41073256      10.49388904         0.00000000       0.00000000       0.00000000          1
H         9.50319184       4.43080237       8.11477234         0.00000000       0.00000000       0.00000000          1
H         7.22191832       5.58381054       9.24200868         0.00000000       0.00000000       0.00000000          1
H         8.24944290       1.93438040       8.13097515         0.00000000       0.00000000       0.00000000          1
H         7.01867642       4.10746112       6.87909323         0.00000000       0.00000000       0.00000000          1
H         5.96817062       3.08738666       9.25820746         0.00000000       0.00000000       0.00000000          1
6
pbc=[F, F, F] list_num_par=6 frozen=false iter=20000 energy=-1.26974174 Lattice="15.00000000 0.00000000 0.00000000 0.00000000 15.00000000 0.00000000 0.00000000 0.00000000 15.00000000" energy_frozen_part=0.00000000 Properties=species:S:1:pos:R:3:velocities:R:3:Z:I:1
H         8.45414381       3.41463480      10.51898449         0.00000000       0.00000000       0.00000000          1
H         9.53841764       4.40576883       8.14279641         0.00000000       0.00000000       0.00000000          1
H         7.27192075       5.60531951       9.25110295         0.00000000       0.00000000       0.00000000          1
H         8.23837872       1.93314508       8.16040046         0.00000000       0.00000000       0.00000000          1
H         7.05615710       4.12383177       6.89251873         0.00000000       0.00000000       0.00000000          1
H         5.97188343       3.13269277       9.26870873         0.00000000       0.00000000       0.00000000          1
6
pbc=[F, F, F] list_num_par=6 frozen=false iter=20000 energy=-1.26974174 Lattice="15.00000000 0.00000000 0.00000000 0.00000000 15.00000000 0.00000000 0.00000000 0.00000000 15.00000000" energy_frozen_part=0.00000000 Properties=species:S:1:pos:R:3:velocities:R:3:Z:I:1
H         8.45407568       3.41470531      10.51902377         0.00000000       0.00000000       0.00000000          1
H         9.53833682       4.40585182       8.14283144         0.00000000       0.00000000       0.00000000          1
H         7.27182426       5.60537756       9.25114318         0.00000000       0.00000000       0.00000000          1
H         8.23833197       1.93320683       8.16044490         0.00000000       0.00000000       0.00000000          1
H         7.05608009       4.12388164       6.89256303         0.00000000       0.00000000       0.00000000          1
H         5.97181878       3.13273290       9.26875021         0.00000000       0.00000000       0.00000000          1
6
pbc=[F, F, F] list_num_par=6 frozen=false iter=20000 energy=-1.26974174 Lattice="15.00000000 0.00000000 0.00000000 0.00000000 15.00000000 0.00000000 0.00000000 0.00000000 15.00000000" energy_frozen_part=0.00000000 Properties=species:S:1:pos:R:3:velocities:R:3:Z:I:1
H         8.45413077       3.41462680      10.51898284         0.00000000       0.00000000       0.00000000          1
H         9.53841190       4.40577913       8.14280069         0.00000000       0.00000000       0.00000000          1
H         7.27191677       5.60532852       9.25112035         0.00000000       0.00000000       0.00000000          1
H         8.23837698       1.93315322       8.16039372         0.00000000       0.00000000       0.00000000          1
H         7.05615265       4.12385042       6.89252621         0.00000000       0.00000000       0.00000000          1
H         5.97187686       3.13270122       9.26870680         0.00000000       0.00000000       0.00000000          1
