6
pbc=[F, F, F] list_num_par=6 frozen=false iter=20000 energy=-1.26974174 Lattice="15.00000000 0.00000000 0.00000000 0.00000000 15.00000000 0.00000000 0.00000000 0.00000000 15.00000000" energy_frozen_part=0.00000000 Properties=species:S:1:pos:R:3:velocities:R:3:Z:I:1
H         4.04638466      11.36755910      12.06683151         0.00000000       0.00000000       0.00000000          1
H         2.28213069      10.17021513      13.87183680         0.00000000       0.00000000       0.00000000          1
H         3.16981807       9.63339515      10.05969822         0.00000000       0.00000000       0.00000000          1
H         4.12655804       8.60501434      12.47451722         0.00000000       0.00000000       0.00000000          1
H         1.32537997      11.19858918      11.45701864         0.00000000       0.00000000       0.00000000          1
H         1.40555999       8.43604978      11.86470487         0.00000000       0.00000000       0.00000000          1
6
pbc=[F, F, F] list_num_par=6 frozen=false iter=20000 energy=-1.26974174 Lattice="15.00000000 0.00000000 0.00000000 0.00000000 15.00000000 0.00000000 0.00000000 0.00000000 15.00000000" energy_frozen_part=0.00000000 Properties=species:S:1:pos:R:3:velocities:R:3:Z:I:1
H         4.08632420      11.26168724      12.30727721         0.00000000       0.00000000       0.00000000          1
H         2.22204983       9.77972162      13.76760141         0.00000000       0.00000000       0.00000000          1
H         3.48595615       9.76747867      10.02447857         0.00000000       0.00000000       0.00000000          1
H         4.26260895       8.47448304      12.37591690         0.00000000       0.00000000       0.00000000          1
H         1.44539944      11.07271044      11.41615686         0.00000000       0.00000000       0.00000000          1
H         1.62168403       8.28550687      11.48479673         0.00000000       0.00000000       0.00000000          1
6
pbc=[F, F, F] list_num_par=6 frozen=false iter=20000 energy=-1.26974174 Lattice="15.00000000 0.00000000 0.00000000 0.00000000 15.00000000 0.00000000 0.00000000 0.00000000 15.00000000" energy_frozen_part=0.00000000 Properties=species:S:1:pos:R:3:velocities:R:3:Z:I:1
H         4.08631714      11.26165400      12.30732311         0.00000000       0.00000000       0.00000000          1
H         2.22204110       9.77968524      13.76764003         0.00000000       0.00000000       0.00000000          1
H         3.48592810       9.76746682      10.02451303         0.00000000       0.00000000       0.00000000          1
H         4.26258213       8.47444872      12.37593833         0.00000000       0.00000000       0.00000000          1
H         1.44538465      11.07269638      11.41621465         0.00000000       0.00000000       0.00000000          1
H         1.62165016       8.28549476      11.48482467         0.00000000       0.00000000       0.00000000          1
6
pbc=[F, F, F] list_num_par=6 frozen=false iter=20000 energy=-1.26974174 Lattice="15.00000000 0.00000000 0.00000000 0.00000000 15.00000000 0.00000000 0.00000000 0.00000000 15.00000000" energy_frozen_part=0.00000000 Properties=species:S:1:pos:R:3:velocities:R:3:Z:I:1
H         4.08617588      11.26153618      12.30723577         0.00000000       0.00000000       0.00000000          1
H         2.22196527       9.77954065      13.76761495         0.00000000       0.00000000       0.00000000          1
H         3.48572982       9.76733228      10.02444875         0.00000000       0.00000000       0.00000000          1
H         4.26248127       8.47433006      12.37584987         0.00000000       0.00000000       0.00000000          1
H         1.44521436      11.07254122      11.41621506         0.00000000       0.00000000       0.00000000          1
H         1.62152112       8.28534011      11.48483184         0.00000000       0.00000000       0.00000000          1
6
pbc=[F, F, F] list_num_par=6 frozen=false iter=20000 energy=-1.26974174 Lattice="15.00000000 0.00000000 0.00000000 0.00000000 15.00000000 0.00000000 0.00000000 0.00000000 15.00000000" energy_frozen_part=0.00000000 Properties=species:S:1:pos:R:3:velocities:R:3:Z:I:1
H         4.04638343      11.36754435      12.06682526         0.00000000       0.00000000       0.00000000          1
H         2.28214193      10.17019124      13.87184126         0.00000000       0.00000000       0.00000000          1
H         3.16979918       9.63338828      10.05969475         0.00000000       0.00000000       0.00000000          1
H         4.12656004       8.60499564      12.47450532         0.00000000       0.00000000       0.00000000          1
H         1.32537333      11.19857798      11.45703875         0.00000000       0.00000000       0.00000000          1
H         1.40555373       8.43603164      11.86471015         0.00000000       0.00000000       0.00000000          1
6
pbc=[F, F, F] list_num_par=6 frozen=false iter=20000 energy=-1.26974174 Lattice="15.00000000 0.00000000 0.00000000 0.00000000 15.00000000 0.00000000 0.00000000 0.00000000 15.00000000" energy_frozen_part=0.00000000 Properties=species:S:1:pos:R:3:velocities:R:3:Z:I:1
H         4.04641863      11.36755786      12.06682161         0.00000000       0.00000000       0.00000000          1
H         2.28216213      10.17018790      13.87180764         0.00000000       0.00000000       0.00000000          1
H         3.16985830       9.63341575      10.05967100         0.00000000       0.00000000       0.00000000          1
H         4.12660542       8.60501420      12.47447826         0.00000000       0.00000000       0.00000000          1
H         1.32541173      11.19858831      11.45700115         0.00000000       0.00000000       0.00000000          1
H         1.40560342       8.43603922      11.86465689         0.00000000       0.00000000       0.00000000          1
6
pbc=[F, F, F] list_num_par=6 frozen=false iter=20000 energy=-1.26974174 Lattice="15.00000000 0.00000000 0.00000000 0.00000000 15.00000000 0.00000000 0.00000000 0.00000000 15.00000000" energy_frozen_part=0.00000000 Properties=species:S:1:pos:R:3:velocities:R:3:Z:I:1
H         4.04639581      11.36757527      12.06679615         0.00000000       0.00000000       0.00000000          1
H         2.28217850      10.17020579      13.87182057         0.00000000       0.00000000       0.00000000          1
H         3.16981442       9.63341448      10.05966530         0.00000000       0.00000000       0.00000000          1
H         4.12660479       8.60503238      12.47446703         0.00000000       0.00000000       0.00000000          1
H         1.32539048      11.19858627      11.45701962         0.00000000       0.00000000       0.00000000          1
H         1.40559533       8.43603855      11.86469135         0.00000000       0.00000000       0.00000000          1
6
pbc=[F, F, F] list_num_par=6 frozen=false iter=20000 energy=-1.26974174 Lattice="15.00000000 0.00000000 0.00000000 0.00000000 15.00000000 0.00000000 0.00000000 0.00000000 15.00000000" energy_frozen_part=0.00000000 Properties=species:S:1:pos:R:3:velocities:R:3:Z:I:1
H         4.04644312      11.36754539      12.06684850         0.00000000       0.00000000       0.00000000          1
H         2.28216133      10.17021167      13.87184590         0.00000000       0.00000000       0.00000000          1
H         3.16986984       9.63338623      10.05971306         0.00000000       0.00000000       0.00000000          1
H         4.12659186       8.60500116      12.47454453         0.00000000       0.00000000       0.00000000          1
H         1.32543805      11.19859827      11.45702011         0.00000000       0.00000000       0.00000000          1
H         1.40558977       8.43605568      11.86470903         0.00000000       0.00000000       0.00000000          1
6
pbc=[F, F, F] list_num_par=6 frozen=false iter=20000 energy=-1.26974174 Lattice="15.00000000 0.00000000 0.00000000 0.00000000 15.00000000 0.00000000 0.00000000 0.00000000 15.00000000" energy_frozen_part=0.00000000 Properties=species:S:1:pos:R:3:velocities:R:3:Z:I:1
H         4.04651774      11.36752321      12.06689197         0.00000000       0.00000000       0.00000000          1
H         2.28224190      10.17024182      13.87192579         0.00000000       0.00000000       0.00000000          1
H         3.16990101       9.63336008      10.05978610         0.00000000       0.00000000       0.00000000          1
H         4.12663119       8.60498051      12.47461516         0.00000000       0.00000000       0.00000000          1
H         1.32551060      11.19861846      11.45709477         0.00000000       0.00000000       0.00000000          1
H         1.40562001       8.43607803      11.86481205         0.00000000       0.00000000       0.00000000          1
6
pbc=[F, F, F] list_num_par=6 frozen=false iter=20000 energy=-1.26974174 Lattice="15.00000000 0.00000000 0.00000000 0.00000000 15.00000000 0.00000000 0.00000000 0.00000000 15.00000000" energy_frozen_part=0.00000000 Properties=species:S:1:pos:R:3:velocities:R:3:Z:I:1
H         4.08614627      11.26151769      12.30724268         0.00000000       0.00000000       0.00000000          1
H         2.22195199       9.77944526      13.76755210         0.00000000       0.00000000       0.00000000          1
H         3.48573130       9.76741088      10.02438384         0.00000000       0.00000000       0.00000000          1
H         4.26248376       8.47431522      12.37572910         0.00000000       0.00000000       0.00000000          1
H         1.44519657      11.07253824      11.41620300         0.00000000       0.00000000       0.00000000          1
H         1.62152891       8.28533643      11.48469620         0.00000000       0.00000000       0.00000000          1
6
pbc=[F, F, F] list_num_par=6 frozen=false iter=20000 energy=-1.26974174 Lattice="15.00000000 0.00000000 0.00000000 0.00000000 15.00000000 0.00000000 0.00000000 0.00000000 15.00000000" energy_frozen_part=0.00000000 Properties=species:S:1:pos:R:3:velocities:R:3:Z:I:1
H         4.04638778      11.36757931      12.06685755         0.00000000       0.00000000       0.00000000          1
H         2.28214730      10.17017684      13.87184242         0.00000000       0.00000000       0.00000000          1
H         3.16982528       9.63345497      10.05968049         0.00000000       0.00000000       0.00000000          1
H         4.12658249       8.60502465      12.47447439         0.00000000       0.00000000       0.00000000          1
H         1.32538656      11.19860464      11.45704419         0.00000000       0.00000000       0.00000000          1
H         1.40558140       8.43605450      11.86466412         0.00000000       0.00000000       0.00000000          1
6
pbc=[F, F, F] list_num_par=6 frozen=false iter=20000 energy=-1.26974174 Lattice="15.00000000 0.00000000 0.00000000 0.00000000 15.00000000 0.00000000 0.00000000 0.00000000 15.00000000" energy_frozen_part=0.00000000 Properties=species:S:1:pos:R:3:velocities:R:3:Z:I:1
H         4.08632746      11.26168055      12.30729130         0.00000000       0.00000000       0.00000000          1
H         2.22204750       9.77972831      13.76761859         0.00000000       0.00000000       0.00000000          1
H         3.48596381       9.76745744      10.02450008         0.00000000       0.00000000       0.00000000          1
H         4.26261144       8.47447971      12.37595113         0.00000000       0.00000000       0.00000000          1
H         1.44540548      11.07270432      11.41616874         0.00000000       0.00000000       0.00000000          1
H         1.62168800       8.28550604      11.48482488         0.00000000       0.00000000       0.00000000          1
6
pbc=[F, F, F] list_num_par=6 frozen=false iter=20000 energy=-1.26974174 Lattice="15.00000000 0.00000000 0.00000000 0.00000000 15.00000000 0.00000000 0.00000000 0.00000000 15.00000000" energy_frozen_part=0.00000000 Properties=species:S:1:pos:R:3:velocities:R:3:Z:I:1
H         4.08633257      11.26168572      12.30728641         0.00000000       0.00000000       0.00000000          1
H         2.22204568       9.77973776      13.76760926         0.00000000       0.00000000       0.00000000          1
H         3.48597344       9.76744779      10.02450237         0.00000000       0.00000000       0.00000000          1
H         4.26260701       8.47447961      12.37595533         0.00000000       0.00000000       0.00000000          1
H         1.44541335      11.07270725      11.41615598         0.00000000       0.00000000       0.00000000          1
H         1.62168509       8.28550020      11.48482735         0.00000000       0.00000000       0.00000000          1
6
pbc=[F, F, F] list_num_par=6 frozen=false iter=20000 energy=-1.26974174 Lattice="15.00000000 0.00000000 0.00000000 0.00000000 15.00000000 0.00000000 0.00000000 0.00000000 15.00000000" energy_frozen_part=0.00000000 Properties=species:S:1:pos:R:3:velocities:R:3:Z:I:1
H         4.04640860      11.36754952      12.06683583         0.00000000       0.00000000       0.00000000          1
H         2.28214618      10.17020872      13.87183796         0.00000000       0.00000000       0.00000000          1
H         3.16983825       9.63338764      10.05969833         0.00000000       0.00000000       0.00000000          1
H         4.12657902       8.60500927      12.47452506         0.00000000       0.00000000       0.00000000          1
H         1.32540038      11.19858396      11.45701415         0.00000000       0.00000000       0.00000000          1
H         1.40557809       8.43604245      11.86470484         0.00000000       0.00000000       0.00000000          1
6
pbc=[F, F, F] list_num_par=6 frozen=false iter=20000 energy=-1.26974174 Lattice="15.00000000 0.00000000 0.00000000 0.00000000 15.00000000 0.00000000 0.00000000 0.00000000 15.00000000" energy_frozen_part=0.00000000 Properties=species:S:1:pos:R:3:velocities:R:3:Z:I:1
H         4.04644888      11.36753567      12.06684346         0.00000000       0.00000000       0.00000000          1
H         2.28216970      10.17021168      13.87184623         0.00000000       0.00000000       0.00000000          1
H         3.16986568       9.63338303      10.05971234         0.00000000       0.00000000       0.00000000          1
H         4.12659839       8.60499268      12.47453660         0.00000000       0.00000000       0.00000000          1
H         1.32544234      11.19860260      11.45702531         0.00000000       0.00000000       0.00000000          1
H         1.40559349       8.43605876      11.86471079         0.00000000       0.00000000       0.00000000          1
6
pbc=[F, F, F] list_num_par=6 frozen=false iter=20000 energy=-1.26974174 Lattice="15.00000000 0.00000000 0.00000000 0.00000000 15.00000000 0.00000000 0.00000000 0.00000000 15.00000000" energy_frozen_part=0.00000000 Properties=species:S:1:pos:R:3:velocities:R:3:Z:I:1
H         4.04664408      11.36740074      12.06685525         0.00000000       0.00000000       0.00000000          1
H         2.28225783      10.17020549      13.87184481         0.00000000       0.00000000       0.00000000          1
H         3.17000206       9.63325791      10.05973455         0.00000000       0.00000000       0.00000000          1
H         4.12662112       8.60486197      12.47459534         0.00000000       0.00000000       0.00000000          1
H         1.32564108      11.19860971      11.45698448         0.00000000       0.00000000       0.00000000          1
H         1.40561913       8.43606953      11.86472160         0.00000000       0.00000000       0.00000000          1
6
pbc=[F, F, F] list_num_par=6 frozen=false iter=20000 energy=-1.26974174 Lattice="15.00000000 0.00000000 0.00000000 0.00000000 15.00000000 0.00000000 0.00000000 0.00000000 15.00000000" energy_frozen_part=0.00000000 Properties=species:S:1:pos:R:3:velocities:R:3:Z:I:1
H         4.08620637      11.26153573      12.30719250         0.00000000       0.00000000       0.00000000          1
H         2.22199386       9.77960000      13.76761244         0.00000000       0.00000000       0.00000000          1
H         3.48572040       9.76730549      10.02443116         0.00000000       0.00000000       0.00000000          1
H         4.26247464       8.47433455      12.37584590         0.00000000       0.00000000       0.00000000          1
H         1.44524242      11.07256877      11.41619517         0.00000000       0.00000000       0.00000000          1
H         1.62150616       8.28536485      11.48485785         0.00000000       0.00000000       0.00000000          1
6
pbc=[F, F, F] list_num_par=6 frozen=false iter=20000 energy=-1.26974174 Lattice="15.00000000 0.00000000 0.00000000 0.00000000 15.00000000 0.00000000 0.00000000 0.00000000 15.00000000" energy_frozen_part=0.00000000 Properties=species:S:1:pos:R:3:velocities:R:3:Z:I:1
H         4.08644242      11.26126376      12.30728313         0.00000000       0.00000000       0.00000000          1
H         2.22197051       9.77965318      13.76771262         0.00000000       0.00000000       0.00000000          1
H         3.48591701       9.76693489      10.02460285         0.00000000       0.00000000       0.00000000          1
H         4.26238378       8.47404744      12.37616332         0.00000000       0.00000000       0.00000000          1
H         1.44550679      11.07254244      11.41614900         0.00000000       0.00000000       0.00000000          1
H         1.62144972       8.28532466      11.48502810         0.00000000       0.00000000       0.00000000          1
6
pbc=[F, F, F] list_num_par=6 frozen=false iter=20000 energy=-1.26974174 Lattice="15.00000000 0.00000000 0.00000000 0.00000000 15.00000000 0.00000000 0.00000000 0.00000000 15.00000000" energy_frozen_part=0.00000000 Properties=species:S:1:pos:R:3:velocities:R:3:Z:I:1
H         4.08631942      11.26168156      12.30731121         0.00000000       0.00000000       0.00000000          1
H         2.22205818       9.77969324      13.76762194         0.00000000       0.00000000       0.00000000          1
H         3.48597104       9.76747597      10.02450667         0.00000000       0.00000000       0.00000000          1
H         4.26262960       8.47448121      12.37593934         0.00000000       0.00000000       0.00000000          1
H         1.44539744      11.07268125      11.41618894         0.00000000       0.00000000       0.00000000          1
H         1.62171182       8.28548018      11.48481246         0.00000000       0.00000000       0.00000000          1
6
pbc=[F, F, F] list_num_par=6 frozen=false iter=20000 energy=-1.26974174 Lattice="15.00000000 0.00000000 0.00000000 0.00000000 15.00000000 0.00000000 0.00000000 0.00000000 15.00000000" energy_frozen_part=0.00000000 Properties=species:S:1:pos:R:3:velocities:R:3:Z:I:1
H         4.04664652      11.36738103      12.06690071         0.00000000       0.00000000       0.00000000          1
H         2.28223713      10.17018058      13.87185505         0.00000000       0.00000000       0.00000000          1
H         3.16999763       9.63328282      10.05974167         0.00000000       0.00000000       0.00000000          1
H         4.12658945       8.60483588      12.47459960         0.00000000       0.00000000       0.00000000          1
H         1.32564921      11.19863059      11.45700204         0.00000000       0.00000000       0.00000000          1
H         1.40559466       8.43608250      11.86470137         0.00000000       0.00000000       0.00000000          1
6
pbc=[F, F, F] list_num_par=6 frozen=false iter=20000 energy=-1.26974174 Lattice="15.00000000 0.00000000 0.00000000 0.00000000 15.00000000 0.00000000 0.00000000 0.00000000 15.00000000" energy_frozen_part=0.00000000 Properties=species:S:1:pos:R:3:velocities:R:3:Z:I:1
H         4.08618200      11.26154510      12.30721659         0.00000000       0.00000000       0.00000000          1
H         2.22196718       9.77957944      13.76761294         0.00000000       0.00000000       0.00000000          1
H         3.48573893       9.76732457      10.02444358         0.00000000       0.00000000       0.00000000          1
H         4.26247686       8.47434747      12.37586477         0.00000000       0.00000000       0.00000000          1
H         1.44522494      11.07256135      11.41619401         0.00000000       0.00000000       0.00000000          1
H         1.62152262       8.28535680      11.48483565         0.00000000       0.00000000       0.00000000          1
6
pbc=[F, F, F] list_num_par=6 frozen=false iter=20000 energy=-1.26974174 Lattice="15.00000000 0.00000000 0.00000000 0.00000000 15.00000000 0.00000000 0.00000000 0.00000000 15.00000000" energy_frozen_part=0.00000000 Properties=species:S:1:pos:R:3:velocities:R:3:Z:I:1
H         4.04667503      11.36739618      12.06682479         0.00000000       0.00000000       0.00000000          1
H         2.28230327      10.17024061      13.87184768         0.00000000       0.00000000       0.00000000          1
H         3.16999915       9.63323144      10.05973905         0.00000000       0.00000000       0.00000000          1
H         4.12663212       8.60485411      12.47460188         0.00000000       0.00000000       0.00000000          1
H         1.32566776      11.19861883      11.45698588         0.00000000       0.00000000       0.00000000          1
H         1.40562001       8.43607922      11.86475881         0.00000000       0.00000000       0.00000000          1
6
pbc=[F, F, F] list_num_par=6 frozen=false iter=20000 energy=-1.26974174 Lattice="15.00000000 0.00000000 0.00000000 0.00000000 15.00000000 0.00000000 0.00000000 0.00000000 15.00000000" energy_frozen_part=0.00000000 Properties=species:S:1:pos:R:3:velocities:R:3:Z:I:1
H         4.04665524      11.36737371      12.06689222         0.00000000       0.00000000       0.00000000          1
H         2.28226595      10.17017227      13.87186465         0.00000000       0.00000000       0.00000000          1
H         3.16998677       9.63327523      10.05973923         0.00000000       0.00000000       0.00000000          1
H         4.12659853       8.60482377      12.47458242         0.00000000       0.00000000       0.00000000          1
H         1.32565167      11.19861787      11.45702204         0.00000000       0.00000000       0.00000000          1
H         1.40559782       8.43607251      11.86471754         0.00000000       0.00000000       0.00000000          1
6
pbc=[F, F, F] list_num_par=6 frozen=false iter=20000 energy=-1.26974174 Lattice="15.00000000 0.00000000 0.00000000 0.00000000 15.00000000 0.00000000 0.00000000 0.00000000 15.00000000" energy_frozen_part=0.00000000 Properties=species:S:1:pos:R:3:velocities:R:3:Z:I:1
H         4.08619305      11.26154138      12.30720538         0.00000000       0.00000000       0.00000000          1
H         2.22198088       9.77959124      13.76763276         0.00000000       0.00000000       0.00000000          1
H         3.48572196       9.76730897      10.02444833         0.00000000       0.00000000       0.00000000          1
H         4.26248072       8.47434464      12.37586987         0.00000000       0.00000000       0.00000000          1
H         1.44522741      11.07255607      11.41621229         0.00000000       0.00000000       0.00000000          1
H         1.62151566       8.28535676      11.48487327         0.00000000       0.00000000       0.00000000          1
6
pbc=[F, F, F] list_num_par=6 frozen=false iter=20000 energy=-1.26974174 Lattice="15.00000000 0.00000000 0.00000000 0.00000000 15.00000000 0.00000000 0.00000000 0.00000000 15.00000000" energy_frozen_part=0.00000000 Properties=species:S:1:pos:R:3:velocities:R:3:Z:I:1
H         4.04664352      11.36739807      12.06685021         0.00000000       0.00000000       0.00000000          1
H         2.28227400      10.17021122      13.87184923         0.00000000       0.00000000       0.00000000          1
H         3.16999527       9.63326076      10.05972819         0.00000000       0.00000000       0.00000000          1
H         4.12662958       8.60485891      12.47458687         0.00000000       0.00000000       0.00000000          1
H         1.32564180      11.19861225      11.45699068         0.00000000       0.00000000       0.00000000          1
H         1.40562570       8.43607281      11.86472707         0.00000000       0.00000000       0.00000000          1
6
pbc=[F, F, F] list_num_par=6 frozen=false iter=20000 energy=-1.26974174 Lattice="15.00000000 0.00000000 0.00000000 0.00000000 15.00000000 0.00000000 0.00000000 0.00000000 15.00000000" energy_frozen_part=0.00000000 Properties=species:S:1:pos:R:3:velocities:R:3:Z:I:1
H         4.04647956      11.36752955      12.06686510         0.00000000       0.00000000       0.00000000          1
H         2.28222896      10.17022674      13.87190332         0.00000000       0.00000000       0.00000000          1
H         3.16986144       9.63335029      10.05976216         0.00000000       0.00000000       0.00000000          1
H         4.12662399       8.60498667      12.47457831         0.00000000       0.00000000       0.00000000          1
H         1.32547107      11.19859820      11.45708568         0.00000000       0.00000000       0.00000000          1
H         1.40560928       8.43605484      11.86480394         0.00000000       0.00000000       0.00000000          1
6
pbc=[F, F, F] list_num_par=6 frozen=false iter=20000 energy=-1.26974174 Lattice="15.00000000 0.00000000 0.00000000 0.00000000 15.00000000 0.00000000 0.00000000 0.00000000 15.00000000" energy_frozen_part=0.00000000 Properties=species:S:1:pos:R:3:velocities:R:3:Z:I:1
H         4.08619326      11.26154058      12.30720029         0.00000000       0.00000000       0.00000000          1
H         2.22198150       9.77960318      13.76762956         0.00000000       0.00000000       0.00000000          1
H         3.48571299       9.76730435      10.02444730         0.00000000       0.00000000       0.00000000          1
H         4.26247178       8.47434455      12.37586840         0.00000000       0.00000000       0.00000000          1
H         1.44522754      11.07256185      11.41620463         0.00000000       0.00000000       0.00000000          1
H         1.62151000       8.28535874      11.48487863         0.00000000       0.00000000       0.00000000          1
6
pbc=[F, F, F] list_num_par=6 frozen=false iter=20000 energy=-1.26974174 Lattice="15.00000000 0.00000000 0.00000000 0.00000000 15.00000000 0.00000000 0.00000000 0.00000000 15.00000000" energy_frozen_part=0.00000000 Properties=species:S:1:pos:R:3:velocities:R:3:Z:I:1
H         4.08631813      11.26168206      12.30729076         0.00000000       0.00000000       0.00000000          1
H         2.22205581       9.77970232      13.76761387         0.00000000       0.00000000       0.00000000          1
H         3.48596389       9.76746079      10.02449551         0.00000000       0.00000000       0.00000000          1
H         4.26263151       8.47448172      12.37594109         0.00000000       0.00000000       0.00000000          1
H         1.44539848      11.07268083      11.41617192         0.00000000       0.00000000       0.00000000          1
H         1.62171002       8.28547923      11.48481709         0.00000000       0.00000000       0.00000000          1
6
pbc=[F, F, F] list_num_par=6 frozen=false iter=20000 energy=-1.26974174 Lattice="15.00000000 0.00000000 0.00000000 0.00000000 15.00000000 0.00000000 0.00000000 0.00000000 15.00000000" energy_frozen_part=0.00000000 Properties=species:S:1:pos:R:3:velocities:R:3:Z:I:1
H         4.08633016      11.26168425      12.30729281         0.00000000       0.00000000       0.00000000          1
H         2.22205928       9.77971147      13.76762118         0.00000000       0.00000000       0.00000000          1
H         3.48595434       9.76747638      10.02449000         0.00000000       0.00000000       0.00000000          1
H         4.26261121       8.47448696      12.37592721         0.00000000       0.00000000       0.00000000          1
H         1.44540521      11.07270482      11.41618461         0.00000000       0.00000000       0.00000000          1
H         1.62168386       8.28550488      11.48481711         0.00000000       0.00000000       0.00000000          1
6
pbc=[F, F, F] list_num_par=6 frozen=false iter=20000 energy=-1.26974174 Lattice="15.00000000 0.00000000 0.00000000 0.00000000 15.00000000 0.00000000 0.00000000 0.00000000 15.00000000" energy_frozen_part=0.00000000 Properties=species:S:1:pos:R:3:velocities:R:3:Z:I:1
H         4.04640310      11.36757039      12.06687658         0.00000000       0.00000000       0.00000000          1
H         2.28214625      10.17017254      13.87185266         0.00000000       0.00000000       0.00000000          1
H         3.16983790       9.63346142      10.05969286         0.00000000       0.00000000       0.00000000          1
H         4.12658017       8.60501756      12.47448241         0.00000000       0.00000000       0.00000000          1
H         1.32540099      11.19861485      11.45706028         0.00000000       0.00000000       0.00000000          1
H         1.40558038       8.43606378      11.86466649         0.00000000       0.00000000       0.00000000          1
6
pbc=[F, F, F] list_num_par=6 frozen=false iter=20000 energy=-1.26974174 Lattice="15.00000000 0.00000000 0.00000000 0.00000000 15.00000000 0.00000000 0.00000000 0.00000000 15.00000000" energy_frozen_part=0.00000000 Properties=species:S:1:pos:R:3:velocities:R:3:Z:I:1
H         4.08631376      11.26168305      12.30732817         0.00000000       0.00000000       0.00000000          1
H         2.22205243       9.77967257      13.76762282         0.00000000       0.00000000       0.00000000          1
H         3.48598131       9.76748736      10.02450746         0.00000000       0.00000000       0.00000000          1
H         4.26264049       8.47448592      12.37593875         0.00000000       0.00000000       0.00000000          1
H         1.44539577      11.07267654      11.41619054         0.00000000       0.00000000       0.00000000          1
H         1.62172474       8.28547368      11.48479717         0.00000000       0.00000000       0.00000000          1
6
pbc=[F, F, F] list_num_par=6 frozen=false iter=20000 energy=-1.26974174 Lattice="15.00000000 0.00000000 0.00000000 0.00000000 15.00000000 0.00000000 0.00000000 0.00000000 15.00000000" energy_frozen_part=0.00000000 Properties=species:S:1:pos:R:3:velocities:R:3:Z:I:1
H         4.04664592      11.36738160      12.06684702         0.00000000       0.00000000       0.00000000          1
H         2.28225971      10.17020258      13.87183831         0.00000000       0.00000000       0.00000000          1
H         3.16998838       9.63324537      10.05972250         0.00000000       0.00000000       0.00000000          1
H         4.12660949       8.60484413      12.47458452         0.00000000       0.00000000       0.00000000          1
H         1.32564220      11.19860519      11.45697803         0.00000000       0.00000000       0.00000000          1
H         1.40560208       8.43606690      11.86471815         0.00000000       0.00000000       0.00000000          1
6
pbc=[F, F, F] list_num_par=6 frozen=false iter=20000 energy=-1.26974174 Lattice="15.00000000 0.00000000 0.00000000 0.00000000 15.00000000 0.00000000 0.00000000 0.00000000 15.00000000" energy_frozen_part=0.00000000 Properties=species:S:1:pos:R:3:velocities:R:3:Z:I:1
H         4.08618873      11.26153696      12.30722071         0.00000000       0.00000000       0.00000000          1
H         2.22197060       9.77958740      13.76762525         0.00000000       0.00000000       0.00000000          1
H         3.48572899       9.76730614      10.02445695         0.00000000       0.00000000       0.00000000          1
H         4.26247347       8.47433628      12.37587237         0.00000000       0.00000000       0.00000000          1
H         1.44522871      11.07255691      11.41620260         0.00000000       0.00000000       0.00000000          1
H         1.62150898       8.28535528      11.48486791         0.00000000       0.00000000       0.00000000          1
6
pbc=[F, F, F] list_num_par=6 frozen=false iter=20000 energy=-1.26974174 Lattice="15.00000000 0.00000000 0.00000000 0.00000000 15.00000000 0.00000000 0.00000000 0.00000000 15.00000000" energy_frozen_part=0.00000000 Properties=species:S:1:pos:R:3:velocities:R:3:Z:I:1
H         4.08631231      11.26166228      12.30730419         0.00000000       0.00000000       0.00000000          1
H         2.22204318       9.77969699      13.76763583         0.00000000       0.00000000       0.00000000          1
H         3.48591842       9.76746504      10.02450595         0.00000000       0.00000000       0.00000000          1
H         4.26258773       8.47446139      12.37593892         0.00000000       0.00000000       0.00000000          1
H         1.44538241      11.07270145      11.41620740         0.00000000       0.00000000       0.00000000          1
H         1.62165338       8.28549692      11.48483725         0.00000000       0.00000000       0.00000000          1
6
pbc=[F, F, F] list_num_par=6 frozen=false iter=20000 energy=-1.26974174 Lattice="15.00000000 0.00000000 0.00000000 0.00000000 15.00000000 0.00000000 0.00000000 0.00000000 15.00000000" energy_frozen_part=0.00000000 Properties=species:S:1:pos:R:3:velocities:R:3:Z:I:1
H         4.04641099      11.36755954      12.06681494         0.00000000       0.00000000       0.00000000          1
H         2.28216393      10.17018871      13.87181990         0.00000000       0.00000000       0.00000000          1
H         3.16985269       9.63340643      10.05966922         0.00000000       0.00000000       0.00000000          1
H         4.12660691       8.60501399      12.47448282         0.00000000       0.00000000       0.00000000          1
H         1.32541227      11.19858604      11.45700866         0.00000000       0.00000000       0.00000000          1
H         1.40560386       8.43603837      11.86466717         0.00000000       0.00000000       0.00000000          1
6
pbc=[F, F, F] list_num_par=6 frozen=false iter=20000 energy=-1.26974174 Lattice="15.00000000 0.00000000 0.00000000 0.00000000 15.00000000 0.00000000 0.00000000 0.00000000 15.00000000" energy_frozen_part=0.00000000 Properties=species:S:1:pos:R:3:velocities:R:3:Z:I:1
H         4.04641904      11.36756043      12.06681466         0.00000000       0.00000000       0.00000000          1
H         2.28216861      10.17019483      13.87180956         0.00000000       0.00000000       0.00000000          1
H         3.16984439       9.63341052      10.05966569         0.00000000       0.00000000       0.00000000          1
H         4.12660169       8.60500758      12.47447182         0.00000000       0.00000000       0.00000000          1
H         1.32541236      11.19859475      11.45700502         0.00000000       0.00000000       0.00000000          1
H         1.40559753       8.43604439      11.86466278         0.00000000       0.00000000       0.00000000          1
6
pbc=[F, F, F] list_num_par=6 frozen=false iter=20000 energy=-1.26974174 Lattice="15.00000000 0.00000000 0.00000000 0.00000000 15.00000000 0.00000000 0.00000000 0.00000000 15.00000000" energy_frozen_part=0.00000000 Properties=species:S:1:pos:R:3:velocities:R:3:Z:I:1
H         4.08619007      11.26153041      12.30722769         0.00000000       0.00000000       0.00000000          1
H         2.22196493       9.77956791      13.76761271         0.00000000       0.00000000       0.00000000          1
H         3.48573322       9.76732046      10.02444630         0.00000000       0.00000000       0.00000000          1
H         4.26247020       8.47433121      12.37585962         0.00000000       0.00000000       0.00000000          1
H         1.44523503      11.07256191      11.41620044         0.00000000       0.00000000       0.00000000          1
H         1.62151485       8.28535874      11.48484001         0.00000000       0.00000000       0.00000000          1
6
pbc=[F, F, F] list_num_par=6 frozen=false iter=20000 energy=-1.26974174 Lattice="15.00000000 0.00000000 0.00000000 0.00000000 15.00000000 0.00000000 0.00000000 0.00000000 15.00000000" energy_frozen_part=0.00000000 Properties=species:S:1:pos:R:3:velocities:R:3:Z:I:1
H         4.04652657      11.36752781      12.06688169         0.00000000       0.00000000       0.00000000          1
H         2.28225872      10.17024696      13.87192333         0.00000000       0.00000000       0.00000000          1
H         3.16989572       9.63335880      10.05978221         0.00000000       0.00000000       0.00000000          1
H         4.12663904       8.60498585      12.47461162         0.00000000       0.00000000       0.00000000          1
H         1.32551631      11.19862136      11.45710101         0.00000000       0.00000000       0.00000000          1
H         1.40562651       8.43608073      11.86482006         0.00000000       0.00000000       0.00000000          1
6
pbc=[F, F, F] list_num_par=6 frozen=false iter=20000 energy=-1.26974174 Lattice="15.00000000 0.00000000 0.00000000 0.00000000 15.00000000 0.00000000 0.00000000 0.00000000 15.00000000" energy_frozen_part=0.00000000 Properties=species:S:1:pos:R:3:velocities:R:3:Z:I:1
H         4.04639736      11.36755426      12.06683223         0.00000000       0.00000000       0.00000000          1
H         2.28214020      10.17021509      13.87184337         0.00000000       0.00000000       0.00000000          1
H         3.16983206       9.63338930      10.05970106         0.00000000       0.00000000       0.00000000          1
H         4.12657075       8.60501257      12.47452410         0.00000000       0.00000000       0.00000000          1
H         1.32539634      11.19858648      11.45701529         0.00000000       0.00000000       0.00000000          1
H         1.40556905       8.43604639      11.86470572         0.00000000       0.00000000       0.00000000          1
6
pbc=[F, F, F] list_num_par=6 frozen=false iter=20000 energy=-1.26974174 Lattice="15.00000000 0.00000000 0.00000000 0.00000000 15.00000000 0.00000000 0.00000000 0.00000000 15.00000000" energy_frozen_part=0.00000000 Properties=species:S:1:pos:R:3:velocities:R:3:Z:I:1
H         4.04639194      11.36757828      12.06685145         0.00000000       0.00000000       0.00000000          1
H         2.28215119      10.17017981      13.87183590         0.00000000       0.00000000       0.00000000          1
H         3.16983250       9.63345055      10.05967739         0.00000000       0.00000000       0.00000000          1
H         4.12659712       8.60503207      12.47447721         0.00000000       0.00000000       0.00000000          1
H         1.32538823      11.19860397      11.45703740         0.00000000       0.00000000       0.00000000          1
H         1.40559574       8.43605319      11.86466354         0.00000000       0.00000000       0.00000000          1
6
pbc=[F, F, F] list_num_par=6 frozen=false iter=20000 energy=-1.26974174 Lattice="15.00000000 0.00000000 0.00000000 0.00000000 15.00000000 0.00000000 0.00000000 0.00000000 15.00000000" energy_frozen_part=0.00000000 Properties=species:S:1:pos:R:3:velocities:R:3:Z:I:1
H         4.04638332      11.36753987      12.06682508         0.00000000       0.00000000       0.00000000          1
H         2.28213648      10.17019076      13.87184494         0.00000000       0.00000000       0.00000000          1
H         3.16979628       9.63338136      10.05969362         0.00000000       0.00000000       0.00000000          1
H         4.12655606       8.60499638      12.47450616         0.00000000       0.00000000       0.00000000          1
H         1.32537697      11.19858437      11.45703208         0.00000000       0.00000000       0.00000000          1
H         1.40554590       8.43603678      11.86471331         0.00000000       0.00000000       0.00000000          1
6
pbc=[F, F, F] list_num_par=6 frozen=false iter=20000 energy=-1.26974174 Lattice="15.00000000 0.00000000 0.00000000 0.00000000 15.00000000 0.00000000 0.00000000 0.00000000 15.00000000" energy_frozen_part=0.00000000 Properties=species:S:1:pos:R:3:velocities:R:3:Z:I:1
H         4.08630156      11.26169158      12.30728262         0.00000000       0.00000000       0.00000000          1
H         2.22203210       9.77971344      13.76759847         0.00000000       0.00000000       0.00000000          1
H         3.48595262       9.76747476      10.02448263         0.00000000       0.00000000       0.00000000          1
H         4.26260628       8.47448941      12.37592452         0.00000000       0.00000000       0.00000000          1
H         1.44538541      11.07270394      11.41615575         0.00000000       0.00000000       0.00000000          1
H         1.62168561       8.28550145      11.48479597         0.00000000       0.00000000       0.00000000          1
6
pbc=[F, F, F] list_num_par=6 frozen=false iter=20000 energy=-1.26974174 Lattice="15.00000000 0.00000000 0.00000000 0.00000000 15.00000000 0.00000000 0.00000000 0.00000000 15.00000000" energy_frozen_part=0.00000000 Properties=species:S:1:pos:R:3:velocities:R:3:Z:I:1
H         4.04641424      11.36756560      12.06682061         0.00000000       0.00000000       0.00000000          1
H         2.28219532      10.17018151      13.87183285         0.00000000       0.00000000       0.00000000          1
H         3.16982799       9.63342273      10.05967682         0.00000000       0.00000000       0.00000000          1
H         4.12661213       8.60501506      12.47446958         0.00000000       0.00000000       0.00000000          1
H         1.32540387      11.19859051      11.45704092         0.00000000       0.00000000       0.00000000          1
H         1.40560200       8.43604246      11.86468654         0.00000000       0.00000000       0.00000000          1
6
pbc=[F, F, F] list_num_par=6 frozen=false iter=20000 energy=-1.26974174 Lattice="15.00000000 0.00000000 0.00000000 0.00000000 15.00000000 0.00000000 0.00000000 0.00000000 15.00000000" energy_frozen_part=0.00000000 Properties=species:S:1:pos:R:3:velocities:R:3:Z:I:1
H         4.04638783      11.36758137      12.06684518         0.00000000       0.00000000       0.00000000          1
H         2.28214716      10.17017424      13.87183204         0.00000000       0.00000000       0.00000000          1
H         3.16982410       9.63345100      10.05967895         0.00000000       0.00000000       0.00000000          1
H         4.12658705       8.60502681      12.47446845         0.00000000       0.00000000       0.00000000          1
H         1.32538386      11.19860214      11.45703935         0.00000000       0.00000000       0.00000000          1
H         1.40557992       8.43604639      11.86466403         0.00000000       0.00000000       0.00000000          1
6
pbc=[F, F, F] list_num_par=6 frozen=false iter=20000 energy=-1.26974174 Lattice="15.00000000 0.00000000 0.00000000 0.00000000 15.00000000 0.00000000 0.00000000 0.00000000 15.00000000" energy_frozen_part=0.00000000 Properties=species:S:1:pos:R:3:velocities:R:3:Z:I:1
H         4.08629711      11.26165708      12.30730140         0.00000000       0.00000000       0.00000000          1
H         2.22202297       9.77970008      13.76763197         0.00000000       0.00000000       0.00000000          1
H         3.48590286       9.76745203      10.02450400         0.00000000       0.00000000       0.00000000          1
H         4.26256535       8.47445051      12.37593556         0.00000000       0.00000000       0.00000000          1
H         1.44536778      11.07269565      11.41620068         0.00000000       0.00000000       0.00000000          1
H         1.62163392       8.28548953      11.48483419         0.00000000       0.00000000       0.00000000          1
6
pbc=[F, F, F] list_num_par=6 frozen=false iter=20000 energy=-1.26974174 Lattice="15.00000000 0.00000000 0.00000000 0.00000000 15.00000000 0.00000000 0.00000000 0.00000000 15.00000000" energy_frozen_part=0.00000000 Properties=species:S:1:pos:R:3:velocities:R:3:Z:I:1
H         4.04666607      11.36736297      12.06689604         0.00000000       0.00000000       0.00000000          1
H         2.28224793      10.17017673      13.87185862         0.00000000       0.00000000       0.00000000          1
H         3.17001107       9.63325699      10.05974898         0.00000000       0.00000000       0.00000000          1
H         4.12659578       8.60481394      12.47460786         0.00000000       0.00000000       0.00000000          1
H         1.32566303      11.19861667      11.45699985         0.00000000       0.00000000       0.00000000          1
H         1.40559773       8.43607280      11.86471217         0.00000000       0.00000000       0.00000000          1
6
pbc=[F, F, F] list_num_par=6 frozen=false iter=20000 energy=-1.26974174 Lattice="15.00000000 0.00000000 0.00000000 0.00000000 15.00000000 0.00000000 0.00000000 0.00000000 15.00000000" energy_frozen_part=0.00000000 Properties=species:S:1:pos:R:3:velocities:R:3:Z:I:1
H         4.08619203      11.26154041      12.30720908         0.00000000       0.00000000       0.00000000          1
H         2.22197890       9.77959642      13.76763408         0.00000000       0.00000000       0.00000000          1
H         3.48572111       9.76731211      10.02445147         0.00000000       0.00000000       0.00000000          1
H         4.26247368       8.47434180      12.37587186         0.00000000       0.00000000       0.00000000          1
H         1.44522636      11.07256351      11.41621194         0.00000000       0.00000000       0.00000000          1
H         1.62151312       8.28536118      11.48487118         0.00000000       0.00000000       0.00000000          1
6
pbc=[F, F, F] list_num_par=6 frozen=false iter=20000 energy=-1.26974174 Lattice="15.00000000 0.00000000 0.00000000 0.00000000 15.00000000 0.00000000 0.00000000 0.00000000 15.00000000" energy_frozen_part=0.00000000 Properties=species:S:1:pos:R:3:velocities:R:3:Z:I:1
H         4.08632746      11.26168970      12.30728256         0.00000000       0.00000000       0.00000000          1
H         2.22204835       9.77971718      13.76759722         0.00000000       0.00000000       0.00000000          1
H         3.48596319       9.76748280      10.02447564         0.00000000       0.00000000       0.00000000          1
H         4.26261453       8.47449228      12.37591642         0.00000000       0.00000000       0.00000000          1
H         1.44540657      11.07271333      11.41615707         0.00000000       0.00000000       0.00000000          1
H         1.62168800       8.28550808      11.48479276         0.00000000       0.00000000       0.00000000          1
6
pbc=[F, F, F] list_num_par=6 frozen=false iter=20000 energy=-1.26974174 Lattice="15.00000000 0.00000000 0.00000000 0.00000000 15.00000000 0.00000000 0.00000000 0.00000000 15.00000000" energy_frozen_part=0.00000000 Properties=species:S:1:pos:R:3:velocities:R:3:Z:I:1
H         4.04637768      11.36756030      12.06681341         0.00000000       0.00000000       0.00000000          1
H         2.28212390      10.17020047      13.87180800         0.00000000       0.00000000       0.00000000          1
H         3.16982500       9.63340217      10.05966792         0.00000000       0.00000000       0.00000000          1
H         4.12657418       8.60501858      12.47448745         0.00000000       0.00000000       0.00000000          1
H         1.32538124      11.19858957      11.45698642         0.00000000       0.00000000       0.00000000          1
H         1.40556853       8.43604431      11.86466458         0.00000000       0.00000000       0.00000000          1
6
pbc=[F, F, F] list_num_par=6 frozen=false iter=20000 energy=-1.26974174 Lattice="15.00000000 0.00000000 0.00000000 0.00000000 15.00000000 0.00000000 0.00000000 0.00000000 15.00000000" energy_frozen_part=0.00000000 Properties=species:S:1:pos:R:3:velocities:R:3:Z:I:1
H         4.04642700      11.36754539      12.06684367         0.00000000       0.00000000       0.00000000          1
H         2.28215502      10.17020772      13.87184649         0.00000000       0.00000000       0.00000000          1
H         3.16985866       9.63338730      10.05970716         0.00000000       0.00000000       0.00000000          1
H         4.12658484       8.60500392      12.47453588         0.00000000       0.00000000       0.00000000          1
H         1.32542743      11.19859311      11.45702316         0.00000000       0.00000000       0.00000000          1
H         1.40558637       8.43605013      11.86470238         0.00000000       0.00000000       0.00000000          1
6
pbc=[F, F, F] list_num_par=6 frozen=false iter=20000 energy=-1.26974174 Lattice="15.00000000 0.00000000 0.00000000 0.00000000 15.00000000 0.00000000 0.00000000 0.00000000 15.00000000" energy_frozen_part=0.00000000 Properties=species:S:1:pos:R:3:velocities:R:3:Z:I:1
H         4.08631347      11.26168760      12.30729376         0.00000000       0.00000000       0.00000000          1
H         2.22203283       9.77971529      13.76760044         0.00000000       0.00000000       0.00000000          1
H         3.48596652       9.76747183      10.02449049         0.00000000       0.00000000       0.00000000          1
H         4.26260180       8.47448218      12.37593666         0.00000000       0.00000000       0.00000000          1
H         1.44539451      11.07270991      11.41615313         0.00000000       0.00000000       0.00000000          1
H         1.62168542       8.28550325      11.48479788         0.00000000       0.00000000       0.00000000          1
6
pbc=[F, F, F] list_num_par=6 frozen=false iter=20000 energy=-1.26974174 Lattice="15.00000000 0.00000000 0.00000000 0.00000000 15.00000000 0.00000000 0.00000000 0.00000000 15.00000000" energy_frozen_part=0.00000000 Properties=species:S:1:pos:R:3:velocities:R:3:Z:I:1
H         4.08618469      11.26156555      12.30720046         0.00000000       0.00000000       0.00000000          1
H         2.22199518       9.77960529      13.76763626         0.00000000       0.00000000       0.00000000          1
H         3.48570407       9.76732140      10.02444635         0.00000000       0.00000000       0.00000000          1
H         4.26248113       8.47436423      12.37586013         0.00000000       0.00000000       0.00000000          1
H         1.44521218      11.07256183      11.41621748         0.00000000       0.00000000       0.00000000          1
H         1.62151142       8.28536331      11.48488820         0.00000000       0.00000000       0.00000000          1
6
pbc=[F, F, F] list_num_par=6 frozen=false iter=20000 energy=-1.26974174 Lattice="15.00000000 0.00000000 0.00000000 0.00000000 15.00000000 0.00000000 0.00000000 0.00000000 15.00000000" energy_frozen_part=0.00000000 Properties=species:S:1:pos:R:3:velocities:R:3:Z:I:1
H         4.04639572      11.36759028      12.06686153         0.00000000       0.00000000       0.00000000          1
H         2.28214042      10.17019085      13.87183413         0.00000000       0.00000000       0.00000000          1
H         3.16982646       9.63347525      10.05968644         0.00000000       0.00000000       0.00000000          1
H         4.12657912       8.60503472      12.47447867         0.00000000       0.00000000       0.00000000          1
H         1.32539360      11.19863270      11.45704528         0.00000000       0.00000000       0.00000000          1
H         1.40557326       8.43607306      11.86465808         0.00000000       0.00000000       0.00000000          1
6
pbc=[F, F, F] list_num_par=6 frozen=false iter=20000 energy=-1.26974174 Lattice="15.00000000 0.00000000 0.00000000 0.00000000 15.00000000 0.00000000 0.00000000 0.00000000 15.00000000" energy_frozen_part=0.00000000 Properties=species:S:1:pos:R:3:velocities:R:3:Z:I:1
H         4.08629012      11.26165484      12.30729538         0.00000000       0.00000000       0.00000000          1
H         2.22202356       9.77969207      13.76763143         0.00000000       0.00000000       0.00000000          1
H         3.48589112       9.76744556      10.02450108         0.00000000       0.00000000       0.00000000          1
H         4.26256279       8.47445146      12.37592859         0.00000000       0.00000000       0.00000000          1
H         1.44535965      11.07268777      11.41620007         0.00000000       0.00000000       0.00000000          1
H         1.62163001       8.28548027      11.48483764         0.00000000       0.00000000       0.00000000          1
6
pbc=[F, F, F] list_num_par=6 frozen=false iter=20000 energy=-1.26974174 Lattice="15.00000000 0.00000000 0.00000000 0.00000000 15.00000000 0.00000000 0.00000000 0.00000000 15.00000000" energy_frozen_part=0.00000000 Properties=species:S:1:pos:R:3:velocities:R:3:Z:I:1
H         4.04637909      11.36754971      12.06682899         0.00000000       0.00000000       0.00000000          1
H         2.28212523      10.17020453      13.87184263         0.00000000       0.00000000       0.00000000          1
H         3.16981664       9.63338367      10.05969882         0.00000000       0.00000000       0.00000000          1
H         4.12656259       8.60500814      12.47452396         0.00000000       0.00000000       0.00000000          1
H         1.32537683      11.19858221      11.45701865         0.00000000       0.00000000       0.00000000          1
H         1.40556129       8.43603984      11.86471071         0.00000000       0.00000000       0.00000000          1
6
pbc=[F, F, F] list_num_par=6 frozen=false iter=20000 energy=-1.26974174 Lattice="15.00000000 0.00000000 0.00000000 0.00000000 15.00000000 0.00000000 0.00000000 0.00000000 15.00000000" energy_frozen_part=0.00000000 Properties=species:S:1:pos:R:3:velocities:R:3:Z:I:1
H         4.08620517      11.26154148      12.30718758         0.00000000       0.00000000       0.00000000          1
H         2.22199420       9.77958704      13.76760417         0.00000000       0.00000000       0.00000000          1
H         3.48574952       9.76729794      10.02443350         0.00000000       0.00000000       0.00000000          1
H         4.26250364       8.47433921      12.37586179         0.00000000       0.00000000       0.00000000          1
H         1.44524165      11.07254015      11.41618257         0.00000000       0.00000000       0.00000000          1
H         1.62154128       8.28533875      11.48485199         0.00000000       0.00000000       0.00000000          1
6
pbc=[F, F, F] list_num_par=6 frozen=false iter=20000 energy=-1.26974174 Lattice="15.00000000 0.00000000 0.00000000 0.00000000 15.00000000 0.00000000 0.00000000 0.00000000 15.00000000" energy_frozen_part=0.00000000 Properties=species:S:1:pos:R:3:velocities:R:3:Z:I:1
H         4.04639603      11.36758039      12.06686781         0.00000000       0.00000000       0.00000000          1
H         2.28214660      10.17017745      13.87184446         0.00000000       0.00000000       0.00000000          1
H         3.16983478       9.63346228      10.05968964         0.00000000       0.00000000       0.00000000          1
H         4.12658708       8.60502067      12.47448398         0.00000000       0.00000000       0.00000000          1
H         1.32539162      11.19861603      11.45705070         0.00000000       0.00000000       0.00000000          1
H         1.40558070       8.43606100      11.86466538         0.00000000       0.00000000       0.00000000          1
6
pbc=[F, F, F] list_num_par=6 frozen=false iter=20000 energy=-1.26974174 Lattice="15.00000000 0.00000000 0.00000000 0.00000000 15.00000000 0.00000000 0.00000000 0.00000000 15.00000000" energy_frozen_part=0.00000000 Properties=species:S:1:pos:R:3:velocities:R:3:Z:I:1
H         4.04666553      11.36735889      12.06689320         0.00000000       0.00000000       0.00000000          1
H         2.28225160      10.17017599      13.87185263         0.00000000       0.00000000       0.00000000          1
H         3.17000620       9.63325980      10.05974228         0.00000000       0.00000000       0.00000000          1
H         4.12659270       8.60480942      12.47459916         0.00000000       0.00000000       0.00000000          1
H         1.32566530      11.19862518      11.45699484         0.00000000       0.00000000       0.00000000          1
H         1.40559356       8.43608038      11.86469675         0.00000000       0.00000000       0.00000000          1
6
pbc=[F, F, F] list_num_par=6 frozen=false iter=20000 energy=-1.26974174 Lattice="15.00000000 0.00000000 0.00000000 0.00000000 15.00000000 0.00000000 0.00000000 0.00000000 15.00000000" energy_frozen_part=0.00000000 Properties=species:S:1:pos:R:3:velocities:R:3:Z:I:1
H         4.08632943      11.26167363      12.30727954         0.00000000       0.00000000       0.00000000          1
H         2.22205893       9.77970016      13.76759280         0.00000000       0.00000000       0.00000000          1
H         3.48596035       9.76747590      10.02446937         0.00000000       0.00000000       0.00000000          1
H         4.26261941       8.47447095      12.37590238         0.00000000       0.00000000       0.00000000          1
H         1.44540479      11.07269500      11.41615779         0.00000000       0.00000000       0.00000000          1
H         1.62169504       8.28549276      11.48478966         0.00000000       0.00000000       0.00000000          1
6
pbc=[F, F, F] list_num_par=6 frozen=false iter=20000 energy=-1.26974174 Lattice="15.00000000 0.00000000 0.00000000 0.00000000 15.00000000 0.00000000 0.00000000 0.00000000 15.00000000" energy_frozen_part=0.00000000 Properties=species:S:1:pos:R:3:velocities:R:3:Z:I:1
H         4.04642947      11.36754592      12.06684569         0.00000000       0.00000000       0.00000000          1
H         2.28216041      10.17021004      13.87184117         0.00000000       0.00000000       0.00000000          1
H         3.16985495       9.63339089      10.05970221         0.00000000       0.00000000       0.00000000          1
H         4.12659238       8.60500340      12.47452076         0.00000000       0.00000000       0.00000000          1
H         1.32543083      11.19859756      11.45701658         0.00000000       0.00000000       0.00000000          1
H         1.40558826       8.43605223      11.86470211         0.00000000       0.00000000       0.00000000          1
6
pbc=[F, F, F] list_num_par=6 frozen=false iter=20000 energy=-1.26974174 Lattice="15.00000000 0.00000000 0.00000000 0.00000000 15.00000000 0.00000000 0.00000000 0.00000000 15.00000000" energy_frozen_part=0.00000000 Properties=species:S:1:pos:R:3:velocities:R:3:Z:I:1
H         4.04638648      11.36754392      12.06683686         0.00000000       0.00000000       0.00000000          1
H         2.28214163      10.17018849      13.87184719         0.00000000       0.00000000       0.00000000          1
H         3.16980096       9.63338500      10.05969835         0.00000000       0.00000000       0.00000000          1
H         4.12656577       8.60499583      12.47450417         0.00000000       0.00000000       0.00000000          1
H         1.32537834      11.19857782      11.45703592         0.00000000       0.00000000       0.00000000          1
H         1.40556060       8.43603136      11.86471545         0.00000000       0.00000000       0.00000000          1
6
pbc=[F, F, F] list_num_par=6 frozen=false iter=20000 energy=-1.26974174 Lattice="15.00000000 0.00000000 0.00000000 0.00000000 15.00000000 0.00000000 0.00000000 0.00000000 15.00000000" energy_frozen_part=0.00000000 Properties=species:S:1:pos:R:3:velocities:R:3:Z:I:1
H         4.04668156      11.36739027      12.06682290         0.00000000       0.00000000       0.00000000          1
H         2.28230869      10.17024408      13.87184639         0.00000000       0.00000000       0.00000000          1
H         3.17000008       9.63323486      10.05973053         0.00000000       0.00000000       0.00000000          1
H         4.12663439       8.60485314      12.47459796         0.00000000       0.00000000       0.00000000          1
H         1.32567162      11.19861933      11.45698034         0.00000000       0.00000000       0.00000000          1
H         1.40562850       8.43607866      11.86475624         0.00000000       0.00000000       0.00000000          1
6
pbc=[F, F, F] list_num_par=6 frozen=false iter=20000 energy=-1.26974174 Lattice="15.00000000 0.00000000 0.00000000 0.00000000 15.00000000 0.00000000 0.00000000 0.00000000 15.00000000" energy_frozen_part=0.00000000 Properties=species:S:1:pos:R:3:velocities:R:3:Z:I:1
H         4.08631756      11.26169210      12.30728444         0.00000000       0.00000000       0.00000000          1
H         2.22204537       9.77971117      13.76760153         0.00000000       0.00000000       0.00000000          1
H         3.48595882       9.76748068      10.02447920         0.00000000       0.00000000       0.00000000          1
H         4.26261016       8.47449171      12.37591590         0.00000000       0.00000000       0.00000000          1
H         1.44539845      11.07270345      11.41616057         0.00000000       0.00000000       0.00000000          1
H         1.62169010       8.28550344      11.48479968         0.00000000       0.00000000       0.00000000          1
6
pbc=[F, F, F] list_num_par=6 frozen=false iter=20000 energy=-1.26974174 Lattice="15.00000000 0.00000000 0.00000000 0.00000000 15.00000000 0.00000000 0.00000000 0.00000000 15.00000000" energy_frozen_part=0.00000000 Properties=species:S:1:pos:R:3:velocities:R:3:Z:I:1
H         4.08632985      11.26167843      12.30729732         0.00000000       0.00000000       0.00000000          1
H         2.22204397       9.77972403      13.76761135         0.00000000       0.00000000       0.00000000          1
H         3.48596860       9.76747508      10.02449167         0.00000000       0.00000000       0.00000000          1
H         4.26259694       8.47447906      12.37593708         0.00000000       0.00000000       0.00000000          1
H         1.44541365      11.07272571      11.41616453         0.00000000       0.00000000       0.00000000          1
H         1.62167726       8.28552340      11.48480470         0.00000000       0.00000000       0.00000000          1
6
pbc=[F, F, F] list_num_par=6 frozen=false iter=20000 energy=-1.26974174 Lattice="15.00000000 0.00000000 0.00000000 0.00000000 15.00000000 0.00000000 0.00000000 0.00000000 15.00000000" energy_frozen_part=0.00000000 Properties=species:S:1:pos:R:3:velocities:R:3:Z:I:1
H         4.08632681      11.26168153      12.30729070         0.00000000       0.00000000       0.00000000          1
H         2.22204363       9.77972610      13.76761385         0.00000000       0.00000000       0.00000000          1
H         3.48597030       9.76745487      10.02449973         0.00000000       0.00000000       0.00000000          1
H         4.26260112       8.47447461      12.37595016         0.00000000       0.00000000       0.00000000          1
H         1.44540684      11.07270765      11.41616014         0.00000000       0.00000000       0.00000000          1
H         1.62168461       8.28550440      11.48482172         0.00000000       0.00000000       0.00000000          1
6
pbc=[F, F, F] list_num_par=6 frozen=false iter=20000 energy=-1.26974174 Lattice="15.00000000 0.00000000 0.00000000 0.00000000 15.00000000 0.00000000 0.00000000 0.00000000 15.00000000" energy_frozen_part=0.00000000 Properties=species:S:1:pos:R:3:velocities:R:3:Z:I:1
H         4.08618853      11.26154123      12.30722006         0.00000000       0.00000000       0.00000000          1
H         2.22197027       9.77957322      13.76761401         0.00000000       0.00000000       0.00000000          1
H         3.48573675       9.76732577      10.02444279         0.00000000       0.00000000       0.00000000          1
H         4.26247286       8.47433977      12.37585560         0.00000000       0.00000000       0.00000000          1
H         1.44523246      11.07255246      11.41619993         0.00000000       0.00000000       0.00000000          1
H         1.62151849       8.28535398      11.48483712         0.00000000       0.00000000       0.00000000          1
6
pbc=[F, F, F] list_num_par=6 frozen=false iter=20000 energy=-1.26974174 Lattice="15.00000000 0.00000000 0.00000000 0.00000000 15.00000000 0.00000000 0.00000000 0.00000000 15.00000000" energy_frozen_part=0.00000000 Properties=species:S:1:pos:R:3:velocities:R:3:Z:I:1
H         4.04666549      11.36736751      12.06689568         0.00000000       0.00000000       0.00000000          1
H         2.28225447      10.17017757      13.87185570         0.00000000       0.00000000       0.00000000          1
H         3.17001177       9.63326659      10.05974756         0.00000000       0.00000000       0.00000000          1
H         4.12659883       8.60482071      12.47460118         0.00000000       0.00000000       0.00000000          1
H         1.32566899      11.19862539      11.45700028         0.00000000       0.00000000       0.00000000          1
H         1.40559551       8.43608064      11.86470699         0.00000000       0.00000000       0.00000000          1
6
pbc=[F, F, F] list_num_par=6 frozen=false iter=20000 energy=-1.26974174 Lattice="15.00000000 0.00000000 0.00000000 0.00000000 15.00000000 0.00000000 0.00000000 0.00000000 15.00000000" energy_frozen_part=0.00000000 Properties=species:S:1:pos:R:3:velocities:R:3:Z:I:1
H         4.04666041      11.36736765      12.06690133         0.00000000       0.00000000       0.00000000          1
H         2.28225104      10.17017087      13.87185441         0.00000000       0.00000000       0.00000000          1
H         3.17000323       9.63327201      10.05974410         0.00000000       0.00000000       0.00000000          1
H         4.12659625       8.60481512      12.47459514         0.00000000       0.00000000       0.00000000          1
H         1.32566338      11.19862821      11.45700777         0.00000000       0.00000000       0.00000000          1
H         1.40559449       8.43608105      11.86470097         0.00000000       0.00000000       0.00000000          1
6
pbc=[F, F, F] list_num_par=6 frozen=false iter=20000 energy=-1.26974174 Lattice="15.00000000 0.00000000 0.00000000 0.00000000 15.00000000 0.00000000 0.00000000 0.00000000 15.00000000" energy_frozen_part=0.00000000 Properties=species:S:1:pos:R:3:velocities:R:3:Z:I:1
H         4.04665236      11.36737278      12.06689450         0.00000000       0.00000000       0.00000000          1
H         2.28226303      10.17017193      13.87186599         0.00000000       0.00000000       0.00000000          1
H         3.16999499       9.63327271      10.05974558         0.00000000       0.00000000       0.00000000          1
H         4.12660215       8.60482501      12.47459122         0.00000000       0.00000000       0.00000000          1
H         1.32565001      11.19862007      11.45702000         0.00000000       0.00000000       0.00000000          1
H         1.40559565       8.43607716      11.86471777         0.00000000       0.00000000       0.00000000          1
6
pbc=[F, F, F] list_num_par=6 frozen=false iter=20000 energy=-1.26974174 Lattice="15.00000000 0.00000000 0.00000000 0.00000000 15.00000000 0.00000000 0.00000000 0.00000000 15.00000000" energy_frozen_part=0.00000000 Properties=species:S:1:pos:R:3:velocities:R:3:Z:I:1
H         4.04648581      11.36753030      12.06686822         0.00000000       0.00000000       0.00000000          1
H         2.28223995      10.17022118      13.87190999         0.00000000       0.00000000       0.00000000          1
H         3.16984813       9.63337458      10.05976130         0.00000000       0.00000000       0.00000000          1
H         4.12662168       8.60498548      12.47456548         0.00000000       0.00000000       0.00000000          1
H         1.32546282      11.19860665      11.45711199         0.00000000       0.00000000       0.00000000          1
H         1.40560283       8.43606171      11.86480121         0.00000000       0.00000000       0.00000000          1
6
pbc=[F, F, F] list_num_par=6 frozen=false iter=20000 energy=-1.26974174 Lattice="15.00000000 0.00000000 0.00000000 0.00000000 15.00000000 0.00000000 0.00000000 0.00000000 15.00000000" energy_frozen_part=0.00000000 Properties=species:S:1:pos:R:3:velocities:R:3:Z:I:1
H         4.08620444      11.26153394      12.30719438         0.00000000       0.00000000       0.00000000          1
H         2.22199875       9.77957881      13.76761046         0.00000000       0.00000000       0.00000000          1
H         3.48572320       9.76731198      10.02443016         0.00000000       0.00000000       0.00000000          1
H         4.26248179       8.47433181      12.37584127         0.00000000       0.00000000       0.00000000          1
H         1.44523596      11.07256259      11.41620113         0.00000000       0.00000000       0.00000000          1
H         1.62151161       8.28535741      11.48485275         0.00000000       0.00000000       0.00000000          1
6
pbc=[F, F, F] list_num_par=6 frozen=false iter=20000 energy=-1.26974174 Lattice="15.00000000 0.00000000 0.00000000 0.00000000 15.00000000 0.00000000 0.00000000 0.00000000 15.00000000" energy_frozen_part=0.00000000 Properties=species:S:1:pos:R:3:velocities:R:3:Z:I:1
H         4.04640649      11.36756923      12.06687378         0.00000000       0.00000000       0.00000000          1
H         2.28215202      10.17016950      13.87184488         0.00000000       0.00000000       0.00000000          1
H         3.16983770       9.63345993      10.05969207         0.00000000       0.00000000       0.00000000          1
H         4.12658213       8.60500589      12.47447998         0.00000000       0.00000000       0.00000000          1
H         1.32540324      11.19862235      11.45705708         0.00000000       0.00000000       0.00000000          1
H         1.40557799       8.43606639      11.86466259         0.00000000       0.00000000       0.00000000          1
6
pbc=[F, F, F] list_num_par=6 frozen=false iter=20000 energy=-1.26974174 Lattice="15.00000000 0.00000000 0.00000000 0.00000000 15.00000000 0.00000000 0.00000000 0.00000000 15.00000000" energy_frozen_part=0.00000000 Properties=species:S:1:pos:R:3:velocities:R:3:Z:I:1
H         4.04648570      11.36753188      12.06687454         0.00000000       0.00000000       0.00000000          1
H         2.28224473      10.17022683      13.87191646         0.00000000       0.00000000       0.00000000          1
H         3.16985107       9.63337360      10.05976096         0.00000000       0.00000000       0.00000000          1
H         4.12662568       8.60498789      12.47456586         0.00000000       0.00000000       0.00000000          1
H         1.32546930      11.19861003      11.45710901         0.00000000       0.00000000       0.00000000          1
H         1.40561096       8.43606327      11.86480710         0.00000000       0.00000000       0.00000000          1
6
pbc=[F, F, F] list_num_par=6 frozen=false iter=20000 energy=-1.26974174 Lattice="15.00000000 0.00000000 0.00000000 0.00000000 15.00000000 0.00000000 0.00000000 0.00000000 15.00000000" energy_frozen_part=0.00000000 Properties=species:S:1:pos:R:3:velocities:R:3:Z:I:1
H         4.04665457      11.36738130      12.06685207         0.00000000       0.00000000       0.00000000          1
H         2.28226438      10.17020460      13.87184224         0.00000000       0.00000000       0.00000000          1
H         3.16999101       9.63325049      10.05972806         0.00000000       0.00000000       0.00000000          1
H         4.12660952       8.60483803      12.47459104         0.00000000       0.00000000       0.00000000          1
H         1.32565348      11.19861655      11.45698210         0.00000000       0.00000000       0.00000000          1
H         1.40560587       8.43607536      11.86472320         0.00000000       0.00000000       0.00000000          1
6
pbc=[F, F, F] list_num_par=6 frozen=false iter=20000 energy=-1.26974174 Lattice="15.00000000 0.00000000 0.00000000 0.00000000 15.00000000 0.00000000 0.00000000 0.00000000 15.00000000" energy_frozen_part=0.00000000 Properties=species:S:1:pos:R:3:velocities:R:3:Z:I:1
H         4.08631516      11.26169761      12.30728849         0.00000000       0.00000000       0.00000000          1
H         2.22204695       9.77971371      13.76759613         0.00000000       0.00000000       0.00000000          1
H         3.48596680       9.76748701      10.02448179         0.00000000       0.00000000       0.00000000          1
H         4.26261514       8.47449320      12.37592490         0.00000000       0.00000000       0.00000000          1
H         1.44539672      11.07270690      11.41616141         0.00000000       0.00000000       0.00000000          1
H         1.62169690       8.28550496      11.48479430         0.00000000       0.00000000       0.00000000          1
6
pbc=[F, F, F] list_num_par=6 frozen=false iter=20000 energy=-1.26974174 Lattice="15.00000000 0.00000000 0.00000000 0.00000000 15.00000000 0.00000000 0.00000000 0.00000000 15.00000000" energy_frozen_part=0.00000000 Properties=species:S:1:pos:R:3:velocities:R:3:Z:I:1
H         4.04666022      11.36736664      12.06689749         0.00000000       0.00000000       0.00000000          1
H         2.28224502      10.17017699      13.87185348         0.00000000       0.00000000       0.00000000          1
H         3.17002251       9.63325689      10.05974778         0.00000000       0.00000000       0.00000000          1
H         4.12660064       8.60481834      12.47460747         0.00000000       0.00000000       0.00000000          1
H         1.32566676      11.19861451      11.45698667         0.00000000       0.00000000       0.00000000          1
H         1.40560308       8.43607145      11.86470638         0.00000000       0.00000000       0.00000000          1
6
pbc=[F, F, F] list_num_par=6 frozen=false iter=20000 energy=-1.26974174 Lattice="15.00000000 0.00000000 0.00000000 0.00000000 15.00000000 0.00000000 0.00000000 0.00000000 15.00000000" energy_frozen_part=0.00000000 Properties=species:S:1:pos:R:3:velocities:R:3:Z:I:1
H         4.08629287      11.26165543      12.30730685         0.00000000       0.00000000       0.00000000          1
H         2.22201879       9.77969243      13.76763206         0.00000000       0.00000000       0.00000000          1
H         3.48590201       9.76746131      10.02450540         0.00000000       0.00000000       0.00000000          1
H         4.26256284       8.47445190      12.37593820         0.00000000       0.00000000       0.00000000          1
H         1.44536243      11.07269428      11.41620363         0.00000000       0.00000000       0.00000000          1
H         1.62163243       8.28549124      11.48482928         0.00000000       0.00000000       0.00000000          1
6
pbc=[F, F, F] list_num_par=6 frozen=false iter=20000 energy=-1.26974174 Lattice="15.00000000 0.00000000 0.00000000 0.00000000 15.00000000 0.00000000 0.00000000 0.00000000 15.00000000" energy_frozen_part=0.00000000 Properties=species:S:1:pos:R:3:velocities:R:3:Z:I:1
H         4.08629690      11.26165087      12.30729586         0.00000000       0.00000000       0.00000000          1
H         2.22202254       9.77968521      13.76762373         0.00000000       0.00000000       0.00000000          1
H         3.48590948       9.76744930      10.02449893         0.00000000       0.00000000       0.00000000          1
H         4.26256359       8.47444759      12.37593183         0.00000000       0.00000000       0.00000000          1
H         1.44536858      11.07269458      11.41619173         0.00000000       0.00000000       0.00000000          1
H         1.62163506       8.28548989      11.48482338         0.00000000       0.00000000       0.00000000          1
6
pbc=[F, F, F] list_num_par=6 frozen=false iter=20000 energy=-1.26974174 Lattice="15.00000000 0.00000000 0.00000000 0.00000000 15.00000000 0.00000000 0.00000000 0.00000000 15.00000000" energy_frozen_part=0.00000000 Properties=species:S:1:pos:R:3:velocities:R:3:Z:I:1
H         4.04667516      11.36739306      12.06681734         0.00000000       0.00000000       0.00000000          1
H         2.28229904      10.17024543      13.87183855         0.00000000       0.00000000       0.00000000          1
H         3.16999488       9.63322395      10.05973182         0.00000000       0.00000000       0.00000000          1
H         4.12662977       8.60485710      12.47459478         0.00000000       0.00000000       0.00000000          1
H         1.32566654      11.19861554      11.45696708         0.00000000       0.00000000       0.00000000          1
H         1.40562162       8.43607819      11.86475547         0.00000000       0.00000000       0.00000000          1
6
pbc=[F, F, F] list_num_par=6 frozen=false iter=20000 energy=-1.26974174 Lattice="15.00000000 0.00000000 0.00000000 0.00000000 15.00000000 0.00000000 0.00000000 0.00000000 15.00000000" energy_frozen_part=0.00000000 Properties=species:S:1:pos:R:3:velocities:R:3:Z:I:1
H         4.04637815      11.36757171      12.06680441         0.00000000       0.00000000       0.00000000          1
H         2.28212738      10.17020825      13.87180404         0.00000000       0.00000000       0.00000000          1
H         3.16983214       9.63340210      10.05966290         0.00000000       0.00000000       0.00000000          1
H         4.12657348       8.60502878      12.47448977         0.00000000       0.00000000       0.00000000          1
H         1.32537793      11.19858290      11.45697967         0.00000000       0.00000000       0.00000000          1
H         1.40557595       8.43603896      11.86466207         0.00000000       0.00000000       0.00000000          1
6
pbc=[F, F, F] list_num_par=6 frozen=false iter=20000 energy=-1.26974174 Lattice="15.00000000 0.00000000 0.00000000 0.00000000 15.00000000 0.00000000 0.00000000 0.00000000 15.00000000" energy_frozen_part=0.00000000 Properties=species:S:1:pos:R:3:velocities:R:3:Z:I:1
H         4.08620351      11.26154484      12.30718737         0.00000000       0.00000000       0.00000000          1
H         2.22199494       9.77959210      13.76760589         0.00000000       0.00000000       0.00000000          1
H         3.48574140       9.76729618      10.02443347         0.00000000       0.00000000       0.00000000          1
H         4.26249320       8.47434130      12.37585473         0.00000000       0.00000000       0.00000000          1
H         1.44524563      11.07254968      11.41617651         0.00000000       0.00000000       0.00000000          1
H         1.62153167       8.28534727      11.48485495         0.00000000       0.00000000       0.00000000          1
6
pbc=[F, F, F] list_num_par=6 frozen=false iter=20000 energy=-1.26974174 Lattice="15.00000000 0.00000000 0.00000000 0.00000000 15.00000000 0.00000000 0.00000000 0.00000000 15.00000000" energy_frozen_part=0.00000000 Properties=species:S:1:pos:R:3:velocities:R:3:Z:I:1
H         4.08633577      11.26169892      12.30729215         0.00000000       0.00000000       0.00000000          1
H         2.22205753       9.77972215      13.76760223         0.00000000       0.00000000       0.00000000          1
H         3.48596917       9.76750228      10.02448297         0.00000000       0.00000000       0.00000000          1
H         4.26261626       8.47449717      12.37591214         0.00000000       0.00000000       0.00000000          1
H         1.44540938      11.07273203      11.41617265         0.00000000       0.00000000       0.00000000          1
H         1.62169122       8.28552879      11.48478744         0.00000000       0.00000000       0.00000000          1
6
pbc=[F, F, F] list_num_par=6 frozen=false iter=20000 energy=-1.26974174 Lattice="15.00000000 0.00000000 0.00000000 0.00000000 15.00000000 0.00000000 0.00000000 0.00000000 15.00000000" energy_frozen_part=0.00000000 Properties=species:S:1:pos:R:3:velocities:R:3:Z:I:1
H         4.04648677      11.36753727      12.06686745         0.00000000       0.00000000       0.00000000          1
H         2.28224107      10.17022991      13.87190908         0.00000000       0.00000000       0.00000000          1
H         3.16985647       9.63337139      10.05976368         0.00000000       0.00000000       0.00000000          1
H         4.12662974       8.60499381      12.47457139         0.00000000       0.00000000       0.00000000          1
H         1.32546904      11.19860498      11.45710267         0.00000000       0.00000000       0.00000000          1
H         1.40561652       8.43606387      11.86480587         0.00000000       0.00000000       0.00000000          1
6
pbc=[F, F, F] list_num_par=6 frozen=false iter=20000 energy=-1.26974174 Lattice="15.00000000 0.00000000 0.00000000 0.00000000 15.00000000 0.00000000 0.00000000 0.00000000 15.00000000" energy_frozen_part=0.00000000 Properties=species:S:1:pos:R:3:velocities:R:3:Z:I:1
H         4.08644141      11.26126725      12.30728178         0.00000000       0.00000000       0.00000000          1
H         2.22196152       9.77966339      13.76770395         0.00000000       0.00000000       0.00000000          1
H         3.48592958       9.76692710      10.02460150         0.00000000       0.00000000       0.00000000          1
H         4.26238302       8.47405078      12.37617433         0.00000000       0.00000000       0.00000000          1
H         1.44550828      11.07253666      11.41613122         0.00000000       0.00000000       0.00000000          1
H         1.62145507       8.28531694      11.48502577         0.00000000       0.00000000       0.00000000          1
6
pbc=[F, F, F] list_num_par=6 frozen=false iter=20000 energy=-1.26974174 Lattice="15.00000000 0.00000000 0.00000000 0.00000000 15.00000000 0.00000000 0.00000000 0.00000000 15.00000000" energy_frozen_part=0.00000000 Properties=species:S:1:pos:R:3:velocities:R:3:Z:I:1
H         4.04639756      11.36754782      12.06687543         0.00000000       0.00000000       0.00000000          1
H         2.28213437      10.17017742      13.87185447         0.00000000       0.00000000       0.00000000          1
H         3.16980953       9.63344274      10.05970106         0.00000000       0.00000000       0.00000000          1
H         4.12655427       8.60499811      12.47449173         0.00000000       0.00000000       0.00000000          1
H         1.32539370      11.19862494      11.45706348         0.00000000       0.00000000       0.00000000          1
H         1.40554742       8.43606941      11.86468481         0.00000000       0.00000000       0.00000000          1
6
pbc=[F, F, F] list_num_par=6 frozen=false iter=20000 energy=-1.26974174 Lattice="15.00000000 0.00000000 0.00000000 0.00000000 15.00000000 0.00000000 0.00000000 0.00000000 15.00000000" energy_frozen_part=0.00000000 Properties=species:S:1:pos:R:3:velocities:R:3:Z:I:1
H         4.04664382      11.36738046      12.06684324         0.00000000       0.00000000       0.00000000          1
H         2.28226093      10.17020419      13.87183566         0.00000000       0.00000000       0.00000000          1
H         3.16999077       9.63324247      10.05972574         0.00000000       0.00000000       0.00000000          1
H         4.12661090       8.60484273      12.47458898         0.00000000       0.00000000       0.00000000          1
H         1.32564545      11.19861189      11.45697252         0.00000000       0.00000000       0.00000000          1
H         1.40560540       8.43606857      11.86471963         0.00000000       0.00000000       0.00000000          1
6
pbc=[F, F, F] list_num_par=6 frozen=false iter=20000 energy=-1.26974174 Lattice="15.00000000 0.00000000 0.00000000 0.00000000 15.00000000 0.00000000 0.00000000 0.00000000 15.00000000" energy_frozen_part=0.00000000 Properties=species:S:1:pos:R:3:velocities:R:3:Z:I:1
H         4.08618913      11.26153587      12.30722308         0.00000000       0.00000000       0.00000000          1
H         2.22196521       9.77956799      13.76760818         0.00000000       0.00000000       0.00000000          1
H         3.48574354       9.76732269      10.02443976         0.00000000       0.00000000       0.00000000          1
H         4.26247417       8.47433293      12.37585389         0.00000000       0.00000000       0.00000000          1
H         1.44523344      11.07255642      11.41619641         0.00000000       0.00000000       0.00000000          1
H         1.62152141       8.28535808      11.48482932         0.00000000       0.00000000       0.00000000          1
6
pbc=[F, F, F] list_num_par=6 frozen=false iter=20000 energy=-1.26974174 Lattice="15.00000000 0.00000000 0.00000000 0.00000000 15.00000000 0.00000000 0.00000000 0.00000000 15.00000000" energy_frozen_part=0.00000000 Properties=species:S:1:pos:R:3:velocities:R:3:Z:I:1
H         4.08630783      11.26165986      12.30731068         0.00000000       0.00000000       0.00000000          1
H         2.22203912       9.77969020      13.76763364         0.00000000       0.00000000       0.00000000          1
H         3.48591914       9.76746236      10.02450658         0.00000000       0.00000000       0.00000000          1
H         4.26258200       8.47445517      12.37593713         0.00000000       0.00000000       0.00000000          1
H         1.44537729      11.07269418      11.41620102         0.00000000       0.00000000       0.00000000          1
H         1.62165469       8.28548858      11.48483132         0.00000000       0.00000000       0.00000000          1
6
pbc=[F, F, F] list_num_par=6 frozen=false iter=20000 energy=-1.26974174 Lattice="15.00000000 0.00000000 0.00000000 0.00000000 15.00000000 0.00000000 0.00000000 0.00000000 15.00000000" energy_frozen_part=0.00000000 Properties=species:S:1:pos:R:3:velocities:R:3:Z:I:1
H         4.08628368      11.26166232      12.30729526         0.00000000       0.00000000       0.00000000          1
H         2.22200906       9.77970497      13.76762862         0.00000000       0.00000000       0.00000000          1
H         3.48590699       9.76744290      10.02450177         0.00000000       0.00000000       0.00000000          1
H         4.26255818       8.47446488      12.37594656         0.00000000       0.00000000       0.00000000          1
H         1.44535931      11.07268548      11.41618258         0.00000000       0.00000000       0.00000000          1
H         1.62163412       8.28548319      11.48483205         0.00000000       0.00000000       0.00000000          1
6
pbc=[F, F, F] list_num_par=6 frozen=false iter=20000 energy=-1.26974174 Lattice="15.00000000 0.00000000 0.00000000 0.00000000 15.00000000 0.00000000 0.00000000 0.00000000 15.00000000" energy_frozen_part=0.00000000 Properties=species:S:1:pos:R:3:velocities:R:3:Z:I:1
H         4.04641148      11.36759471      12.06677032         0.00000000       0.00000000       0.00000000          1
H         2.28220057      10.17023357      13.87180853         0.00000000       0.00000000       0.00000000          1
H         3.16984953       9.63340578      10.05965836         0.00000000       0.00000000       0.00000000          1
H         4.12664097       8.60505312      12.47447034         0.00000000       0.00000000       0.00000000          1
H         1.32540630      11.19858465      11.45699088         0.00000000       0.00000000       0.00000000          1
H         1.40563007       8.43604587      11.86469671         0.00000000       0.00000000       0.00000000          1
6
pbc=[F, F, F] list_num_par=6 frozen=false iter=20000 energy=-1.26974174 Lattice="15.00000000 0.00000000 0.00000000 0.00000000 15.00000000 0.00000000 0.00000000 0.00000000 15.00000000" energy_frozen_part=0.00000000 Properties=species:S:1:pos:R:3:velocities:R:3:Z:I:1
H         4.08618866      11.26155956      12.30720765         0.00000000       0.00000000       0.00000000          1
H         2.22199560       9.77960174      13.76763793         0.00000000       0.00000000       0.00000000          1
H         3.48570518       9.76733382      10.02445291         0.00000000       0.00000000       0.00000000          1
H         4.26248166       8.47435781      12.37586077         0.00000000       0.00000000       0.00000000          1
H         1.44521687      11.07257007      11.41622726         0.00000000       0.00000000       0.00000000          1
H         1.62151651       8.28536936      11.48487918         0.00000000       0.00000000       0.00000000          1
6
pbc=[F, F, F] list_num_par=6 frozen=false iter=20000 energy=-1.26974174 Lattice="15.00000000 0.00000000 0.00000000 0.00000000 15.00000000 0.00000000 0.00000000 0.00000000 15.00000000" energy_frozen_part=0.00000000 Properties=species:S:1:pos:R:3:velocities:R:3:Z:I:1
H         4.04652667      11.36751685      12.06689531         0.00000000       0.00000000       0.00000000          1
H         2.28225225      10.17023919      13.87192399         0.00000000       0.00000000       0.00000000          1
H         3.16989902       9.63335727      10.05978578         0.00000000       0.00000000       0.00000000          1
H         4.12663406       8.60497870      12.47461376         0.00000000       0.00000000       0.00000000          1
H         1.32551545      11.19861535      11.45710258         0.00000000       0.00000000       0.00000000          1
H         1.40562285       8.43607473      11.86481757         0.00000000       0.00000000       0.00000000          1
6
pbc=[F, F, F] list_num_par=6 frozen=false iter=20000 energy=-1.26974174 Lattice="15.00000000 0.00000000 0.00000000 0.00000000 15.00000000 0.00000000 0.00000000 0.00000000 15.00000000" energy_frozen_part=0.00000000 Properties=species:S:1:pos:R:3:velocities:R:3:Z:I:1
H         4.04642106      11.36753161      12.06683667         0.00000000       0.00000000       0.00000000          1
H         2.28215052      10.17020347      13.87184050         0.00000000       0.00000000       0.00000000          1
H         3.16984465       9.63337399      10.05970327         0.00000000       0.00000000       0.00000000          1
H         4.12657639       8.60498753      12.47453220         0.00000000       0.00000000       0.00000000          1
H         1.32541737      11.19858551      11.45701387         0.00000000       0.00000000       0.00000000          1
H         1.40557717       8.43604382      11.86470295         0.00000000       0.00000000       0.00000000          1
6
pbc=[F, F, F] list_num_par=6 frozen=false iter=20000 energy=-1.26974174 Lattice="15.00000000 0.00000000 0.00000000 0.00000000 15.00000000 0.00000000 0.00000000 0.00000000 15.00000000" energy_frozen_part=0.00000000 Properties=species:S:1:pos:R:3:velocities:R:3:Z:I:1
H         4.08630245      11.26165559      12.30729836         0.00000000       0.00000000       0.00000000          1
H         2.22203666       9.77969243      13.76763526         0.00000000       0.00000000       0.00000000          1
H         3.48590723       9.76744979      10.02449885         0.00000000       0.00000000       0.00000000          1
H         4.26258262       8.47445524      12.37593263         0.00000000       0.00000000       0.00000000          1
H         1.44536773      11.07268595      11.41620353         0.00000000       0.00000000       0.00000000          1
H         1.62164736       8.28548127      11.48483756         0.00000000       0.00000000       0.00000000          1
6
pbc=[F, F, F] list_num_par=6 frozen=false iter=20000 energy=-1.26974174 Lattice="15.00000000 0.00000000 0.00000000 0.00000000 15.00000000 0.00000000 0.00000000 0.00000000 15.00000000" energy_frozen_part=0.00000000 Properties=species:S:1:pos:R:3:velocities:R:3:Z:I:1
H         4.04637704      11.36757050      12.06680982         0.00000000       0.00000000       0.00000000          1
H         2.28212886      10.17020731      13.87181031         0.00000000       0.00000000       0.00000000          1
H         3.16983087       9.63340441      10.05966985         0.00000000       0.00000000       0.00000000          1
H         4.12657870       8.60503080      12.47448933         0.00000000       0.00000000       0.00000000          1
H         1.32538033      11.19858311      11.45698524         0.00000000       0.00000000       0.00000000          1
H         1.40557725       8.43604198      11.86467054         0.00000000       0.00000000       0.00000000          1
6
pbc=[F, F, F] list_num_par=6 frozen=false iter=20000 energy=-1.26974174 Lattice="15.00000000 0.00000000 0.00000000 0.00000000 15.00000000 0.00000000 0.00000000 0.00000000 15.00000000" energy_frozen_part=0.00000000 Properties=species:S:1:pos:R:3:velocities:R:3:Z:I:1
H         4.08631536      11.26169900      12.30728106         0.00000000       0.00000000       0.00000000          1
H         2.22205065       9.77971075      13.76758969         0.00000000       0.00000000       0.00000000          1
H         3.48596293       9.76748802      10.02447824         0.00000000       0.00000000       0.00000000          1
H         4.26261770       8.47449288      12.37591172         0.00000000       0.00000000       0.00000000          1
H         1.44539264      11.07270867      11.41615501         0.00000000       0.00000000       0.00000000          1
H         1.62169399       8.28550476      11.48478749         0.00000000       0.00000000       0.00000000          1
6
pbc=[F, F, F] list_num_par=6 frozen=false iter=20000 energy=-1.26974174 Lattice="15.00000000 0.00000000 0.00000000 0.00000000 15.00000000 0.00000000 0.00000000 0.00000000 15.00000000" energy_frozen_part=0.00000000 Properties=species:S:1:pos:R:3:velocities:R:3:Z:I:1
H         4.08632750      11.26168720      12.30727890         0.00000000       0.00000000       0.00000000          1
H         2.22205633       9.77971174      13.76759489         0.00000000       0.00000000       0.00000000          1
H         3.48595757       9.76748363      10.02447346         0.00000000       0.00000000       0.00000000          1
H         4.26261543       8.47448449      12.37590726         0.00000000       0.00000000       0.00000000          1
H         1.44540533      11.07270814      11.41616033         0.00000000       0.00000000       0.00000000          1
H         1.62169129       8.28550380      11.48479656         0.00000000       0.00000000       0.00000000          1
6
pbc=[F, F, F] list_num_par=6 frozen=false iter=20000 energy=-1.26974174 Lattice="15.00000000 0.00000000 0.00000000 0.00000000 15.00000000 0.00000000 0.00000000 0.00000000 15.00000000" energy_frozen_part=0.00000000 Properties=species:S:1:pos:R:3:velocities:R:3:Z:I:1
H         4.04642425      11.36753690      12.06684336         0.00000000       0.00000000       0.00000000          1
H         2.28215016      10.17020344      13.87184022         0.00000000       0.00000000       0.00000000          1
H         3.16984696       9.63337454      10.05970944         0.00000000       0.00000000       0.00000000          1
H         4.12657986       8.60499598      12.47453064         0.00000000       0.00000000       0.00000000          1
H         1.32541984      11.19858910      11.45701566         0.00000000       0.00000000       0.00000000          1
H         1.40557368       8.43604476      11.86470713         0.00000000       0.00000000       0.00000000          1
6
pbc=[F, F, F] list_num_par=6 frozen=false iter=20000 energy=-1.26974174 Lattice="15.00000000 0.00000000 0.00000000 0.00000000 15.00000000 0.00000000 0.00000000 0.00000000 15.00000000" energy_frozen_part=0.00000000 Properties=species:S:1:pos:R:3:velocities:R:3:Z:I:1
H         4.08630729      11.26169160      12.30728557         0.00000000       0.00000000       0.00000000          1
H         2.22203060       9.77971568      13.76759986         0.00000000       0.00000000       0.00000000          1
H         3.48595583       9.76748130      10.02448177         0.00000000       0.00000000       0.00000000          1
H         4.26260053       8.47449248      12.37592595         0.00000000       0.00000000       0.00000000          1
H         1.44538426      11.07269880      11.41615387         0.00000000       0.00000000       0.00000000          1
H         1.62168077       8.28550091      11.48479521         0.00000000       0.00000000       0.00000000          1
6
pbc=[F, F, F] list_num_par=6 frozen=false iter=20000 energy=-1.26974174 Lattice="15.00000000 0.00000000 0.00000000 0.00000000 15.00000000 0.00000000 0.00000000 0.00000000 15.00000000" energy_frozen_part=0.00000000 Properties=species:S:1:pos:R:3:velocities:R:3:Z:I:1
H         4.08614489      11.26151018      12.30723592         0.00000000       0.00000000       0.00000000          1
H         2.22195159       9.77943380      13.76754950         0.00000000       0.00000000       0.00000000          1
H         3.48572541       9.76740063      10.02438145         0.00000000       0.00000000       0.00000000          1
H         4.26248497       8.47431141      12.37573175         0.00000000       0.00000000       0.00000000          1
H         1.44519535      11.07252611      11.41619862         0.00000000       0.00000000       0.00000000          1
H         1.62153322       8.28532114      11.48470225         0.00000000       0.00000000       0.00000000          1
6
pbc=[F, F, F] list_num_par=6 frozen=false iter=20000 energy=-1.26974174 Lattice="15.00000000 0.00000000 0.00000000 0.00000000 15.00000000 0.00000000 0.00000000 0.00000000 15.00000000" energy_frozen_part=0.00000000 Properties=species:S:1:pos:R:3:velocities:R:3:Z:I:1
H         4.04642307      11.36757381      12.06682295         0.00000000       0.00000000       0.00000000          1
H         2.28217180      10.17019398      13.87181316         0.00000000       0.00000000       0.00000000          1
H         3.16986930       9.63343427      10.05966003         0.00000000       0.00000000       0.00000000          1
H         4.12661791       8.60502950      12.47447152         0.00000000       0.00000000       0.00000000          1
H         1.32542133      11.19859987      11.45700505         0.00000000       0.00000000       0.00000000          1
H         1.40561638       8.43605169      11.86464952         0.00000000       0.00000000       0.00000000          1
6
pbc=[F, F, F] list_num_par=6 frozen=false iter=20000 energy=-1.26974174 Lattice="15.00000000 0.00000000 0.00000000 0.00000000 15.00000000 0.00000000 0.00000000 0.00000000 15.00000000" energy_frozen_part=0.00000000 Properties=species:S:1:pos:R:3:velocities:R:3:Z:I:1
H         4.08632408      11.26168697      12.30727389         0.00000000       0.00000000       0.00000000          1
H         2.22205591       9.77972414      13.76760769         0.00000000       0.00000000       0.00000000          1
H         3.48595347       9.76747575      10.02448104         0.00000000       0.00000000       0.00000000          1
H         4.26260874       8.47448432      12.37592138         0.00000000       0.00000000       0.00000000          1
H         1.44540049      11.07271183      11.41616663         0.00000000       0.00000000       0.00000000          1
H         1.62168048       8.28551122      11.48480888         0.00000000       0.00000000       0.00000000          1
6
pbc=[F, F, F] list_num_par=6 frozen=false iter=20000 energy=-1.26974174 Lattice="15.00000000 0.00000000 0.00000000 0.00000000 15.00000000 0.00000000 0.00000000 0.00000000 15.00000000" energy_frozen_part=0.00000000 Properties=species:S:1:pos:R:3:velocities:R:3:Z:I:1
H         4.08632117      11.26168899      12.30728184         0.00000000       0.00000000       0.00000000          1
H         2.22204772       9.77970925      13.76759086         0.00000000       0.00000000       0.00000000          1
H         3.48596303       9.76748318      10.02447488         0.00000000       0.00000000       0.00000000          1
H         4.26261265       8.47448265      12.37590814         0.00000000       0.00000000       0.00000000          1
H         1.44539849      11.07270540      11.41615567         0.00000000       0.00000000       0.00000000          1
H         1.62169343       8.28550012      11.48478519         0.00000000       0.00000000       0.00000000          1
6
pbc=[F, F, F] list_num_par=6 frozen=false iter=20000 energy=-1.26974174 Lattice="15.00000000 0.00000000 0.00000000 0.00000000 15.00000000 0.00000000 0.00000000 0.00000000 15.00000000" energy_frozen_part=0.00000000 Properties=species:S:1:pos:R:3:velocities:R:3:Z:I:1
H         4.04666095      11.36738003      12.06686570         0.00000000       0.00000000       0.00000000          1
H         2.28227415      10.17020058      13.87185149         0.00000000       0.00000000       0.00000000          1
H         3.17000739       9.63325342      10.05973612         0.00000000       0.00000000       0.00000000          1
H         4.12661899       8.60483872      12.47459211         0.00000000       0.00000000       0.00000000          1
H         1.32565986      11.19861046      11.45699018         0.00000000       0.00000000       0.00000000          1
H         1.40561839       8.43607115      11.86472119         0.00000000       0.00000000       0.00000000          1
6
pbc=[F, F, F] list_num_par=6 frozen=false iter=20000 energy=-1.26974174 Lattice="15.00000000 0.00000000 0.00000000 0.00000000 15.00000000 0.00000000 0.00000000 0.00000000 15.00000000" energy_frozen_part=0.00000000 Properties=species:S:1:pos:R:3:velocities:R:3:Z:I:1
H         4.04664513      11.36739880      12.06685550         0.00000000       0.00000000       0.00000000          1
H         2.28226676      10.17020984      13.87184743         0.00000000       0.00000000       0.00000000          1
H         3.16999761       9.63326146      10.05973254         0.00000000       0.00000000       0.00000000          1
H         4.12662245       8.60485970      12.47459227         0.00000000       0.00000000       0.00000000          1
H         1.32564602      11.19861106      11.45699056         0.00000000       0.00000000       0.00000000          1
H         1.40562055       8.43606662      11.86472525         0.00000000       0.00000000       0.00000000          1
6
pbc=[F, F, F] list_num_par=6 frozen=false iter=20000 energy=-1.26974174 Lattice="15.00000000 0.00000000 0.00000000 0.00000000 15.00000000 0.00000000 0.00000000 0.00000000 15.00000000" energy_frozen_part=0.00000000 Properties=species:S:1:pos:R:3:velocities:R:3:Z:I:1
H         4.08621454      11.26151952      12.30714203         0.00000000       0.00000000       0.00000000          1
H         2.22203746       9.77953249      13.76756326         0.00000000       0.00000000       0.00000000          1
H         3.48570358       9.76733101      10.02436278         0.00000000       0.00000000       0.00000000          1
H         4.26250661       8.47431611      12.37573666         0.00000000       0.00000000       0.00000000          1
H         1.44523068      11.07254104      11.41618640         0.00000000       0.00000000       0.00000000          1
H         1.62152835       8.28533804      11.48478687         0.00000000       0.00000000       0.00000000          1
6
pbc=[F, F, F] list_num_par=6 frozen=false iter=20000 energy=-1.26974174 Lattice="15.00000000 0.00000000 0.00000000 0.00000000 15.00000000 0.00000000 0.00000000 0.00000000 15.00000000" energy_frozen_part=0.00000000 Properties=species:S:1:pos:R:3:velocities:R:3:Z:I:1
H         4.04637875      11.36757006      12.06680931         0.00000000       0.00000000       0.00000000          1
H         2.28212469      10.17021394      13.87180680         0.00000000       0.00000000       0.00000000          1
H         3.16982672       9.63340607      10.05966660         0.00000000       0.00000000       0.00000000          1
H         4.12657348       8.60502615      12.47448662         0.00000000       0.00000000       0.00000000          1
H         1.32537720      11.19859062      11.45698750         0.00000000       0.00000000       0.00000000          1
H         1.40557133       8.43604480      11.86466645         0.00000000       0.00000000       0.00000000          1
6
pbc=[F, F, F] list_num_par=6 frozen=false iter=20000 energy=-1.26974174 Lattice="15.00000000 0.00000000 0.00000000 0.00000000 15.00000000 0.00000000 0.00000000 0.00000000 15.00000000" energy_frozen_part=0.00000000 Properties=species:S:1:pos:R:3:velocities:R:3:Z:I:1
H         4.08619068      11.26155545      12.30719073         0.00000000       0.00000000       0.00000000          1
H         2.22200419       9.77959856      13.76763706         0.00000000       0.00000000       0.00000000          1
H         3.48570337       9.76731683      10.02444238         0.00000000       0.00000000       0.00000000          1
H         4.26248448       8.47435270      12.37585170         0.00000000       0.00000000       0.00000000          1
H         1.44522000      11.07256479      11.41622161         0.00000000       0.00000000       0.00000000          1
H         1.62151164       8.28536415      11.48488633         0.00000000       0.00000000       0.00000000          1
6
pbc=[F, F, F] list_num_par=6 frozen=false iter=20000 energy=-1.26974174 Lattice="15.00000000 0.00000000 0.00000000 0.00000000 15.00000000 0.00000000 0.00000000 0.00000000 15.00000000" energy_frozen_part=0.00000000 Properties=species:S:1:pos:R:3:velocities:R:3:Z:I:1
H         4.04667382      11.36739636      12.06680609         0.00000000       0.00000000       0.00000000          1
H         2.28229732      10.17026137      13.87183535         0.00000000       0.00000000       0.00000000          1
H         3.16999997       9.63322174      10.05973074         0.00000000       0.00000000       0.00000000          1
H         4.12663486       8.60486625      12.47460632         0.00000000       0.00000000       0.00000000          1
H         1.32566825      11.19861753      11.45695648         0.00000000       0.00000000       0.00000000          1
H         1.40562845       8.43608415      11.86475712         0.00000000       0.00000000       0.00000000          1
6
pbc=[F, F, F] list_num_par=6 frozen=false iter=20000 energy=-1.26974174 Lattice="15.00000000 0.00000000 0.00000000 0.00000000 15.00000000 0.00000000 0.00000000 0.00000000 15.00000000" energy_frozen_part=0.00000000 Properties=species:S:1:pos:R:3:velocities:R:3:Z:I:1
H         4.08630939      11.26165272      12.30732596         0.00000000       0.00000000       0.00000000          1
H         2.22203962       9.77967498      13.76763768         0.00000000       0.00000000       0.00000000          1
H         3.48592837       9.76747036      10.02451244         0.00000000       0.00000000       0.00000000          1
H         4.26258475       8.47444731      12.37593490         0.00000000       0.00000000       0.00000000          1
H         1.44538042      11.07269941      11.41621554         0.00000000       0.00000000       0.00000000          1
H         1.62165772       8.28549263      11.48482032         0.00000000       0.00000000       0.00000000          1
6
pbc=[F, F, F] list_num_par=6 frozen=false iter=20000 energy=-1.26974174 Lattice="15.00000000 0.00000000 0.00000000 0.00000000 15.00000000 0.00000000 0.00000000 0.00000000 15.00000000" energy_frozen_part=0.00000000 Properties=species:S:1:pos:R:3:velocities:R:3:Z:I:1
H         4.08619056      11.26153096      12.30722520         0.00000000       0.00000000       0.00000000          1
H         2.22197015       9.77956441      13.76761639         0.00000000       0.00000000       0.00000000          1
H         3.48574131       9.76731157      10.02445224         0.00000000       0.00000000       0.00000000          1
H         4.26247385       8.47432806      12.37586675         0.00000000       0.00000000       0.00000000          1
H         1.44523536      11.07255131      11.41619973         0.00000000       0.00000000       0.00000000          1
H         1.62151418       8.28535211      11.48484238         0.00000000       0.00000000       0.00000000          1
6
pbc=[F, F, F] list_num_par=6 frozen=false iter=20000 energy=-1.26974174 Lattice="15.00000000 0.00000000 0.00000000 0.00000000 15.00000000 0.00000000 0.00000000 0.00000000 15.00000000" energy_frozen_part=0.00000000 Properties=species:S:1:pos:R:3:velocities:R:3:Z:I:1
H         4.08630005      11.26165884      12.30730074         0.00000000       0.00000000       0.00000000          1
H         2.22203233       9.77969878      13.76763772         0.00000000       0.00000000       0.00000000          1
H         3.48590662       9.76745072      10.02450447         0.00000000       0.00000000       0.00000000          1
H         4.26256820       8.47445232      12.37593794         0.00000000       0.00000000       0.00000000          1
H         1.44536895      11.07269015      11.41620343         0.00000000       0.00000000       0.00000000          1
H         1.62164120       8.28548760      11.48484154         0.00000000       0.00000000       0.00000000          1
6
pbc=[F, F, F] list_num_par=6 frozen=false iter=20000 energy=-1.26974174 Lattice="15.00000000 0.00000000 0.00000000 0.00000000 15.00000000 0.00000000 0.00000000 0.00000000 15.00000000" energy_frozen_part=0.00000000 Properties=species:S:1:pos:R:3:velocities:R:3:Z:I:1
H         4.08620379      11.26153526      12.30718630         0.00000000       0.00000000       0.00000000          1
H         2.22199909       9.77958912      13.76761978         0.00000000       0.00000000       0.00000000          1
H         3.48571830       9.76730911      10.02442721         0.00000000       0.00000000       0.00000000          1
H         4.26247895       8.47433559      12.37584199         0.00000000       0.00000000       0.00000000          1
H         1.44523629      11.07256151      11.41620368         0.00000000       0.00000000       0.00000000          1
H         1.62151210       8.28536121      11.48485703         0.00000000       0.00000000       0.00000000          1
6
pbc=[F, F, F] list_num_par=6 frozen=false iter=20000 energy=-1.26974174 Lattice="15.00000000 0.00000000 0.00000000 0.00000000 15.00000000 0.00000000 0.00000000 0.00000000 15.00000000" energy_frozen_part=0.00000000 Properties=species:S:1:pos:R:3:velocities:R:3:Z:I:1
H         4.08620221      11.26153940      12.30720233         0.00000000       0.00000000       0.00000000          1
H         2.22200635       9.77959016      13.76764206         0.00000000       0.00000000       0.00000000          1
H         3.48570148       9.76730352      10.02444859         0.00000000       0.00000000       0.00000000          1
H         4.26248025       8.47433647      12.37585624         0.00000000       0.00000000       0.00000000          1
H         1.44523018      11.07256319      11.41623006         0.00000000       0.00000000       0.00000000          1
H         1.62150546       8.28535929      11.48488860         0.00000000       0.00000000       0.00000000          1
6
pbc=[F, F, F] list_num_par=6 frozen=false iter=20000 energy=-1.26974174 Lattice="15.00000000 0.00000000 0.00000000 0.00000000 15.00000000 0.00000000 0.00000000 0.00000000 15.00000000" energy_frozen_part=0.00000000 Properties=species:S:1:pos:R:3:velocities:R:3:Z:I:1
H         4.08632831      11.26168762      12.30728052         0.00000000       0.00000000       0.00000000          1
H         2.22205890       9.77970919      13.76759483         0.00000000       0.00000000       0.00000000          1
H         3.48595509       9.76748748      10.02447049         0.00000000       0.00000000       0.00000000          1
H         4.26261272       8.47448656      12.37590209         0.00000000       0.00000000       0.00000000          1
H         1.44540289      11.07271802      11.41616471         0.00000000       0.00000000       0.00000000          1
H         1.62168486       8.28551533      11.48478527         0.00000000       0.00000000       0.00000000          1
6
pbc=[F, F, F] list_num_par=6 frozen=false iter=20000 energy=-1.26974174 Lattice="15.00000000 0.00000000 0.00000000 0.00000000 15.00000000 0.00000000 0.00000000 0.00000000 15.00000000" energy_frozen_part=0.00000000 Properties=species:S:1:pos:R:3:velocities:R:3:Z:I:1
H         4.04667001      11.36739691      12.06681553         0.00000000       0.00000000       0.00000000          1
H         2.28229829      10.17024276      13.87183657         0.00000000       0.00000000       0.00000000          1
H         3.16999748       9.63322764      10.05972723         0.00000000       0.00000000       0.00000000          1
H         4.12663503       8.60485735      12.47459354         0.00000000       0.00000000       0.00000000          1
H         1.32566207      11.19861576      11.45697021         0.00000000       0.00000000       0.00000000          1
H         1.40562402       8.43608028      11.86474992         0.00000000       0.00000000       0.00000000          1
6
pbc=[F, F, F] list_num_par=6 frozen=false iter=20000 energy=-1.26974174 Lattice="15.00000000 0.00000000 0.00000000 0.00000000 15.00000000 0.00000000 0.00000000 0.00000000 15.00000000" energy_frozen_part=0.00000000 Properties=species:S:1:pos:R:3:velocities:R:3:Z:I:1
H         4.04640454      11.36756733      12.06680946         0.00000000       0.00000000       0.00000000          1
H         2.28215095      10.17020473      13.87181079         0.00000000       0.00000000       0.00000000          1
H         3.16985006       9.63340168      10.05967122         0.00000000       0.00000000       0.00000000          1
H         4.12660177       8.60502330      12.47448669         0.00000000       0.00000000       0.00000000          1
H         1.32540289      11.19858351      11.45699219         0.00000000       0.00000000       0.00000000          1
H         1.40560023       8.43604003      11.86466872         0.00000000       0.00000000       0.00000000          1
6
pbc=[F, F, F] list_num_par=6 frozen=false iter=20000 energy=-1.26974174 Lattice="15.00000000 0.00000000 0.00000000 0.00000000 15.00000000 0.00000000 0.00000000 0.00000000 15.00000000" energy_frozen_part=0.00000000 Properties=species:S:1:pos:R:3:velocities:R:3:Z:I:1
H         4.08616570      11.26154627      12.30717790         0.00000000       0.00000000       0.00000000          1
H         2.22198759       9.77957225      13.76761591         0.00000000       0.00000000       0.00000000          1
H         3.48569160       9.76730311      10.02442615         0.00000000       0.00000000       0.00000000          1
H         4.26248104       8.47434166      12.37583584         0.00000000       0.00000000       0.00000000          1
H         1.44519803      11.07253325      11.41620245         0.00000000       0.00000000       0.00000000          1
H         1.62151010       8.28533461      11.48486336         0.00000000       0.00000000       0.00000000          1
6
pbc=[F, F, F] list_num_par=6 frozen=false iter=20000 energy=-1.26974174 Lattice="15.00000000 0.00000000 0.00000000 0.00000000 15.00000000 0.00000000 0.00000000 0.00000000 15.00000000" energy_frozen_part=0.00000000 Properties=species:S:1:pos:R:3:velocities:R:3:Z:I:1
H         4.08632797      11.26168602      12.30727452         0.00000000       0.00000000       0.00000000          1
H         2.22205728       9.77971575      13.76759657         0.00000000       0.00000000       0.00000000          1
H         3.48595257       9.76748436      10.02447406         0.00000000       0.00000000       0.00000000          1
H         4.26260936       8.47448378      12.37590723         0.00000000       0.00000000       0.00000000          1
H         1.44539649      11.07271408      11.41616273         0.00000000       0.00000000       0.00000000          1
H         1.62168206       8.28551118      11.48479505         0.00000000       0.00000000       0.00000000          1
6
pbc=[F, F, F] list_num_par=6 frozen=false iter=20000 energy=-1.26974174 Lattice="15.00000000 0.00000000 0.00000000 0.00000000 15.00000000 0.00000000 0.00000000 0.00000000 15.00000000" energy_frozen_part=0.00000000 Properties=species:S:1:pos:R:3:velocities:R:3:Z:I:1
H         4.08617884      11.26153141      12.30723237         0.00000000       0.00000000       0.00000000          1
H         2.22196959       9.77954067      13.76762436         0.00000000       0.00000000       0.00000000          1
H         3.48572886       9.76732860      10.02444868         0.00000000       0.00000000       0.00000000          1
H         4.26248229       8.47432883      12.37585094         0.00000000       0.00000000       0.00000000          1
H         1.44521888      11.07253616      11.41622361         0.00000000       0.00000000       0.00000000          1
H         1.62152518       8.28533480      11.48483498         0.00000000       0.00000000       0.00000000          1
