6
pbc=[F, F, F] list_num_par=6 frozen=false iter=20000 energy=-1.26974174 Lattice="15.00000000 0.00000000 0.00000000 0.00000000 15.00000000 0.00000000 0.00000000 0.00000000 15.00000000" energy_frozen_part=0.00000000 Properties=species:S:1:pos:R:3:velocities:R:3:Z:I:1
H         9.60127514       9.13468883       7.29219001         0.00000000       0.00000000       0.00000000          1
H        10.13821634       9.64410555       4.59840706         0.00000000       0.00000000       0.00000000          1
H        11.19204081       7.36686623       5.82639503         0.00000000       0.00000000       0.00000000          1
H         9.16058333       7.11517833       3.92530569         0.00000000       0.00000000       0.00000000          1
H         8.62364701       6.60576614       6.61909535         0.00000000       0.00000000       0.00000000          1
H         7.56982277       8.88300386       5.39110871         0.00000000       0.00000000       0.00000000          1
6
pbc=[F, F, F] list_num_par=6 frozen=false iter=20000 energy=-1.26974174 Lattice="15.00000000 0.00000000 0.00000000 0.00000000 15.00000000 0.00000000 0.00000000 0.00000000 15.00000000" energy_frozen_part=0.00000000 Properties=species:S:1:pos:R:3:velocities:R:3:Z:I:1
H         9.60049361       9.13533537       7.29134771         0.00000000       0.00000000       0.00000000          1
H        10.13778722       9.64419094       4.59753244         0.00000000       0.00000000       0.00000000          1
H        11.19174350       7.36739793       5.82621619         0.00000000       0.00000000       0.00000000          1
H         9.16063449       7.11497331       3.92486269         0.00000000       0.00000000       0.00000000          1
H         8.62333456       6.60610619       6.61868713         0.00000000       0.00000000       0.00000000          1
H         7.56937931       8.88289784       5.38999971         0.00000000       0.00000000       0.00000000          1
6
pbc=[F, F, F] list_num_par=6 frozen=false iter=20000 energy=-1.26974174 Lattice="15.00000000 0.00000000 0.00000000 0.00000000 15.00000000 0.00000000 0.00000000 0.00000000 15.00000000" energy_frozen_part=0.00000000 Properties=species:S:1:pos:R:3:velocities:R:3:Z:I:1
H         9.60104253       9.13419545       7.29258266         0.00000000       0.00000000       0.00000000          1
H        10.13855475       9.64448784       4.59907904         0.00000000       0.00000000       0.00000000          1
H        11.19194764       7.36674188       5.82648673         0.00000000       0.00000000       0.00000000          1
H         9.16084084       7.11587703       3.92490738         0.00000000       0.00000000       0.00000000          1
H         8.62333224       6.60558532       6.61841615         0.00000000       0.00000000       0.00000000          1
H         7.56994020       8.88332882       5.39100209         0.00000000       0.00000000       0.00000000          1
6
pbc=[F, F, F] list_num_par=6 frozen=false iter=20000 energy=-1.26974174 Lattice="15.00000000 0.00000000 0.00000000 0.00000000 15.00000000 0.00000000 0.00000000 0.00000000 15.00000000" energy_frozen_part=0.00000000 Properties=species:S:1:pos:R:3:velocities:R:3:Z:I:1
H         9.60120105       9.13494953       7.29123207         0.00000000       0.00000000       0.00000000          1
H        10.13794335       9.64373044       4.59728850         0.00000000       0.00000000       0.00000000          1
H        11.19156638       7.36660224       5.82563706         0.00000000       0.00000000       0.00000000          1
H         9.15988797       7.11480220       3.92480605         0.00000000       0.00000000       0.00000000          1
H         8.62315508       6.60601587       6.61875754         0.00000000       0.00000000       0.00000000          1
H         7.56952669       8.88314289       5.39040972         0.00000000       0.00000000       0.00000000          1
6
pbc=[F, F, F] list_num_par=6 frozen=false iter=20000 energy=-1.26974174 Lattice="15.00000000 0.00000000 0.00000000 0.00000000 15.00000000 0.00000000 0.00000000 0.00000000 15.00000000" energy_frozen_part=0.00000000 Properties=species:S:1:pos:R:3:velocities:R:3:Z:I:1
H         9.60046254       9.13534830       7.29134154         0.00000000       0.00000000       0.00000000          1
H        10.13779638       9.64419387       4.59753119         0.00000000       0.00000000       0.00000000          1
H        11.19172774       7.36740097       5.82623910         0.00000000       0.00000000       0.00000000          1
H         9.16063826       7.11496353       3.92486495         0.00000000       0.00000000       0.00000000          1
H         8.62330767       6.60612636       6.61867786         0.00000000       0.00000000       0.00000000          1
H         7.56937193       8.88291897       5.38996959         0.00000000       0.00000000       0.00000000          1
6
pbc=[F, F, F] list_num_par=6 frozen=false iter=20000 energy=-1.26974174 Lattice="15.00000000 0.00000000 0.00000000 0.00000000 15.00000000 0.00000000 0.00000000 0.00000000 15.00000000" energy_frozen_part=0.00000000 Properties=species:S:1:pos:R:3:velocities:R:3:Z:I:1
H         9.60105911       9.13419350       7.29256490         0.00000000       0.00000000       0.00000000          1
H        10.13858121       9.64446351       4.59905761         0.00000000       0.00000000       0.00000000          1
H        11.19195153       7.36671652       5.82648371         0.00000000       0.00000000       0.00000000          1
H         9.16085749       7.11585267       3.92490284         0.00000000       0.00000000       0.00000000          1
H         8.62333357       6.60558367       6.61841127         0.00000000       0.00000000       0.00000000          1
H         7.56996355       8.88333329       5.39098930         0.00000000       0.00000000       0.00000000          1
6
pbc=[F, F, F] list_num_par=6 frozen=false iter=20000 energy=-1.26974174 Lattice="15.00000000 0.00000000 0.00000000 0.00000000 15.00000000 0.00000000 0.00000000 0.00000000 15.00000000" energy_frozen_part=0.00000000 Properties=species:S:1:pos:R:3:velocities:R:3:Z:I:1
H         9.60146938       9.13435891       7.29253464         0.00000000       0.00000000       0.00000000          1
H        10.13886845       9.64433448       4.59895025         0.00000000       0.00000000       0.00000000          1
H        11.19208128       7.36658464       5.82650267         0.00000000       0.00000000       0.00000000          1
H         9.16082708       7.11576818       3.92508360         0.00000000       0.00000000       0.00000000          1
H         8.62343448       6.60578999       6.61867849         0.00000000       0.00000000       0.00000000          1
H         7.57022247       8.88353572       5.39111077         0.00000000       0.00000000       0.00000000          1
6
pbc=[F, F, F] list_num_par=6 frozen=false iter=20000 energy=-1.26974174 Lattice="15.00000000 0.00000000 0.00000000 0.00000000 15.00000000 0.00000000 0.00000000 0.00000000 15.00000000" energy_frozen_part=0.00000000 Properties=species:S:1:pos:R:3:velocities:R:3:Z:I:1
H         9.60117047       9.13471199       7.29217546         0.00000000       0.00000000       0.00000000          1
H        10.13821886       9.64412667       4.59840679         0.00000000       0.00000000       0.00000000          1
H        11.19200128       7.36689882       5.82643526         0.00000000       0.00000000       0.00000000          1
H         9.16061828       7.11520228       3.92527138         0.00000000       0.00000000       0.00000000          1
H         8.62358326       6.60578569       6.61904000         0.00000000       0.00000000       0.00000000          1
H         7.56979400       8.88300984       5.39101025         0.00000000       0.00000000       0.00000000          1
6
pbc=[F, F, F] list_num_par=6 frozen=false iter=20000 energy=-1.26974174 Lattice="15.00000000 0.00000000 0.00000000 0.00000000 15.00000000 0.00000000 0.00000000 0.00000000 15.00000000" energy_frozen_part=0.00000000 Properties=species:S:1:pos:R:3:velocities:R:3:Z:I:1
H         9.60123346       9.13491558       7.29124181         0.00000000       0.00000000       0.00000000          1
H        10.13804243       9.64370730       4.59731523         0.00000000       0.00000000       0.00000000          1
H        11.19163292       7.36656581       5.82568709         0.00000000       0.00000000       0.00000000          1
H         9.16000546       7.11479445       3.92479489         0.00000000       0.00000000       0.00000000          1
H         8.62318124       6.60600224       6.61871777         0.00000000       0.00000000       0.00000000          1
H         7.56960098       8.88314097       5.39035168         0.00000000       0.00000000       0.00000000          1
6
pbc=[F, F, F] list_num_par=6 frozen=false iter=20000 energy=-1.26974174 Lattice="15.00000000 0.00000000 0.00000000 0.00000000 15.00000000 0.00000000 0.00000000 0.00000000 15.00000000" energy_frozen_part=0.00000000 Properties=species:S:1:pos:R:3:velocities:R:3:Z:I:1
H         9.60116455       9.13494455       7.29123465         0.00000000       0.00000000       0.00000000          1
H        10.13793001       9.64373876       4.59730157         0.00000000       0.00000000       0.00000000          1
H        11.19155598       7.36661205       5.82563688         0.00000000       0.00000000       0.00000000          1
H         9.15988736       7.11481566       3.92478755         0.00000000       0.00000000       0.00000000          1
H         8.62313816       6.60601690       6.61872618         0.00000000       0.00000000       0.00000000          1
H         7.56950148       8.88314449       5.39038335         0.00000000       0.00000000       0.00000000          1
6
pbc=[F, F, F] list_num_par=6 frozen=false iter=20000 energy=-1.26974174 Lattice="15.00000000 0.00000000 0.00000000 0.00000000 15.00000000 0.00000000 0.00000000 0.00000000 15.00000000" energy_frozen_part=0.00000000 Properties=species:S:1:pos:R:3:velocities:R:3:Z:I:1
H         9.60132586       9.13493486       7.29129114         0.00000000       0.00000000       0.00000000          1
H        10.13806801       9.64377167       4.59735778         0.00000000       0.00000000       0.00000000          1
H        11.19167627       7.36661083       5.82565783         0.00000000       0.00000000       0.00000000          1
H         9.15999576       7.11487610       3.92482327         0.00000000       0.00000000       0.00000000          1
H         8.62325699       6.60602851       6.61875633         0.00000000       0.00000000       0.00000000          1
H         7.56964268       8.88319920       5.39046468         0.00000000       0.00000000       0.00000000          1
6
pbc=[F, F, F] list_num_par=6 frozen=false iter=20000 energy=-1.26974174 Lattice="15.00000000 0.00000000 0.00000000 0.00000000 15.00000000 0.00000000 0.00000000 0.00000000 15.00000000" energy_frozen_part=0.00000000 Properties=species:S:1:pos:R:3:velocities:R:3:Z:I:1
H         9.60122816       9.13468994       7.29221149         0.00000000       0.00000000       0.00000000          1
H        10.13819832       9.64413555       4.59844321         0.00000000       0.00000000       0.00000000          1
H        11.19202837       7.36689551       5.82641969         0.00000000       0.00000000       0.00000000          1
H         9.16059971       7.11520958       3.92530411         0.00000000       0.00000000       0.00000000          1
H         8.62363267       6.60576338       6.61907450         0.00000000       0.00000000       0.00000000          1
H         7.56979756       8.88299469       5.39109026         0.00000000       0.00000000       0.00000000          1
6
pbc=[F, F, F] list_num_par=6 frozen=false iter=20000 energy=-1.26974174 Lattice="15.00000000 0.00000000 0.00000000 0.00000000 15.00000000 0.00000000 0.00000000 0.00000000 15.00000000" energy_frozen_part=0.00000000 Properties=species:S:1:pos:R:3:velocities:R:3:Z:I:1
H         9.60118366       9.13495177       7.29119243         0.00000000       0.00000000       0.00000000          1
H        10.13804086       9.64367775       4.59725453         0.00000000       0.00000000       0.00000000          1
H        11.19165820       7.36660525       5.82571168         0.00000000       0.00000000       0.00000000          1
H         9.16007711       7.11470712       3.92479113         0.00000000       0.00000000       0.00000000          1
H         8.62322931       6.60597922       6.61872541         0.00000000       0.00000000       0.00000000          1
H         7.56960540       8.88304787       5.39027123         0.00000000       0.00000000       0.00000000          1
6
pbc=[F, F, F] list_num_par=6 frozen=false iter=20000 energy=-1.26974174 Lattice="15.00000000 0.00000000 0.00000000 0.00000000 15.00000000 0.00000000 0.00000000 0.00000000 15.00000000" energy_frozen_part=0.00000000 Properties=species:S:1:pos:R:3:velocities:R:3:Z:I:1
H         9.60048593       9.13531945       7.29135245         0.00000000       0.00000000       0.00000000          1
H        10.13778486       9.64420701       4.59754575         0.00000000       0.00000000       0.00000000          1
H        11.19173306       7.36739821       5.82620930         0.00000000       0.00000000       0.00000000          1
H         9.16061616       7.11498896       3.92485808         0.00000000       0.00000000       0.00000000          1
H         8.62331791       6.60610515       6.61867178         0.00000000       0.00000000       0.00000000          1
H         7.56937189       8.88291365       5.38999825         0.00000000       0.00000000       0.00000000          1
6
pbc=[F, F, F] list_num_par=6 frozen=false iter=20000 energy=-1.26974174 Lattice="15.00000000 0.00000000 0.00000000 0.00000000 15.00000000 0.00000000 0.00000000 0.00000000 15.00000000" energy_frozen_part=0.00000000 Properties=species:S:1:pos:R:3:velocities:R:3:Z:I:1
H         9.60104168       9.13420568       7.29256708         0.00000000       0.00000000       0.00000000          1
H        10.13861230       9.64447496       4.59906897         0.00000000       0.00000000       0.00000000          1
H        11.19194346       7.36672037       5.82651462         0.00000000       0.00000000       0.00000000          1
H         9.16087039       7.11587836       3.92490618         0.00000000       0.00000000       0.00000000          1
H         8.62330541       6.60560118       6.61839579         0.00000000       0.00000000       0.00000000          1
H         7.56996822       8.88335665       5.39096297         0.00000000       0.00000000       0.00000000          1
6
pbc=[F, F, F] list_num_par=6 frozen=false iter=20000 energy=-1.26974174 Lattice="15.00000000 0.00000000 0.00000000 0.00000000 15.00000000 0.00000000 0.00000000 0.00000000 15.00000000" energy_frozen_part=0.00000000 Properties=species:S:1:pos:R:3:velocities:R:3:Z:I:1
H         9.60049020       9.13533393       7.29135041         0.00000000       0.00000000       0.00000000          1
H        10.13778764       9.64419016       4.59753691         0.00000000       0.00000000       0.00000000          1
H        11.19173810       7.36739739       5.82621455         0.00000000       0.00000000       0.00000000          1
H         9.16062513       7.11497519       3.92485880         0.00000000       0.00000000       0.00000000          1
H         8.62333031       6.60610549       6.61868072         0.00000000       0.00000000       0.00000000          1
H         7.56937653       8.88290597       5.38999900         0.00000000       0.00000000       0.00000000          1
6
pbc=[F, F, F] list_num_par=6 frozen=false iter=20000 energy=-1.26974174 Lattice="15.00000000 0.00000000 0.00000000 0.00000000 15.00000000 0.00000000 0.00000000 0.00000000 15.00000000" energy_frozen_part=0.00000000 Properties=species:S:1:pos:R:3:velocities:R:3:Z:I:1
H         9.60133104       9.13494500       7.29130618         0.00000000       0.00000000       0.00000000          1
H        10.13808179       9.64377304       4.59737510         0.00000000       0.00000000       0.00000000          1
H        11.19167951       7.36661083       5.82567326         0.00000000       0.00000000       0.00000000          1
H         9.15999404       7.11486940       3.92483680         0.00000000       0.00000000       0.00000000          1
H         8.62325685       6.60603816       6.61877649         0.00000000       0.00000000       0.00000000          1
H         7.56965296       8.88320473       5.39046446         0.00000000       0.00000000       0.00000000          1
6
pbc=[F, F, F] list_num_par=6 frozen=false iter=20000 energy=-1.26974174 Lattice="15.00000000 0.00000000 0.00000000 0.00000000 15.00000000 0.00000000 0.00000000 0.00000000 15.00000000" energy_frozen_part=0.00000000 Properties=species:S:1:pos:R:3:velocities:R:3:Z:I:1
H         9.60132279       9.13493942       7.29131883         0.00000000       0.00000000       0.00000000          1
H        10.13809079       9.64377186       4.59739196         0.00000000       0.00000000       0.00000000          1
H        11.19168933       7.36661002       5.82570054         0.00000000       0.00000000       0.00000000          1
H         9.16002451       7.11487362       3.92485159         0.00000000       0.00000000       0.00000000          1
H         8.62325804       6.60603101       6.61878228         0.00000000       0.00000000       0.00000000          1
H         7.56965634       8.88319275       5.39047610         0.00000000       0.00000000       0.00000000          1
6
pbc=[F, F, F] list_num_par=6 frozen=false iter=20000 energy=-1.26974174 Lattice="15.00000000 0.00000000 0.00000000 0.00000000 15.00000000 0.00000000 0.00000000 0.00000000 15.00000000" energy_frozen_part=0.00000000 Properties=species:S:1:pos:R:3:velocities:R:3:Z:I:1
H         9.60129709       9.13491006       7.29128843         0.00000000       0.00000000       0.00000000          1
H        10.13807090       9.64376595       4.59736875         0.00000000       0.00000000       0.00000000          1
H        11.19168337       7.36660812       5.82567682         0.00000000       0.00000000       0.00000000          1
H         9.16003049       7.11486060       3.92480814         0.00000000       0.00000000       0.00000000          1
H         8.62325234       6.60600866       6.61872911         0.00000000       0.00000000       0.00000000          1
H         7.56964020       8.88317224       5.39042487         0.00000000       0.00000000       0.00000000          1
6
pbc=[F, F, F] list_num_par=6 frozen=false iter=20000 energy=-1.26974174 Lattice="15.00000000 0.00000000 0.00000000 0.00000000 15.00000000 0.00000000 0.00000000 0.00000000 15.00000000" energy_frozen_part=0.00000000 Properties=species:S:1:pos:R:3:velocities:R:3:Z:I:1
H         9.60121631       9.13493652       7.29123630         0.00000000       0.00000000       0.00000000          1
H        10.13795213       9.64373157       4.59730064         0.00000000       0.00000000       0.00000000          1
H        11.19156575       7.36659008       5.82563191         0.00000000       0.00000000       0.00000000          1
H         9.15988002       7.11481759       3.92479768         0.00000000       0.00000000       0.00000000          1
H         8.62314759       6.60601882       6.61874416         0.00000000       0.00000000       0.00000000          1
H         7.56952644       8.88315527       5.39041071         0.00000000       0.00000000       0.00000000          1
6
pbc=[F, F, F] list_num_par=6 frozen=false iter=20000 energy=-1.26974174 Lattice="15.00000000 0.00000000 0.00000000 0.00000000 15.00000000 0.00000000 0.00000000 0.00000000 15.00000000" energy_frozen_part=0.00000000 Properties=species:S:1:pos:R:3:velocities:R:3:Z:I:1
H         9.60128302       9.13485889       7.29122943         0.00000000       0.00000000       0.00000000          1
H        10.13803360       9.64367681       4.59728968         0.00000000       0.00000000       0.00000000          1
H        11.19159175       7.36649170       5.82560745         0.00000000       0.00000000       0.00000000          1
H         9.15990154       7.11479062       3.92477240         0.00000000       0.00000000       0.00000000          1
H         8.62315168       6.60597466       6.61870295         0.00000000       0.00000000       0.00000000          1
H         7.56959530       8.88316101       5.39039514         0.00000000       0.00000000       0.00000000          1
6
pbc=[F, F, F] list_num_par=6 frozen=false iter=20000 energy=-1.26974174 Lattice="15.00000000 0.00000000 0.00000000 0.00000000 15.00000000 0.00000000 0.00000000 0.00000000 15.00000000" energy_frozen_part=0.00000000 Properties=species:S:1:pos:R:3:velocities:R:3:Z:I:1
H         9.60106959       9.13418923       7.29256090         0.00000000       0.00000000       0.00000000          1
H        10.13858850       9.64446349       4.59904863         0.00000000       0.00000000       0.00000000          1
H        11.19195394       7.36672203       5.82647798         0.00000000       0.00000000       0.00000000          1
H         9.16086130       7.11585999       3.92490036         0.00000000       0.00000000       0.00000000          1
H         8.62333216       6.60558495       6.61840481         0.00000000       0.00000000       0.00000000          1
H         7.56997240       8.88333251       5.39097603         0.00000000       0.00000000       0.00000000          1
6
pbc=[F, F, F] list_num_par=6 frozen=false iter=20000 energy=-1.26974174 Lattice="15.00000000 0.00000000 0.00000000 0.00000000 15.00000000 0.00000000 0.00000000 0.00000000 15.00000000" energy_frozen_part=0.00000000 Properties=species:S:1:pos:R:3:velocities:R:3:Z:I:1
H         9.60045301       9.13533966       7.29134881         0.00000000       0.00000000       0.00000000          1
H        10.13778859       9.64418915       4.59753199         0.00000000       0.00000000       0.00000000          1
H        11.19171883       7.36739446       5.82624700         0.00000000       0.00000000       0.00000000          1
H         9.16063023       7.11496289       3.92486859         0.00000000       0.00000000       0.00000000          1
H         8.62328996       6.60612559       6.61868030         0.00000000       0.00000000       0.00000000          1
H         7.56936487       8.88291926       5.38995746         0.00000000       0.00000000       0.00000000          1
6
pbc=[F, F, F] list_num_par=6 frozen=false iter=20000 energy=-1.26974174 Lattice="15.00000000 0.00000000 0.00000000 0.00000000 15.00000000 0.00000000 0.00000000 0.00000000 15.00000000" energy_frozen_part=0.00000000 Properties=species:S:1:pos:R:3:velocities:R:3:Z:I:1
H         9.60118692       9.13494804       7.29121457         0.00000000       0.00000000       0.00000000          1
H        10.13796385       9.64373239       4.59727832         0.00000000       0.00000000       0.00000000          1
H        11.19157294       7.36659736       5.82563687         0.00000000       0.00000000       0.00000000          1
H         9.15991434       7.11480533       3.92477781         0.00000000       0.00000000       0.00000000          1
H         8.62314292       6.60602453       6.61872268         0.00000000       0.00000000       0.00000000          1
H         7.56952928       8.88315408       5.39035877         0.00000000       0.00000000       0.00000000          1
6
pbc=[F, F, F] list_num_par=6 frozen=false iter=20000 energy=-1.26974174 Lattice="15.00000000 0.00000000 0.00000000 0.00000000 15.00000000 0.00000000 0.00000000 0.00000000 15.00000000" energy_frozen_part=0.00000000 Properties=species:S:1:pos:R:3:velocities:R:3:Z:I:1
H         9.60132381       9.13491483       7.29131278         0.00000000       0.00000000       0.00000000          1
H        10.13809773       9.64376471       4.59738813         0.00000000       0.00000000       0.00000000          1
H        11.19168510       7.36659286       5.82569392         0.00000000       0.00000000       0.00000000          1
H         9.16002793       7.11486626       3.92483375         0.00000000       0.00000000       0.00000000          1
H         8.62324524       6.60601707       6.61875433         0.00000000       0.00000000       0.00000000          1
H         7.56966322       8.88318634       5.39045954         0.00000000       0.00000000       0.00000000          1
6
pbc=[F, F, F] list_num_par=6 frozen=false iter=20000 energy=-1.26974174 Lattice="15.00000000 0.00000000 0.00000000 0.00000000 15.00000000 0.00000000 0.00000000 0.00000000 15.00000000" energy_frozen_part=0.00000000 Properties=species:S:1:pos:R:3:velocities:R:3:Z:I:1
H         9.60045223       9.13535406       7.29133731         0.00000000       0.00000000       0.00000000          1
H        10.13780796       9.64419378       4.59752572         0.00000000       0.00000000       0.00000000          1
H        11.19171319       7.36738769       5.82624440         0.00000000       0.00000000       0.00000000          1
H         9.16063374       7.11497793       3.92485905         0.00000000       0.00000000       0.00000000          1
H         8.62328219       6.60613549       6.61866845         0.00000000       0.00000000       0.00000000          1
H         7.56937949       8.88293408       5.38994803         0.00000000       0.00000000       0.00000000          1
6
pbc=[F, F, F] list_num_par=6 frozen=false iter=20000 energy=-1.26974174 Lattice="15.00000000 0.00000000 0.00000000 0.00000000 15.00000000 0.00000000 0.00000000 0.00000000 15.00000000" energy_frozen_part=0.00000000 Properties=species:S:1:pos:R:3:velocities:R:3:Z:I:1
H         9.60123327       9.13491121       7.29126611         0.00000000       0.00000000       0.00000000          1
H        10.13804003       9.64370856       4.59733602         0.00000000       0.00000000       0.00000000          1
H        11.19160951       7.36655551       5.82568633         0.00000000       0.00000000       0.00000000          1
H         9.15996522       7.11480926       3.92480264         0.00000000       0.00000000       0.00000000          1
H         8.62316321       6.60600946       6.61873933         0.00000000       0.00000000       0.00000000          1
H         7.56958987       8.88315905       5.39038597         0.00000000       0.00000000       0.00000000          1
6
pbc=[F, F, F] list_num_par=6 frozen=false iter=20000 energy=-1.26974174 Lattice="15.00000000 0.00000000 0.00000000 0.00000000 15.00000000 0.00000000 0.00000000 0.00000000 15.00000000" energy_frozen_part=0.00000000 Properties=species:S:1:pos:R:3:velocities:R:3:Z:I:1
H         9.60047872       9.13532603       7.29136023         0.00000000       0.00000000       0.00000000          1
H        10.13778544       9.64420267       4.59754774         0.00000000       0.00000000       0.00000000          1
H        11.19172498       7.36739562       5.82622410         0.00000000       0.00000000       0.00000000          1
H         9.16061865       7.11498525       3.92487032         0.00000000       0.00000000       0.00000000          1
H         8.62331604       6.60610607       6.61868254         0.00000000       0.00000000       0.00000000          1
H         7.56936786       8.88291013       5.38999973         0.00000000       0.00000000       0.00000000          1
6
pbc=[F, F, F] list_num_par=6 frozen=false iter=20000 energy=-1.26974174 Lattice="15.00000000 0.00000000 0.00000000 0.00000000 15.00000000 0.00000000 0.00000000 0.00000000 15.00000000" energy_frozen_part=0.00000000 Properties=species:S:1:pos:R:3:velocities:R:3:Z:I:1
H         9.60126032       9.13470030       7.29219846         0.00000000       0.00000000       0.00000000          1
H        10.13820816       9.64412394       4.59841355         0.00000000       0.00000000       0.00000000          1
H        11.19203706       7.36688911       5.82639980         0.00000000       0.00000000       0.00000000          1
H         9.16059831       7.11518798       3.92530820         0.00000000       0.00000000       0.00000000          1
H         8.62364752       6.60576869       6.61909022         0.00000000       0.00000000       0.00000000          1
H         7.56981331       8.88299505       5.39109920         0.00000000       0.00000000       0.00000000          1
6
pbc=[F, F, F] list_num_par=6 frozen=false iter=20000 energy=-1.26974174 Lattice="15.00000000 0.00000000 0.00000000 0.00000000 15.00000000 0.00000000 0.00000000 0.00000000 15.00000000" energy_frozen_part=0.00000000 Properties=species:S:1:pos:R:3:velocities:R:3:Z:I:1
H         9.60045509       9.13533958       7.29133734         0.00000000       0.00000000       0.00000000          1
H        10.13777861       9.64419658       4.59752149         0.00000000       0.00000000       0.00000000          1
H        11.19172590       7.36740478       5.82622369         0.00000000       0.00000000       0.00000000          1
H         9.16063294       7.11496664       3.92484830         0.00000000       0.00000000       0.00000000          1
H         8.62330359       6.60612063       6.61865708         0.00000000       0.00000000       0.00000000          1
H         7.56936284       8.88290386       5.38995578         0.00000000       0.00000000       0.00000000          1
6
pbc=[F, F, F] list_num_par=6 frozen=false iter=20000 energy=-1.26974174 Lattice="15.00000000 0.00000000 0.00000000 0.00000000 15.00000000 0.00000000 0.00000000 0.00000000 15.00000000" energy_frozen_part=0.00000000 Properties=species:S:1:pos:R:3:velocities:R:3:Z:I:1
H         9.60117522       9.13494746       7.29121841         0.00000000       0.00000000       0.00000000          1
H        10.13793509       9.64374889       4.59728681         0.00000000       0.00000000       0.00000000          1
H        11.19156517       7.36661865       5.82563134         0.00000000       0.00000000       0.00000000          1
H         9.15991537       7.11481329       3.92477570         0.00000000       0.00000000       0.00000000          1
H         8.62314854       6.60602007       6.61871678         0.00000000       0.00000000       0.00000000          1
H         7.56951769       8.88314478       5.39036210         0.00000000       0.00000000       0.00000000          1
6
pbc=[F, F, F] list_num_par=6 frozen=false iter=20000 energy=-1.26974174 Lattice="15.00000000 0.00000000 0.00000000 0.00000000 15.00000000 0.00000000 0.00000000 0.00000000 15.00000000" energy_frozen_part=0.00000000 Properties=species:S:1:pos:R:3:velocities:R:3:Z:I:1
H         9.60124301       9.13468175       7.29221569         0.00000000       0.00000000       0.00000000          1
H        10.13819214       9.64412205       4.59843846         0.00000000       0.00000000       0.00000000          1
H        11.19202428       7.36687928       5.82641475         0.00000000       0.00000000       0.00000000          1
H         9.16058831       7.11520386       3.92530373         0.00000000       0.00000000       0.00000000          1
H         8.62363377       6.60575716       6.61908007         0.00000000       0.00000000       0.00000000          1
H         7.56980452       8.88299893       5.39111184         0.00000000       0.00000000       0.00000000          1
6
pbc=[F, F, F] list_num_par=6 frozen=false iter=20000 energy=-1.26974174 Lattice="15.00000000 0.00000000 0.00000000 0.00000000 15.00000000 0.00000000 0.00000000 0.00000000 15.00000000" energy_frozen_part=0.00000000 Properties=species:S:1:pos:R:3:velocities:R:3:Z:I:1
H         9.60120491       9.13494774       7.29122756         0.00000000       0.00000000       0.00000000          1
H        10.13794798       9.64373761       4.59727876         0.00000000       0.00000000       0.00000000          1
H        11.19157528       7.36661001       5.82562915         0.00000000       0.00000000       0.00000000          1
H         9.15989350       7.11481196       3.92478936         0.00000000       0.00000000       0.00000000          1
H         8.62315628       6.60601941       6.61873753         0.00000000       0.00000000       0.00000000          1
H         7.56952841       8.88315338       5.39039184         0.00000000       0.00000000       0.00000000          1
6
pbc=[F, F, F] list_num_par=6 frozen=false iter=20000 energy=-1.26974174 Lattice="15.00000000 0.00000000 0.00000000 0.00000000 15.00000000 0.00000000 0.00000000 0.00000000 15.00000000" energy_frozen_part=0.00000000 Properties=species:S:1:pos:R:3:velocities:R:3:Z:I:1
H         9.60116784       9.13492816       7.29122163         0.00000000       0.00000000       0.00000000          1
H        10.13792172       9.64373100       4.59727598         0.00000000       0.00000000       0.00000000          1
H        11.19158152       7.36661657       5.82562811         0.00000000       0.00000000       0.00000000          1
H         9.15991800       7.11479294       3.92478144         0.00000000       0.00000000       0.00000000          1
H         8.62316746       6.60599308       6.61871879         0.00000000       0.00000000       0.00000000          1
H         7.56951168       8.88310563       5.39037475         0.00000000       0.00000000       0.00000000          1
6
pbc=[F, F, F] list_num_par=6 frozen=false iter=20000 energy=-1.26974174 Lattice="15.00000000 0.00000000 0.00000000 0.00000000 15.00000000 0.00000000 0.00000000 0.00000000 15.00000000" energy_frozen_part=0.00000000 Properties=species:S:1:pos:R:3:velocities:R:3:Z:I:1
H         9.60130752       9.13492193       7.29127648         0.00000000       0.00000000       0.00000000          1
H        10.13805938       9.64376458       4.59733986         0.00000000       0.00000000       0.00000000          1
H        11.19168063       7.36660543       5.82564773         0.00000000       0.00000000       0.00000000          1
H         9.16002000       7.11485179       3.92479869         0.00000000       0.00000000       0.00000000          1
H         8.62325352       6.60601222       6.61872721         0.00000000       0.00000000       0.00000000          1
H         7.56963922       8.88316423       5.39042402         0.00000000       0.00000000       0.00000000          1
6
pbc=[F, F, F] list_num_par=6 frozen=false iter=20000 energy=-1.26974174 Lattice="15.00000000 0.00000000 0.00000000 0.00000000 15.00000000 0.00000000 0.00000000 0.00000000 15.00000000" energy_frozen_part=0.00000000 Properties=species:S:1:pos:R:3:velocities:R:3:Z:I:1
H         9.60122618       9.13469910       7.29221798         0.00000000       0.00000000       0.00000000          1
H        10.13817692       9.64413243       4.59843794         0.00000000       0.00000000       0.00000000          1
H        11.19201614       7.36690175       5.82641342         0.00000000       0.00000000       0.00000000          1
H         9.16058267       7.11519929       3.92530657         0.00000000       0.00000000       0.00000000          1
H         8.62362874       6.60576238       6.61908386         0.00000000       0.00000000       0.00000000          1
H         7.56979253       8.88298887       5.39110507         0.00000000       0.00000000       0.00000000          1
6
pbc=[F, F, F] list_num_par=6 frozen=false iter=20000 energy=-1.26974174 Lattice="15.00000000 0.00000000 0.00000000 0.00000000 15.00000000 0.00000000 0.00000000 0.00000000 15.00000000" energy_frozen_part=0.00000000 Properties=species:S:1:pos:R:3:velocities:R:3:Z:I:1
H         9.60121749       9.13495790       7.29121601         0.00000000       0.00000000       0.00000000          1
H        10.13794784       9.64372309       4.59727137         0.00000000       0.00000000       0.00000000          1
H        11.19157808       7.36659723       5.82562730         0.00000000       0.00000000       0.00000000          1
H         9.15989149       7.11479979       3.92480818         0.00000000       0.00000000       0.00000000          1
H         8.62315573       6.60602816       6.61875147         0.00000000       0.00000000       0.00000000          1
H         7.56952724       8.88315991       5.39039382         0.00000000       0.00000000       0.00000000          1
6
pbc=[F, F, F] list_num_par=6 frozen=false iter=20000 energy=-1.26974174 Lattice="15.00000000 0.00000000 0.00000000 0.00000000 15.00000000 0.00000000 0.00000000 0.00000000 15.00000000" energy_frozen_part=0.00000000 Properties=species:S:1:pos:R:3:velocities:R:3:Z:I:1
H         9.60132929       9.13493440       7.29130709         0.00000000       0.00000000       0.00000000          1
H        10.13808106       9.64376681       4.59737285         0.00000000       0.00000000       0.00000000          1
H        11.19167353       7.36660285       5.82567923         0.00000000       0.00000000       0.00000000          1
H         9.16000237       7.11486733       3.92483294         0.00000000       0.00000000       0.00000000          1
H         8.62325594       6.60602959       6.61876547         0.00000000       0.00000000       0.00000000          1
H         7.56965285       8.88319619       5.39046404         0.00000000       0.00000000       0.00000000          1
6
pbc=[F, F, F] list_num_par=6 frozen=false iter=20000 energy=-1.26974174 Lattice="15.00000000 0.00000000 0.00000000 0.00000000 15.00000000 0.00000000 0.00000000 0.00000000 15.00000000" energy_frozen_part=0.00000000 Properties=species:S:1:pos:R:3:velocities:R:3:Z:I:1
H         9.60104059       9.13417720       7.29257753         0.00000000       0.00000000       0.00000000          1
H        10.13857940       9.64447360       4.59907719         0.00000000       0.00000000       0.00000000          1
H        11.19193884       7.36671718       5.82648795         0.00000000       0.00000000       0.00000000          1
H         9.16084841       7.11588370       3.92489391         0.00000000       0.00000000       0.00000000          1
H         8.62331048       6.60558240       6.61839058         0.00000000       0.00000000       0.00000000          1
H         7.56995483       8.88334232       5.39099403         0.00000000       0.00000000       0.00000000          1
6
pbc=[F, F, F] list_num_par=6 frozen=false iter=20000 energy=-1.26974174 Lattice="15.00000000 0.00000000 0.00000000 0.00000000 15.00000000 0.00000000 0.00000000 0.00000000 15.00000000" energy_frozen_part=0.00000000 Properties=species:S:1:pos:R:3:velocities:R:3:Z:I:1
H         9.60120530       9.13490893       7.29126500         0.00000000       0.00000000       0.00000000          1
H        10.13801753       9.64371570       4.59733904         0.00000000       0.00000000       0.00000000          1
H        11.19160297       7.36656931       5.82568900         0.00000000       0.00000000       0.00000000          1
H         9.15996705       7.11479945       3.92480029         0.00000000       0.00000000       0.00000000          1
H         8.62315836       6.60599706       6.61872235         0.00000000       0.00000000       0.00000000          1
H         7.56957088       8.88313753       5.39037876         0.00000000       0.00000000       0.00000000          1
6
pbc=[F, F, F] list_num_par=6 frozen=false iter=20000 energy=-1.26974174 Lattice="15.00000000 0.00000000 0.00000000 0.00000000 15.00000000 0.00000000 0.00000000 0.00000000 15.00000000" energy_frozen_part=0.00000000 Properties=species:S:1:pos:R:3:velocities:R:3:Z:I:1
H         9.60131151       9.13493357       7.29127561         0.00000000       0.00000000       0.00000000          1
H        10.13806594       9.64376522       4.59734949         0.00000000       0.00000000       0.00000000          1
H        11.19167385       7.36661021       5.82565862         0.00000000       0.00000000       0.00000000          1
H         9.16000776       7.11486497       3.92480866         0.00000000       0.00000000       0.00000000          1
H         8.62324355       6.60602859       6.61874054         0.00000000       0.00000000       0.00000000          1
H         7.56964015       8.88318544       5.39042960         0.00000000       0.00000000       0.00000000          1
6
pbc=[F, F, F] list_num_par=6 frozen=false iter=20000 energy=-1.26974174 Lattice="15.00000000 0.00000000 0.00000000 0.00000000 15.00000000 0.00000000 0.00000000 0.00000000 15.00000000" energy_frozen_part=0.00000000 Properties=species:S:1:pos:R:3:velocities:R:3:Z:I:1
H         9.60120952       9.13495315       7.29124373         0.00000000       0.00000000       0.00000000          1
H        10.13798112       9.64376491       4.59730995         0.00000000       0.00000000       0.00000000          1
H        11.19158875       7.36662425       5.82564999         0.00000000       0.00000000       0.00000000          1
H         9.15992955       7.11484703       3.92479494         0.00000000       0.00000000       0.00000000          1
H         8.62315980       6.60603559       6.61872568         0.00000000       0.00000000       0.00000000          1
H         7.56954421       8.88317436       5.39039113         0.00000000       0.00000000       0.00000000          1
6
pbc=[F, F, F] list_num_par=6 frozen=false iter=20000 energy=-1.26974174 Lattice="15.00000000 0.00000000 0.00000000 0.00000000 15.00000000 0.00000000 0.00000000 0.00000000 15.00000000" energy_frozen_part=0.00000000 Properties=species:S:1:pos:R:3:velocities:R:3:Z:I:1
H         9.60119065       9.13496296       7.29120114         0.00000000       0.00000000       0.00000000          1
H        10.13802187       9.64372903       4.59726657         0.00000000       0.00000000       0.00000000          1
H        11.19165994       7.36664180       5.82568267         0.00000000       0.00000000       0.00000000          1
H         9.16006030       7.11476656       3.92478317         0.00000000       0.00000000       0.00000000          1
H         8.62322568       6.60600195       6.61870796         0.00000000       0.00000000       0.00000000          1
H         7.56959103       8.88309168       5.39028782         0.00000000       0.00000000       0.00000000          1
6
pbc=[F, F, F] list_num_par=6 frozen=false iter=20000 energy=-1.26974174 Lattice="15.00000000 0.00000000 0.00000000 0.00000000 15.00000000 0.00000000 0.00000000 0.00000000 15.00000000" energy_frozen_part=0.00000000 Properties=species:S:1:pos:R:3:velocities:R:3:Z:I:1
H         9.60121463       9.13495754       7.29122396         0.00000000       0.00000000       0.00000000          1
H        10.13795833       9.64372378       4.59727769         0.00000000       0.00000000       0.00000000          1
H        11.19157475       7.36659035       5.82563062         0.00000000       0.00000000       0.00000000          1
H         9.15989118       7.11479902       3.92480944         0.00000000       0.00000000       0.00000000          1
H         8.62314978       6.60603104       6.61875766         0.00000000       0.00000000       0.00000000          1
H         7.56953111       8.88315774       5.39039657         0.00000000       0.00000000       0.00000000          1
6
pbc=[F, F, F] list_num_par=6 frozen=false iter=20000 energy=-1.26974174 Lattice="15.00000000 0.00000000 0.00000000 0.00000000 15.00000000 0.00000000 0.00000000 0.00000000 15.00000000" energy_frozen_part=0.00000000 Properties=species:S:1:pos:R:3:velocities:R:3:Z:I:1
H         9.60118756       9.13492561       7.29121875         0.00000000       0.00000000       0.00000000          1
H        10.13793174       9.64373298       4.59727549         0.00000000       0.00000000       0.00000000          1
H        11.19156839       7.36659897       5.82561622         0.00000000       0.00000000       0.00000000          1
H         9.15990500       7.11480776       3.92477159         0.00000000       0.00000000       0.00000000          1
H         8.62314478       6.60599915       6.61870631         0.00000000       0.00000000       0.00000000          1
H         7.56951797       8.88313747       5.39037590         0.00000000       0.00000000       0.00000000          1
6
pbc=[F, F, F] list_num_par=6 frozen=false iter=20000 energy=-1.26974174 Lattice="15.00000000 0.00000000 0.00000000 0.00000000 15.00000000 0.00000000 0.00000000 0.00000000 15.00000000" energy_frozen_part=0.00000000 Properties=species:S:1:pos:R:3:velocities:R:3:Z:I:1
H         9.60120373       9.13496000       7.29124817         0.00000000       0.00000000       0.00000000          1
H        10.13796969       9.64376780       4.59730503         0.00000000       0.00000000       0.00000000          1
H        11.19158596       7.36663265       5.82564745         0.00000000       0.00000000       0.00000000          1
H         9.15992888       7.11484867       3.92479016         0.00000000       0.00000000       0.00000000          1
H         8.62316204       6.60604342       6.61872589         0.00000000       0.00000000       0.00000000          1
H         7.56955012       8.88318517       5.39038570         0.00000000       0.00000000       0.00000000          1
6
pbc=[F, F, F] list_num_par=6 frozen=false iter=20000 energy=-1.26974174 Lattice="15.00000000 0.00000000 0.00000000 0.00000000 15.00000000 0.00000000 0.00000000 0.00000000 15.00000000" energy_frozen_part=0.00000000 Properties=species:S:1:pos:R:3:velocities:R:3:Z:I:1
H         9.60125750       9.13468448       7.29218589         0.00000000       0.00000000       0.00000000          1
H        10.13821988       9.64409615       4.59840616         0.00000000       0.00000000       0.00000000          1
H        11.19203188       7.36686128       5.82639716         0.00000000       0.00000000       0.00000000          1
H         9.16059704       7.11518143       3.92529095         0.00000000       0.00000000       0.00000000          1
H         8.62363003       6.60576231       6.61906503         0.00000000       0.00000000       0.00000000          1
H         7.56982329       8.88299866       5.39108352         0.00000000       0.00000000       0.00000000          1
6
pbc=[F, F, F] list_num_par=6 frozen=false iter=20000 energy=-1.26974174 Lattice="15.00000000 0.00000000 0.00000000 0.00000000 15.00000000 0.00000000 0.00000000 0.00000000 15.00000000" energy_frozen_part=0.00000000 Properties=species:S:1:pos:R:3:velocities:R:3:Z:I:1
H         9.60123343       9.13489361       7.29126224         0.00000000       0.00000000       0.00000000          1
H        10.13803376       9.64370417       4.59733039         0.00000000       0.00000000       0.00000000          1
H        11.19160551       7.36654471       5.82567806         0.00000000       0.00000000       0.00000000          1
H         9.15996148       7.11480160       3.92479678         0.00000000       0.00000000       0.00000000          1
H         8.62315405       6.60599303       6.61872526         0.00000000       0.00000000       0.00000000          1
H         7.56959162       8.88315236       5.39039095         0.00000000       0.00000000       0.00000000          1
6
pbc=[F, F, F] list_num_par=6 frozen=false iter=20000 energy=-1.26974174 Lattice="15.00000000 0.00000000 0.00000000 0.00000000 15.00000000 0.00000000 0.00000000 0.00000000 15.00000000" energy_frozen_part=0.00000000 Properties=species:S:1:pos:R:3:velocities:R:3:Z:I:1
H         9.60128196       9.13469994       7.29217307         0.00000000       0.00000000       0.00000000          1
H        10.13823566       9.64409999       4.59839018         0.00000000       0.00000000       0.00000000          1
H        11.19204255       7.36686092       5.82639550         0.00000000       0.00000000       0.00000000          1
H         9.16060223       7.11518200       3.92529741         0.00000000       0.00000000       0.00000000          1
H         8.62364283       6.60577891       6.61908234         0.00000000       0.00000000       0.00000000          1
H         7.56983511       8.88301425       5.39108442         0.00000000       0.00000000       0.00000000          1
6
pbc=[F, F, F] list_num_par=6 frozen=false iter=20000 energy=-1.26974174 Lattice="15.00000000 0.00000000 0.00000000 0.00000000 15.00000000 0.00000000 0.00000000 0.00000000 15.00000000" energy_frozen_part=0.00000000 Properties=species:S:1:pos:R:3:velocities:R:3:Z:I:1
H         9.60129528       9.13492649       7.29127872         0.00000000       0.00000000       0.00000000          1
H        10.13806032       9.64377351       4.59735318         0.00000000       0.00000000       0.00000000          1
H        11.19167855       7.36661142       5.82566289         0.00000000       0.00000000       0.00000000          1
H         9.16002331       7.11486101       3.92480346         0.00000000       0.00000000       0.00000000          1
H         8.62325294       6.60601140       6.61873363         0.00000000       0.00000000       0.00000000          1
H         7.56964130       8.88316886       5.39042262         0.00000000       0.00000000       0.00000000          1
6
pbc=[F, F, F] list_num_par=6 frozen=false iter=20000 energy=-1.26974174 Lattice="15.00000000 0.00000000 0.00000000 0.00000000 15.00000000 0.00000000 0.00000000 0.00000000 15.00000000" energy_frozen_part=0.00000000 Properties=species:S:1:pos:R:3:velocities:R:3:Z:I:1
H         9.60123793       9.13490064       7.29125414         0.00000000       0.00000000       0.00000000          1
H        10.13804372       9.64370239       4.59733084         0.00000000       0.00000000       0.00000000          1
H        11.19159976       7.36653611       5.82567076         0.00000000       0.00000000       0.00000000          1
H         9.15996202       7.11479593       3.92480125         0.00000000       0.00000000       0.00000000          1
H         8.62314876       6.60599940       6.61872808         0.00000000       0.00000000       0.00000000          1
H         7.56959628       8.88315790       5.39037646         0.00000000       0.00000000       0.00000000          1
6
pbc=[F, F, F] list_num_par=6 frozen=false iter=20000 energy=-1.26974174 Lattice="15.00000000 0.00000000 0.00000000 0.00000000 15.00000000 0.00000000 0.00000000 0.00000000 15.00000000" energy_frozen_part=0.00000000 Properties=species:S:1:pos:R:3:velocities:R:3:Z:I:1
H         9.60119297       9.13493677       7.29122035         0.00000000       0.00000000       0.00000000          1
H        10.13793990       9.64373973       4.59728588         0.00000000       0.00000000       0.00000000          1
H        11.19156779       7.36660101       5.82562356         0.00000000       0.00000000       0.00000000          1
H         9.15990325       7.11480845       3.92477936         0.00000000       0.00000000       0.00000000          1
H         8.62315387       6.60600624       6.61871745         0.00000000       0.00000000       0.00000000          1
H         7.56952400       8.88314229       5.39037766         0.00000000       0.00000000       0.00000000          1
6
pbc=[F, F, F] list_num_par=6 frozen=false iter=20000 energy=-1.26974174 Lattice="15.00000000 0.00000000 0.00000000 0.00000000 15.00000000 0.00000000 0.00000000 0.00000000 15.00000000" energy_frozen_part=0.00000000 Properties=species:S:1:pos:R:3:velocities:R:3:Z:I:1
H         9.60104001       9.13418769       7.29256943         0.00000000       0.00000000       0.00000000          1
H        10.13858413       9.64448200       4.59906900         0.00000000       0.00000000       0.00000000          1
H        11.19193935       7.36672900       5.82649036         0.00000000       0.00000000       0.00000000          1
H         9.16085582       7.11588826       3.92489710         0.00000000       0.00000000       0.00000000          1
H         8.62330662       6.60559602       6.61839223         0.00000000       0.00000000       0.00000000          1
H         7.56995133       8.88335185       5.39097388         0.00000000       0.00000000       0.00000000          1
6
pbc=[F, F, F] list_num_par=6 frozen=false iter=20000 energy=-1.26974174 Lattice="15.00000000 0.00000000 0.00000000 0.00000000 15.00000000 0.00000000 0.00000000 0.00000000 15.00000000" energy_frozen_part=0.00000000 Properties=species:S:1:pos:R:3:velocities:R:3:Z:I:1
H         9.60117446       9.13491972       7.29122773         0.00000000       0.00000000       0.00000000          1
H        10.13791958       9.64373669       4.59728829         0.00000000       0.00000000       0.00000000          1
H        11.19158990       7.36662073       5.82562366         0.00000000       0.00000000       0.00000000          1
H         9.15992412       7.11479968       3.92477337         0.00000000       0.00000000       0.00000000          1
H         8.62317953       6.60598456       6.61871057         0.00000000       0.00000000       0.00000000          1
H         7.56951498       8.88310907       5.39038128         0.00000000       0.00000000       0.00000000          1
6
pbc=[F, F, F] list_num_par=6 frozen=false iter=20000 energy=-1.26974174 Lattice="15.00000000 0.00000000 0.00000000 0.00000000 15.00000000 0.00000000 0.00000000 0.00000000 15.00000000" energy_frozen_part=0.00000000 Properties=species:S:1:pos:R:3:velocities:R:3:Z:I:1
H         9.60119492       9.13495884       7.29119823         0.00000000       0.00000000       0.00000000          1
H        10.13802127       9.64373706       4.59727703         0.00000000       0.00000000       0.00000000          1
H        11.19166382       7.36663988       5.82568064         0.00000000       0.00000000       0.00000000          1
H         9.16005532       7.11478254       3.92477408         0.00000000       0.00000000       0.00000000          1
H         8.62323630       6.60600453       6.61869885         0.00000000       0.00000000       0.00000000          1
H         7.56959285       8.88310087       5.39029850         0.00000000       0.00000000       0.00000000          1
6
pbc=[F, F, F] list_num_par=6 frozen=false iter=20000 energy=-1.26974174 Lattice="15.00000000 0.00000000 0.00000000 0.00000000 15.00000000 0.00000000 0.00000000 0.00000000 15.00000000" energy_frozen_part=0.00000000 Properties=species:S:1:pos:R:3:velocities:R:3:Z:I:1
H         9.60124962       9.13486790       7.29124128         0.00000000       0.00000000       0.00000000          1
H        10.13802205       9.64369732       4.59731211         0.00000000       0.00000000       0.00000000          1
H        11.19158501       7.36652095       5.82562259         0.00000000       0.00000000       0.00000000          1
H         9.15991146       7.11480909       3.92476636         0.00000000       0.00000000       0.00000000          1
H         8.62314328       6.60598741       6.61869275         0.00000000       0.00000000       0.00000000          1
H         7.56957792       8.88316248       5.39038909         0.00000000       0.00000000       0.00000000          1
6
pbc=[F, F, F] list_num_par=6 frozen=false iter=20000 energy=-1.26974174 Lattice="15.00000000 0.00000000 0.00000000 0.00000000 15.00000000 0.00000000 0.00000000 0.00000000 15.00000000" energy_frozen_part=0.00000000 Properties=species:S:1:pos:R:3:velocities:R:3:Z:I:1
H         9.60124213       9.13470652       7.29220650         0.00000000       0.00000000       0.00000000          1
H        10.13820098       9.64413527       4.59843241         0.00000000       0.00000000       0.00000000          1
H        11.19202667       7.36689868       5.82642215         0.00000000       0.00000000       0.00000000          1
H         9.16059507       7.11520697       3.92530814         0.00000000       0.00000000       0.00000000          1
H         8.62363318       6.60577256       6.61908693         0.00000000       0.00000000       0.00000000          1
H         7.56981025       8.88300877       5.39109796         0.00000000       0.00000000       0.00000000          1
6
pbc=[F, F, F] list_num_par=6 frozen=false iter=20000 energy=-1.26974174 Lattice="15.00000000 0.00000000 0.00000000 0.00000000 15.00000000 0.00000000 0.00000000 0.00000000 15.00000000" energy_frozen_part=0.00000000 Properties=species:S:1:pos:R:3:velocities:R:3:Z:I:1
H         9.60130699       9.13492937       7.29127298         0.00000000       0.00000000       0.00000000          1
H        10.13807094       9.64376222       4.59734134         0.00000000       0.00000000       0.00000000          1
H        11.19167155       7.36659748       5.82566209         0.00000000       0.00000000       0.00000000          1
H         9.16000636       7.11486104       3.92481015         0.00000000       0.00000000       0.00000000          1
H         8.62323997       6.60602816       6.61873539         0.00000000       0.00000000       0.00000000          1
H         7.56963784       8.88318710       5.39042351         0.00000000       0.00000000       0.00000000          1
6
pbc=[F, F, F] list_num_par=6 frozen=false iter=20000 energy=-1.26974174 Lattice="15.00000000 0.00000000 0.00000000 0.00000000 15.00000000 0.00000000 0.00000000 0.00000000 15.00000000" energy_frozen_part=0.00000000 Properties=species:S:1:pos:R:3:velocities:R:3:Z:I:1
H         9.60116905       9.13493316       7.29122394         0.00000000       0.00000000       0.00000000          1
H        10.13791905       9.64374294       4.59729400         0.00000000       0.00000000       0.00000000          1
H        11.19158827       7.36662529       5.82562790         0.00000000       0.00000000       0.00000000          1
H         9.15992659       7.11479600       3.92478190         0.00000000       0.00000000       0.00000000          1
H         8.62317802       6.60599309       6.61871853         0.00000000       0.00000000       0.00000000          1
H         7.56951103       8.88310075       5.39037625         0.00000000       0.00000000       0.00000000          1
6
pbc=[F, F, F] list_num_par=6 frozen=false iter=20000 energy=-1.26974174 Lattice="15.00000000 0.00000000 0.00000000 0.00000000 15.00000000 0.00000000 0.00000000 0.00000000 15.00000000" energy_frozen_part=0.00000000 Properties=species:S:1:pos:R:3:velocities:R:3:Z:I:1
H         9.60128049       9.13470385       7.29218900         0.00000000       0.00000000       0.00000000          1
H        10.13822788       9.64410668       4.59840531         0.00000000       0.00000000       0.00000000          1
H        11.19203547       7.36686945       5.82639670         0.00000000       0.00000000       0.00000000          1
H         9.16059469       7.11518056       3.92530410         0.00000000       0.00000000       0.00000000          1
H         8.62364474       6.60578309       6.61909731         0.00000000       0.00000000       0.00000000          1
H         7.56983336       8.88301041       5.39109030         0.00000000       0.00000000       0.00000000          1
6
pbc=[F, F, F] list_num_par=6 frozen=false iter=20000 energy=-1.26974174 Lattice="15.00000000 0.00000000 0.00000000 0.00000000 15.00000000 0.00000000 0.00000000 0.00000000 15.00000000" energy_frozen_part=0.00000000 Properties=species:S:1:pos:R:3:velocities:R:3:Z:I:1
H         9.60046613       9.13535870       7.29133082         0.00000000       0.00000000       0.00000000          1
H        10.13779076       9.64418933       4.59751238         0.00000000       0.00000000       0.00000000          1
H        11.19172798       7.36740972       5.82623635         0.00000000       0.00000000       0.00000000          1
H         9.16063447       7.11496615       3.92486220         0.00000000       0.00000000       0.00000000          1
H         8.62330304       6.60613893       6.61867962         0.00000000       0.00000000       0.00000000          1
H         7.56937257       8.88292457       5.38994959         0.00000000       0.00000000       0.00000000          1
6
pbc=[F, F, F] list_num_par=6 frozen=false iter=20000 energy=-1.26974174 Lattice="15.00000000 0.00000000 0.00000000 0.00000000 15.00000000 0.00000000 0.00000000 0.00000000 15.00000000" energy_frozen_part=0.00000000 Properties=species:S:1:pos:R:3:velocities:R:3:Z:I:1
H         9.60123350       9.13487125       7.29124886         0.00000000       0.00000000       0.00000000          1
H        10.13801112       9.64370711       4.59731922         0.00000000       0.00000000       0.00000000          1
H        11.19158884       7.36653696       5.82563037         0.00000000       0.00000000       0.00000000          1
H         9.15992158       7.11481189       3.92476623         0.00000000       0.00000000       0.00000000          1
H         8.62314769       6.60598016       6.61869738         0.00000000       0.00000000       0.00000000          1
H         7.56957243       8.88315236       5.39037948         0.00000000       0.00000000       0.00000000          1
6
pbc=[F, F, F] list_num_par=6 frozen=false iter=20000 energy=-1.26974174 Lattice="15.00000000 0.00000000 0.00000000 0.00000000 15.00000000 0.00000000 0.00000000 0.00000000 15.00000000" energy_frozen_part=0.00000000 Properties=species:S:1:pos:R:3:velocities:R:3:Z:I:1
H         9.60124136       9.13471600       7.29221822         0.00000000       0.00000000       0.00000000          1
H        10.13819618       9.64413543       4.59843784         0.00000000       0.00000000       0.00000000          1
H        11.19203230       7.36690948       5.82643067         0.00000000       0.00000000       0.00000000          1
H         9.16059495       7.11519623       3.92532218         0.00000000       0.00000000       0.00000000          1
H         8.62363963       6.60577630       6.61910646         0.00000000       0.00000000       0.00000000          1
H         7.56980930       8.88300002       5.39111161         0.00000000       0.00000000       0.00000000          1
6
pbc=[F, F, F] list_num_par=6 frozen=false iter=20000 energy=-1.26974174 Lattice="15.00000000 0.00000000 0.00000000 0.00000000 15.00000000 0.00000000 0.00000000 0.00000000 15.00000000" energy_frozen_part=0.00000000 Properties=species:S:1:pos:R:3:velocities:R:3:Z:I:1
H         9.60134715       9.13493851       7.29130141         0.00000000       0.00000000       0.00000000          1
H        10.13807329       9.64376794       4.59736171         0.00000000       0.00000000       0.00000000          1
H        11.19168137       7.36660043       5.82566261         0.00000000       0.00000000       0.00000000          1
H         9.15999618       7.11486568       3.92484253         0.00000000       0.00000000       0.00000000          1
H         8.62325768       6.60603688       6.61877540         0.00000000       0.00000000       0.00000000          1
H         7.56965372       8.88320512       5.39047589         0.00000000       0.00000000       0.00000000          1
6
pbc=[F, F, F] list_num_par=6 frozen=false iter=20000 energy=-1.26974174 Lattice="15.00000000 0.00000000 0.00000000 0.00000000 15.00000000 0.00000000 0.00000000 0.00000000 15.00000000" energy_frozen_part=0.00000000 Properties=species:S:1:pos:R:3:velocities:R:3:Z:I:1
H         9.60132685       9.13493848       7.29131037         0.00000000       0.00000000       0.00000000          1
H        10.13809009       9.64376124       4.59737941         0.00000000       0.00000000       0.00000000          1
H        11.19168330       7.36660275       5.82569146         0.00000000       0.00000000       0.00000000          1
H         9.16000897       7.11485725       3.92483825         0.00000000       0.00000000       0.00000000          1
H         8.62324795       6.60603591       6.61876636         0.00000000       0.00000000       0.00000000          1
H         7.56965661       8.88320149       5.39046226         0.00000000       0.00000000       0.00000000          1
6
pbc=[F, F, F] list_num_par=6 frozen=false iter=20000 energy=-1.26974174 Lattice="15.00000000 0.00000000 0.00000000 0.00000000 15.00000000 0.00000000 0.00000000 0.00000000 15.00000000" energy_frozen_part=0.00000000 Properties=species:S:1:pos:R:3:velocities:R:3:Z:I:1
H         9.60126297       9.13469310       7.29218310         0.00000000       0.00000000       0.00000000          1
H        10.13822157       9.64409750       4.59840744         0.00000000       0.00000000       0.00000000          1
H        11.19203821       7.36686959       5.82640301         0.00000000       0.00000000       0.00000000          1
H         9.16060226       7.11517342       3.92529105         0.00000000       0.00000000       0.00000000          1
H         8.62363952       6.60576794       6.61907878         0.00000000       0.00000000       0.00000000          1
H         7.56982517       8.88299616       5.39107486         0.00000000       0.00000000       0.00000000          1
6
pbc=[F, F, F] list_num_par=6 frozen=false iter=20000 energy=-1.26974174 Lattice="15.00000000 0.00000000 0.00000000 0.00000000 15.00000000 0.00000000 0.00000000 0.00000000 15.00000000" energy_frozen_part=0.00000000 Properties=species:S:1:pos:R:3:velocities:R:3:Z:I:1
H         9.60137060       9.13433049       7.29254478         0.00000000       0.00000000       0.00000000          1
H        10.13882847       9.64436417       4.59897997         0.00000000       0.00000000       0.00000000          1
H        11.19207146       7.36663501       5.82653858         0.00000000       0.00000000       0.00000000          1
H         9.16088702       7.11578007       3.92505814         0.00000000       0.00000000       0.00000000          1
H         8.62342422       6.60575433       6.61861710         0.00000000       0.00000000       0.00000000          1
H         7.57018059       8.88348886       5.39105807         0.00000000       0.00000000       0.00000000          1
6
pbc=[F, F, F] list_num_par=6 frozen=false iter=20000 energy=-1.26974174 Lattice="15.00000000 0.00000000 0.00000000 0.00000000 15.00000000 0.00000000 0.00000000 0.00000000 15.00000000" energy_frozen_part=0.00000000 Properties=species:S:1:pos:R:3:velocities:R:3:Z:I:1
H         9.60145715       9.13433023       7.29251027         0.00000000       0.00000000       0.00000000          1
H        10.13882034       9.64431290       4.59892358         0.00000000       0.00000000       0.00000000          1
H        11.19208027       7.36658583       5.82646742         0.00000000       0.00000000       0.00000000          1
H         9.16080942       7.11573433       3.92506999         0.00000000       0.00000000       0.00000000          1
H         8.62344992       6.60574750       6.61866105         0.00000000       0.00000000       0.00000000          1
H         7.57019455       8.88347746       5.39111159         0.00000000       0.00000000       0.00000000          1
6
pbc=[F, F, F] list_num_par=6 frozen=false iter=20000 energy=-1.26974174 Lattice="15.00000000 0.00000000 0.00000000 0.00000000 15.00000000 0.00000000 0.00000000 0.00000000 15.00000000" energy_frozen_part=0.00000000 Properties=species:S:1:pos:R:3:velocities:R:3:Z:I:1
H         9.60117626       9.13490839       7.29124694         0.00000000       0.00000000       0.00000000          1
H        10.13794779       9.64371602       4.59731304         0.00000000       0.00000000       0.00000000          1
H        11.19154704       7.36656523       5.82565527         0.00000000       0.00000000       0.00000000          1
H         9.15989123       7.11480301       3.92479170         0.00000000       0.00000000       0.00000000          1
H         8.62311572       6.60599124       6.61872619         0.00000000       0.00000000       0.00000000          1
H         7.56951481       8.88313457       5.39038275         0.00000000       0.00000000       0.00000000          1
6
pbc=[F, F, F] list_num_par=6 frozen=false iter=20000 energy=-1.26974174 Lattice="15.00000000 0.00000000 0.00000000 0.00000000 15.00000000 0.00000000 0.00000000 0.00000000 15.00000000" energy_frozen_part=0.00000000 Properties=species:S:1:pos:R:3:velocities:R:3:Z:I:1
H         9.60127002       9.13469884       7.29219516         0.00000000       0.00000000       0.00000000          1
H        10.13822332       9.64410787       4.59841322         0.00000000       0.00000000       0.00000000          1
H        11.19203336       7.36687496       5.82639923         0.00000000       0.00000000       0.00000000          1
H         9.16059370       7.11518551       3.92530566         0.00000000       0.00000000       0.00000000          1
H         8.62364396       6.60577559       6.61909268         0.00000000       0.00000000       0.00000000          1
H         7.56982302       8.88300666       5.39109318         0.00000000       0.00000000       0.00000000          1
6
pbc=[F, F, F] list_num_par=6 frozen=false iter=20000 energy=-1.26974174 Lattice="15.00000000 0.00000000 0.00000000 0.00000000 15.00000000 0.00000000 0.00000000 0.00000000 15.00000000" energy_frozen_part=0.00000000 Properties=species:S:1:pos:R:3:velocities:R:3:Z:I:1
H         9.60049989       9.13534577       7.29134645         0.00000000       0.00000000       0.00000000          1
H        10.13779431       9.64419031       4.59753016         0.00000000       0.00000000       0.00000000          1
H        11.19174134       7.36739528       5.82621782         0.00000000       0.00000000       0.00000000          1
H         9.16062698       7.11497505       3.92486553         0.00000000       0.00000000       0.00000000          1
H         8.62333991       6.60611906       6.61868814         0.00000000       0.00000000       0.00000000          1
H         7.56938101       8.88291153       5.38999886         0.00000000       0.00000000       0.00000000          1
6
pbc=[F, F, F] list_num_par=6 frozen=false iter=20000 energy=-1.26974174 Lattice="15.00000000 0.00000000 0.00000000 0.00000000 15.00000000 0.00000000 0.00000000 0.00000000 15.00000000" energy_frozen_part=0.00000000 Properties=species:S:1:pos:R:3:velocities:R:3:Z:I:1
H         9.60123833       9.13491004       7.29124730         0.00000000       0.00000000       0.00000000          1
H        10.13806449       9.64370204       4.59732376         0.00000000       0.00000000       0.00000000          1
H        11.19162083       7.36654776       5.82569215         0.00000000       0.00000000       0.00000000          1
H         9.15999022       7.11479591       3.92480140         0.00000000       0.00000000       0.00000000          1
H         8.62316749       6.60600075       6.61872553         0.00000000       0.00000000       0.00000000          1
H         7.56961219       8.88315143       5.39036721         0.00000000       0.00000000       0.00000000          1
6
pbc=[F, F, F] list_num_par=6 frozen=false iter=20000 energy=-1.26974174 Lattice="15.00000000 0.00000000 0.00000000 0.00000000 15.00000000 0.00000000 0.00000000 0.00000000 15.00000000" energy_frozen_part=0.00000000 Properties=species:S:1:pos:R:3:velocities:R:3:Z:I:1
H         9.60120100       9.13494387       7.29122413         0.00000000       0.00000000       0.00000000          1
H        10.13793970       9.64373185       4.59727982         0.00000000       0.00000000       0.00000000          1
H        11.19156253       7.36659258       5.82563018         0.00000000       0.00000000       0.00000000          1
H         9.15988363       7.11480471       3.92479346         0.00000000       0.00000000       0.00000000          1
H         8.62313584       6.60602642       6.61873873         0.00000000       0.00000000       0.00000000          1
H         7.56952129       8.88315288       5.39038672         0.00000000       0.00000000       0.00000000          1
6
pbc=[F, F, F] list_num_par=6 frozen=false iter=20000 energy=-1.26974174 Lattice="15.00000000 0.00000000 0.00000000 0.00000000 15.00000000 0.00000000 0.00000000 0.00000000 15.00000000" energy_frozen_part=0.00000000 Properties=species:S:1:pos:R:3:velocities:R:3:Z:I:1
H         9.60132611       9.13493148       7.29130824         0.00000000       0.00000000       0.00000000          1
H        10.13808771       9.64376410       4.59738304         0.00000000       0.00000000       0.00000000          1
H        11.19167620       7.36658986       5.82569028         0.00000000       0.00000000       0.00000000          1
H         9.16000043       7.11487108       3.92484145         0.00000000       0.00000000       0.00000000          1
H         8.62323917       6.60603633       6.61877336         0.00000000       0.00000000       0.00000000          1
H         7.56964598       8.88320297       5.39046116         0.00000000       0.00000000       0.00000000          1
6
pbc=[F, F, F] list_num_par=6 frozen=false iter=20000 energy=-1.26974174 Lattice="15.00000000 0.00000000 0.00000000 0.00000000 15.00000000 0.00000000 0.00000000 0.00000000 15.00000000" energy_frozen_part=0.00000000 Properties=species:S:1:pos:R:3:velocities:R:3:Z:I:1
H         9.60117847       9.13472743       7.29217019         0.00000000       0.00000000       0.00000000          1
H        10.13822633       9.64411378       4.59840098         0.00000000       0.00000000       0.00000000          1
H        11.19200983       7.36690093       5.82645608         0.00000000       0.00000000       0.00000000          1
H         9.16063609       7.11518225       3.92528343         0.00000000       0.00000000       0.00000000          1
H         8.62357783       6.60580248       6.61905018         0.00000000       0.00000000       0.00000000          1
H         7.56980198       8.88301863       5.39099737         0.00000000       0.00000000       0.00000000          1
6
pbc=[F, F, F] list_num_par=6 frozen=false iter=20000 energy=-1.26974174 Lattice="15.00000000 0.00000000 0.00000000 0.00000000 15.00000000 0.00000000 0.00000000 0.00000000 15.00000000" energy_frozen_part=0.00000000 Properties=species:S:1:pos:R:3:velocities:R:3:Z:I:1
H         9.60045618       9.13535202       7.29134623         0.00000000       0.00000000       0.00000000          1
H        10.13778700       9.64419395       4.59753131         0.00000000       0.00000000       0.00000000          1
H        11.19171609       7.36740230       5.82624829         0.00000000       0.00000000       0.00000000          1
H         9.16063257       7.11497038       3.92486991         0.00000000       0.00000000       0.00000000          1
H         8.62330240       6.60612916       6.61868406         0.00000000       0.00000000       0.00000000          1
H         7.56936749       8.88291441       5.38996443         0.00000000       0.00000000       0.00000000          1
6
pbc=[F, F, F] list_num_par=6 frozen=false iter=20000 energy=-1.26974174 Lattice="15.00000000 0.00000000 0.00000000 0.00000000 15.00000000 0.00000000 0.00000000 0.00000000 15.00000000" energy_frozen_part=0.00000000 Properties=species:S:1:pos:R:3:velocities:R:3:Z:I:1
H         9.60123190       9.13486389       7.29126713         0.00000000       0.00000000       0.00000000          1
H        10.13804658       9.64367355       4.59734034         0.00000000       0.00000000       0.00000000          1
H        11.19161915       7.36652429       5.82568272         0.00000000       0.00000000       0.00000000          1
H         9.15998672       7.11477267       3.92480140         0.00000000       0.00000000       0.00000000          1
H         8.62317336       6.60595823       6.61872030         0.00000000       0.00000000       0.00000000          1
H         7.56959709       8.88311649       5.39037957         0.00000000       0.00000000       0.00000000          1
6
pbc=[F, F, F] list_num_par=6 frozen=false iter=20000 energy=-1.26974174 Lattice="15.00000000 0.00000000 0.00000000 0.00000000 15.00000000 0.00000000 0.00000000 0.00000000 15.00000000" energy_frozen_part=0.00000000 Properties=species:S:1:pos:R:3:velocities:R:3:Z:I:1
H         9.60104928       9.13419502       7.29255650         0.00000000       0.00000000       0.00000000          1
H        10.13860574       9.64447293       4.59905773         0.00000000       0.00000000       0.00000000          1
H        11.19194762       7.36671433       5.82649258         0.00000000       0.00000000       0.00000000          1
H         9.16086627       7.11586814       3.92489903         0.00000000       0.00000000       0.00000000          1
H         8.62331958       6.60559277       6.61839539         0.00000000       0.00000000       0.00000000          1
H         7.56997264       8.88334637       5.39095600         0.00000000       0.00000000       0.00000000          1
6
pbc=[F, F, F] list_num_par=6 frozen=false iter=20000 energy=-1.26974174 Lattice="15.00000000 0.00000000 0.00000000 0.00000000 15.00000000 0.00000000 0.00000000 0.00000000 15.00000000" energy_frozen_part=0.00000000 Properties=species:S:1:pos:R:3:velocities:R:3:Z:I:1
H         9.60120563       9.13497845       7.29123629         0.00000000       0.00000000       0.00000000          1
H        10.13797055       9.64373798       4.59729187         0.00000000       0.00000000       0.00000000          1
H        11.19157713       7.36660836       5.82566860         0.00000000       0.00000000       0.00000000          1
H         9.15990421       7.11481390       3.92482798         0.00000000       0.00000000       0.00000000          1
H         8.62314030       6.60605590       6.61876978         0.00000000       0.00000000       0.00000000          1
H         7.56953515       8.88318376       5.39039802         0.00000000       0.00000000       0.00000000          1
6
pbc=[F, F, F] list_num_par=6 frozen=false iter=20000 energy=-1.26974174 Lattice="15.00000000 0.00000000 0.00000000 0.00000000 15.00000000 0.00000000 0.00000000 0.00000000 15.00000000" energy_frozen_part=0.00000000 Properties=species:S:1:pos:R:3:velocities:R:3:Z:I:1
H         9.60120052       9.13492990       7.29124228         0.00000000       0.00000000       0.00000000          1
H        10.13795384       9.64373159       4.59730602         0.00000000       0.00000000       0.00000000          1
H        11.19156822       7.36659168       5.82563395         0.00000000       0.00000000       0.00000000          1
H         9.15989006       7.11481840       3.92479927         0.00000000       0.00000000       0.00000000          1
H         8.62314431       6.60602265       6.61873546         0.00000000       0.00000000       0.00000000          1
H         7.56952675       8.88316420       5.39040172         0.00000000       0.00000000       0.00000000          1
6
pbc=[F, F, F] list_num_par=6 frozen=false iter=20000 energy=-1.26974174 Lattice="15.00000000 0.00000000 0.00000000 0.00000000 15.00000000 0.00000000 0.00000000 0.00000000 15.00000000" energy_frozen_part=0.00000000 Properties=species:S:1:pos:R:3:velocities:R:3:Z:I:1
H         9.60103933       9.13419736       7.29257494         0.00000000       0.00000000       0.00000000          1
H        10.13855550       9.64449229       4.59907047         0.00000000       0.00000000       0.00000000          1
H        11.19193130       7.36674568       5.82648121         0.00000000       0.00000000       0.00000000          1
H         9.16083534       7.11588455       3.92490388         0.00000000       0.00000000       0.00000000          1
H         8.62332099       6.60559187       6.61840517         0.00000000       0.00000000       0.00000000          1
H         7.56994220       8.88334902       5.39099568         0.00000000       0.00000000       0.00000000          1
6
pbc=[F, F, F] list_num_par=6 frozen=false iter=20000 energy=-1.26974174 Lattice="15.00000000 0.00000000 0.00000000 0.00000000 15.00000000 0.00000000 0.00000000 0.00000000 15.00000000" energy_frozen_part=0.00000000 Properties=species:S:1:pos:R:3:velocities:R:3:Z:I:1
H         9.60122656       9.13468838       7.29221932         0.00000000       0.00000000       0.00000000          1
H        10.13819553       9.64413185       4.59844405         0.00000000       0.00000000       0.00000000          1
H        11.19201927       7.36689393       5.82641524         0.00000000       0.00000000       0.00000000          1
H         9.16059137       7.11520699       3.92530887         0.00000000       0.00000000       0.00000000          1
H         8.62363083       6.60576382       6.61908447         0.00000000       0.00000000       0.00000000          1
H         7.56980385       8.88299932       5.39110794         0.00000000       0.00000000       0.00000000          1
6
pbc=[F, F, F] list_num_par=6 frozen=false iter=20000 energy=-1.26974174 Lattice="15.00000000 0.00000000 0.00000000 0.00000000 15.00000000 0.00000000 0.00000000 0.00000000 15.00000000" energy_frozen_part=0.00000000 Properties=species:S:1:pos:R:3:velocities:R:3:Z:I:1
H         9.60123643       9.13490033       7.29125401         0.00000000       0.00000000       0.00000000          1
H        10.13803725       9.64370695       4.59733128         0.00000000       0.00000000       0.00000000          1
H        11.19160246       7.36653963       5.82566731         0.00000000       0.00000000       0.00000000          1
H         9.15995144       7.11480257       3.92479093         0.00000000       0.00000000       0.00000000          1
H         8.62315788       6.60599556       6.61872218         0.00000000       0.00000000       0.00000000          1
H         7.56958909       8.88315312       5.39037930         0.00000000       0.00000000       0.00000000          1
6
pbc=[F, F, F] list_num_par=6 frozen=false iter=20000 energy=-1.26974174 Lattice="15.00000000 0.00000000 0.00000000 0.00000000 15.00000000 0.00000000 0.00000000 0.00000000 15.00000000" energy_frozen_part=0.00000000 Properties=species:S:1:pos:R:3:velocities:R:3:Z:I:1
H         9.60123959       9.13490431       7.29124452         0.00000000       0.00000000       0.00000000          1
H        10.13804342       9.64370815       4.59731586         0.00000000       0.00000000       0.00000000          1
H        11.19162662       7.36656380       5.82567015         0.00000000       0.00000000       0.00000000          1
H         9.15999625       7.11479093       3.92479415         0.00000000       0.00000000       0.00000000          1
H         8.62317860       6.60599094       6.61872016         0.00000000       0.00000000       0.00000000          1
H         7.56960147       8.88313457       5.39036160         0.00000000       0.00000000       0.00000000          1
6
pbc=[F, F, F] list_num_par=6 frozen=false iter=20000 energy=-1.26974174 Lattice="15.00000000 0.00000000 0.00000000 0.00000000 15.00000000 0.00000000 0.00000000 0.00000000 15.00000000" energy_frozen_part=0.00000000 Properties=species:S:1:pos:R:3:velocities:R:3:Z:I:1
H         9.60104478       9.13418924       7.29256534         0.00000000       0.00000000       0.00000000          1
H        10.13859823       9.64447336       4.59906636         0.00000000       0.00000000       0.00000000          1
H        11.19195239       7.36672268       5.82650142         0.00000000       0.00000000       0.00000000          1
H         9.16087022       7.11587024       3.92490611         0.00000000       0.00000000       0.00000000          1
H         8.62332218       6.60558757       6.61840439         0.00000000       0.00000000       0.00000000          1
H         7.56997225       8.88333928       5.39096932         0.00000000       0.00000000       0.00000000          1
6
pbc=[F, F, F] list_num_par=6 frozen=false iter=20000 energy=-1.26974174 Lattice="15.00000000 0.00000000 0.00000000 0.00000000 15.00000000 0.00000000 0.00000000 0.00000000 15.00000000" energy_frozen_part=0.00000000 Properties=species:S:1:pos:R:3:velocities:R:3:Z:I:1
H         9.60125372       9.13466796       7.29219083         0.00000000       0.00000000       0.00000000          1
H        10.13822329       9.64410760       4.59841856         0.00000000       0.00000000       0.00000000          1
H        11.19201690       7.36685522       5.82639083         0.00000000       0.00000000       0.00000000          1
H         9.16058458       7.11519531       3.92528262         0.00000000       0.00000000       0.00000000          1
H         8.62361810       6.60575241       6.61906052         0.00000000       0.00000000       0.00000000          1
H         7.56981746       8.88299933       5.39108294         0.00000000       0.00000000       0.00000000          1
6
pbc=[F, F, F] list_num_par=6 frozen=false iter=20000 energy=-1.26974174 Lattice="15.00000000 0.00000000 0.00000000 0.00000000 15.00000000 0.00000000 0.00000000 0.00000000 15.00000000" energy_frozen_part=0.00000000 Properties=species:S:1:pos:R:3:velocities:R:3:Z:I:1
H         9.60101870       9.13420923       7.29256649         0.00000000       0.00000000       0.00000000          1
H        10.13855978       9.64448049       4.59906585         0.00000000       0.00000000       0.00000000          1
H        11.19192864       7.36674074       5.82649976         0.00000000       0.00000000       0.00000000          1
H         9.16084859       7.11587499       3.92489894         0.00000000       0.00000000       0.00000000          1
H         8.62330494       6.60559624       6.61840537         0.00000000       0.00000000       0.00000000          1
H         7.56993145       8.88333703       5.39097422         0.00000000       0.00000000       0.00000000          1
6
pbc=[F, F, F] list_num_par=6 frozen=false iter=20000 energy=-1.26974174 Lattice="15.00000000 0.00000000 0.00000000 0.00000000 15.00000000 0.00000000 0.00000000 0.00000000 15.00000000" energy_frozen_part=0.00000000 Properties=species:S:1:pos:R:3:velocities:R:3:Z:I:1
H         9.60104931       9.13420053       7.29257471         0.00000000       0.00000000       0.00000000          1
H        10.13856074       9.64449962       4.59906630         0.00000000       0.00000000       0.00000000          1
H        11.19195747       7.36675497       5.82648042         0.00000000       0.00000000       0.00000000          1
H         9.16085574       7.11588231       3.92490721         0.00000000       0.00000000       0.00000000          1
H         8.62334311       6.60559490       6.61841427         0.00000000       0.00000000       0.00000000          1
H         7.56995036       8.88333589       5.39099450         0.00000000       0.00000000       0.00000000          1
6
pbc=[F, F, F] list_num_par=6 frozen=false iter=20000 energy=-1.26974174 Lattice="15.00000000 0.00000000 0.00000000 0.00000000 15.00000000 0.00000000 0.00000000 0.00000000 15.00000000" energy_frozen_part=0.00000000 Properties=species:S:1:pos:R:3:velocities:R:3:Z:I:1
H         9.60127550       9.13471349       7.29219114         0.00000000       0.00000000       0.00000000          1
H        10.13824674       9.64410399       4.59840747         0.00000000       0.00000000       0.00000000          1
H        11.19203885       7.36687481       5.82641672         0.00000000       0.00000000       0.00000000          1
H         9.16060212       7.11518189       3.92530809         0.00000000       0.00000000       0.00000000          1
H         8.62364237       6.60578195       6.61909322         0.00000000       0.00000000       0.00000000          1
H         7.56984164       8.88301611       5.39108930         0.00000000       0.00000000       0.00000000          1
6
pbc=[F, F, F] list_num_par=6 frozen=false iter=20000 energy=-1.26974174 Lattice="15.00000000 0.00000000 0.00000000 0.00000000 15.00000000 0.00000000 0.00000000 0.00000000 15.00000000" energy_frozen_part=0.00000000 Properties=species:S:1:pos:R:3:velocities:R:3:Z:I:1
H         9.60104498       9.13419829       7.29256108         0.00000000       0.00000000       0.00000000          1
H        10.13860625       9.64446136       4.59906428         0.00000000       0.00000000       0.00000000          1
H        11.19194632       7.36670758       5.82650537         0.00000000       0.00000000       0.00000000          1
H         9.16087025       7.11585647       3.92490575         0.00000000       0.00000000       0.00000000          1
H         8.62331386       6.60559695       6.61840391         0.00000000       0.00000000       0.00000000          1
H         7.56996855       8.88334067       5.39096482         0.00000000       0.00000000       0.00000000          1
6
pbc=[F, F, F] list_num_par=6 frozen=false iter=20000 energy=-1.26974174 Lattice="15.00000000 0.00000000 0.00000000 0.00000000 15.00000000 0.00000000 0.00000000 0.00000000 15.00000000" energy_frozen_part=0.00000000 Properties=species:S:1:pos:R:3:velocities:R:3:Z:I:1
H         9.60128683       9.13469874       7.29218814         0.00000000       0.00000000       0.00000000          1
H        10.13822021       9.64410336       4.59839719         0.00000000       0.00000000       0.00000000          1
H        11.19204292       7.36687170       5.82639612         0.00000000       0.00000000       0.00000000          1
H         9.16058552       7.11517544       3.92530701         0.00000000       0.00000000       0.00000000          1
H         8.62365551       6.60577035       6.61909771         0.00000000       0.00000000       0.00000000          1
H         7.56982726       8.88300057       5.39111212         0.00000000       0.00000000       0.00000000          1
6
pbc=[F, F, F] list_num_par=6 frozen=false iter=20000 energy=-1.26974174 Lattice="15.00000000 0.00000000 0.00000000 0.00000000 15.00000000 0.00000000 0.00000000 0.00000000 15.00000000" energy_frozen_part=0.00000000 Properties=species:S:1:pos:R:3:velocities:R:3:Z:I:1
H         9.60133319       9.13492909       7.29131209         0.00000000       0.00000000       0.00000000          1
H        10.13808784       9.64376303       4.59738522         0.00000000       0.00000000       0.00000000          1
H        11.19168895       7.36660074       5.82569293         0.00000000       0.00000000       0.00000000          1
H         9.16001494       7.11486742       3.92484080         0.00000000       0.00000000       0.00000000          1
H         8.62325930       6.60602700       6.61876989         0.00000000       0.00000000       0.00000000          1
H         7.56966157       8.88319573       5.39046790         0.00000000       0.00000000       0.00000000          1
6
pbc=[F, F, F] list_num_par=6 frozen=false iter=20000 energy=-1.26974174 Lattice="15.00000000 0.00000000 0.00000000 0.00000000 15.00000000 0.00000000 0.00000000 0.00000000 15.00000000" energy_frozen_part=0.00000000 Properties=species:S:1:pos:R:3:velocities:R:3:Z:I:1
H         9.60118498       9.13493155       7.29121708         0.00000000       0.00000000       0.00000000          1
H        10.13795108       9.64373710       4.59727993         0.00000000       0.00000000       0.00000000          1
H        11.19157697       7.36660743       5.82562758         0.00000000       0.00000000       0.00000000          1
H         9.15991357       7.11480855       3.92478227         0.00000000       0.00000000       0.00000000          1
H         8.62315419       6.60600713       6.61871366         0.00000000       0.00000000       0.00000000          1
H         7.56952171       8.88314076       5.39036738         0.00000000       0.00000000       0.00000000          1
6
pbc=[F, F, F] list_num_par=6 frozen=false iter=20000 energy=-1.26974174 Lattice="15.00000000 0.00000000 0.00000000 0.00000000 15.00000000 0.00000000 0.00000000 0.00000000 15.00000000" energy_frozen_part=0.00000000 Properties=species:S:1:pos:R:3:velocities:R:3:Z:I:1
H         9.60130322       9.13493094       7.29127554         0.00000000       0.00000000       0.00000000          1
H        10.13806059       9.64374933       4.59734119         0.00000000       0.00000000       0.00000000          1
H        11.19167328       7.36660265       5.82566362         0.00000000       0.00000000       0.00000000          1
H         9.16000696       7.11483889       3.92480971         0.00000000       0.00000000       0.00000000          1
H         8.62324528       6.60601335       6.61873951         0.00000000       0.00000000       0.00000000          1
H         7.56963695       8.88317161       5.39042984         0.00000000       0.00000000       0.00000000          1
6
pbc=[F, F, F] list_num_par=6 frozen=false iter=20000 energy=-1.26974174 Lattice="15.00000000 0.00000000 0.00000000 0.00000000 15.00000000 0.00000000 0.00000000 0.00000000 15.00000000" energy_frozen_part=0.00000000 Properties=species:S:1:pos:R:3:velocities:R:3:Z:I:1
H         9.60116655       9.13493797       7.29122628         0.00000000       0.00000000       0.00000000          1
H        10.13793279       9.64373267       4.59729377         0.00000000       0.00000000       0.00000000          1
H        11.19157100       7.36661006       5.82564345         0.00000000       0.00000000       0.00000000          1
H         9.15991339       7.11480386       3.92478185         0.00000000       0.00000000       0.00000000          1
H         8.62315014       6.60600450       6.61871553         0.00000000       0.00000000       0.00000000          1
H         7.56951256       8.88312212       5.39036364         0.00000000       0.00000000       0.00000000          1
6
pbc=[F, F, F] list_num_par=6 frozen=false iter=20000 energy=-1.26974174 Lattice="15.00000000 0.00000000 0.00000000 0.00000000 15.00000000 0.00000000 0.00000000 0.00000000 15.00000000" energy_frozen_part=0.00000000 Properties=species:S:1:pos:R:3:velocities:R:3:Z:I:1
H         9.60117864       9.13495068       7.29124526         0.00000000       0.00000000       0.00000000          1
H        10.13796912       9.64377381       4.59732142         0.00000000       0.00000000       0.00000000          1
H        11.19157873       7.36663556       5.82566167         0.00000000       0.00000000       0.00000000          1
H         9.15993731       7.11485946       3.92478415         0.00000000       0.00000000       0.00000000          1
H         8.62314270       6.60603155       6.61870747         0.00000000       0.00000000       0.00000000          1
H         7.56953197       8.88317677       5.39037725         0.00000000       0.00000000       0.00000000          1
6
pbc=[F, F, F] list_num_par=6 frozen=false iter=20000 energy=-1.26974174 Lattice="15.00000000 0.00000000 0.00000000 0.00000000 15.00000000 0.00000000 0.00000000 0.00000000 15.00000000" energy_frozen_part=0.00000000 Properties=species:S:1:pos:R:3:velocities:R:3:Z:I:1
H         9.60117409       9.13493461       7.29123837         0.00000000       0.00000000       0.00000000          1
H        10.13793775       9.64374686       4.59730352         0.00000000       0.00000000       0.00000000          1
H        11.19155601       7.36660258       5.82563275         0.00000000       0.00000000       0.00000000          1
H         9.15989723       7.11482383       3.92478144         0.00000000       0.00000000       0.00000000          1
H         8.62313885       6.60600918       6.61871576         0.00000000       0.00000000       0.00000000          1
H         7.56951076       8.88314465       5.39038353         0.00000000       0.00000000       0.00000000          1
6
pbc=[F, F, F] list_num_par=6 frozen=false iter=20000 energy=-1.26974174 Lattice="15.00000000 0.00000000 0.00000000 0.00000000 15.00000000 0.00000000 0.00000000 0.00000000 15.00000000" energy_frozen_part=0.00000000 Properties=species:S:1:pos:R:3:velocities:R:3:Z:I:1
H         9.60116780       9.13496766       7.29120689         0.00000000       0.00000000       0.00000000          1
H        10.13802079       9.64373310       4.59727960         0.00000000       0.00000000       0.00000000          1
H        11.19166185       7.36665341       5.82570534         0.00000000       0.00000000       0.00000000          1
H         9.16007063       7.11476828       3.92478505         0.00000000       0.00000000       0.00000000          1
H         8.62322440       6.60601081       6.61870629         0.00000000       0.00000000       0.00000000          1
H         7.56958495       8.88309263       5.39028458         0.00000000       0.00000000       0.00000000          1
6
pbc=[F, F, F] list_num_par=6 frozen=false iter=20000 energy=-1.26974174 Lattice="15.00000000 0.00000000 0.00000000 0.00000000 15.00000000 0.00000000 0.00000000 0.00000000 15.00000000" energy_frozen_part=0.00000000 Properties=species:S:1:pos:R:3:velocities:R:3:Z:I:1
H         9.60130333       9.13493596       7.29127136         0.00000000       0.00000000       0.00000000          1
H        10.13807911       9.64376272       4.59734654         0.00000000       0.00000000       0.00000000          1
H        11.19168663       7.36661161       5.82565824         0.00000000       0.00000000       0.00000000          1
H         9.16002387       7.11485064       3.92480064         0.00000000       0.00000000       0.00000000          1
H         8.62326032       6.60602510       6.61872897         0.00000000       0.00000000       0.00000000          1
H         7.56964949       8.88317504       5.39041324         0.00000000       0.00000000       0.00000000          1
6
pbc=[F, F, F] list_num_par=6 frozen=false iter=20000 energy=-1.26974174 Lattice="15.00000000 0.00000000 0.00000000 0.00000000 15.00000000 0.00000000 0.00000000 0.00000000 15.00000000" energy_frozen_part=0.00000000 Properties=species:S:1:pos:R:3:velocities:R:3:Z:I:1
H         9.60126561       9.13470497       7.29219338         0.00000000       0.00000000       0.00000000          1
H        10.13821802       9.64410892       4.59841127         0.00000000       0.00000000       0.00000000          1
H        11.19203601       7.36687392       5.82640327         0.00000000       0.00000000       0.00000000          1
H         9.16059081       7.11518959       3.92530357         0.00000000       0.00000000       0.00000000          1
H         8.62363921       6.60578405       6.61908495         0.00000000       0.00000000       0.00000000          1
H         7.56981910       8.88300992       5.39109181         0.00000000       0.00000000       0.00000000          1
6
pbc=[F, F, F] list_num_par=6 frozen=false iter=20000 energy=-1.26974174 Lattice="15.00000000 0.00000000 0.00000000 0.00000000 15.00000000 0.00000000 0.00000000 0.00000000 15.00000000" energy_frozen_part=0.00000000 Properties=species:S:1:pos:R:3:velocities:R:3:Z:I:1
H         9.60130471       9.13492891       7.29127300         0.00000000       0.00000000       0.00000000          1
H        10.13807163       9.64376076       4.59733944         0.00000000       0.00000000       0.00000000          1
H        11.19168651       7.36660765       5.82565802         0.00000000       0.00000000       0.00000000          1
H         9.16002690       7.11484904       3.92480092         0.00000000       0.00000000       0.00000000          1
H         8.62324877       6.60602102       6.61872766         0.00000000       0.00000000       0.00000000          1
H         7.56964434       8.88317653       5.39041146         0.00000000       0.00000000       0.00000000          1
6
pbc=[F, F, F] list_num_par=6 frozen=false iter=20000 energy=-1.26974174 Lattice="15.00000000 0.00000000 0.00000000 0.00000000 15.00000000 0.00000000 0.00000000 0.00000000 15.00000000" energy_frozen_part=0.00000000 Properties=species:S:1:pos:R:3:velocities:R:3:Z:I:1
H         9.60105231       9.13419540       7.29256443         0.00000000       0.00000000       0.00000000          1
H        10.13857566       9.64447324       4.59905544         0.00000000       0.00000000       0.00000000          1
H        11.19194123       7.36672517       5.82648569         0.00000000       0.00000000       0.00000000          1
H         9.16084412       7.11586777       3.92490689         0.00000000       0.00000000       0.00000000          1
H         8.62331281       6.60559083       6.61840518         0.00000000       0.00000000       0.00000000          1
H         7.56995578       8.88334502       5.39098187         0.00000000       0.00000000       0.00000000          1
6
pbc=[F, F, F] list_num_par=6 frozen=false iter=20000 energy=-1.26974174 Lattice="15.00000000 0.00000000 0.00000000 0.00000000 15.00000000 0.00000000 0.00000000 0.00000000 15.00000000" energy_frozen_part=0.00000000 Properties=species:S:1:pos:R:3:velocities:R:3:Z:I:1
H         9.60122760       9.13486912       7.29123888         0.00000000       0.00000000       0.00000000          1
H        10.13801711       9.64370893       4.59731547         0.00000000       0.00000000       0.00000000          1
H        11.19158868       7.36652965       5.82561880         0.00000000       0.00000000       0.00000000          1
H         9.15992153       7.11481681       3.92475924         0.00000000       0.00000000       0.00000000          1
H         8.62314299       6.60597702       6.61868501         0.00000000       0.00000000       0.00000000          1
H         7.56957391       8.88315862       5.39037702         0.00000000       0.00000000       0.00000000          1
6
pbc=[F, F, F] list_num_par=6 frozen=false iter=20000 energy=-1.26974174 Lattice="15.00000000 0.00000000 0.00000000 0.00000000 15.00000000 0.00000000 0.00000000 0.00000000 15.00000000" energy_frozen_part=0.00000000 Properties=species:S:1:pos:R:3:velocities:R:3:Z:I:1
H         9.60130969       9.13468436       7.29220544         0.00000000       0.00000000       0.00000000          1
H        10.13824578       9.64410155       4.59842119         0.00000000       0.00000000       0.00000000          1
H        11.19204311       7.36685202       5.82638973         0.00000000       0.00000000       0.00000000          1
H         9.16058028       7.11518757       3.92530709         0.00000000       0.00000000       0.00000000          1
H         8.62364754       6.60577570       6.61909691         0.00000000       0.00000000       0.00000000          1
H         7.56984797       8.88302666       5.39112787         0.00000000       0.00000000       0.00000000          1
6
pbc=[F, F, F] list_num_par=6 frozen=false iter=20000 energy=-1.26974174 Lattice="15.00000000 0.00000000 0.00000000 0.00000000 15.00000000 0.00000000 0.00000000 0.00000000 15.00000000" energy_frozen_part=0.00000000 Properties=species:S:1:pos:R:3:velocities:R:3:Z:I:1
H         9.60102050       9.13419581       7.29257504         0.00000000       0.00000000       0.00000000          1
H        10.13858124       9.64448393       4.59907811         0.00000000       0.00000000       0.00000000          1
H        11.19194440       7.36674524       5.82651431         0.00000000       0.00000000       0.00000000          1
H         9.16087860       7.11587836       3.92490145         0.00000000       0.00000000       0.00000000          1
H         8.62331782       6.60559021       6.61839135         0.00000000       0.00000000       0.00000000          1
H         7.56995513       8.88333656       5.39096166         0.00000000       0.00000000       0.00000000          1
6
pbc=[F, F, F] list_num_par=6 frozen=false iter=20000 energy=-1.26974174 Lattice="15.00000000 0.00000000 0.00000000 0.00000000 15.00000000 0.00000000 0.00000000 0.00000000 15.00000000" energy_frozen_part=0.00000000 Properties=species:S:1:pos:R:3:velocities:R:3:Z:I:1
H         9.60046249       9.13535353       7.29134780         0.00000000       0.00000000       0.00000000          1
H        10.13779456       9.64420089       4.59752987         0.00000000       0.00000000       0.00000000          1
H        11.19173034       7.36741046       5.82623916         0.00000000       0.00000000       0.00000000          1
H         9.16063748       7.11497897       3.92485609         0.00000000       0.00000000       0.00000000          1
H         8.62331081       6.60612656       6.61866877         0.00000000       0.00000000       0.00000000          1
H         7.56937376       8.88291759       5.38996422         0.00000000       0.00000000       0.00000000          1
6
pbc=[F, F, F] list_num_par=6 frozen=false iter=20000 energy=-1.26974174 Lattice="15.00000000 0.00000000 0.00000000 0.00000000 15.00000000 0.00000000 0.00000000 0.00000000 15.00000000" energy_frozen_part=0.00000000 Properties=species:S:1:pos:R:3:velocities:R:3:Z:I:1
H         9.60118323       9.13492746       7.29123842         0.00000000       0.00000000       0.00000000          1
H        10.13793395       9.64373887       4.59729947         0.00000000       0.00000000       0.00000000          1
H        11.19156632       7.36660454       5.82563122         0.00000000       0.00000000       0.00000000          1
H         9.15989730       7.11481589       3.92479536         0.00000000       0.00000000       0.00000000          1
H         8.62314446       6.60600729       6.61872962         0.00000000       0.00000000       0.00000000          1
H         7.56951079       8.88314546       5.39039555         0.00000000       0.00000000       0.00000000          1
6
pbc=[F, F, F] list_num_par=6 frozen=false iter=20000 energy=-1.26974174 Lattice="15.00000000 0.00000000 0.00000000 0.00000000 15.00000000 0.00000000 0.00000000 0.00000000 15.00000000" energy_frozen_part=0.00000000 Properties=species:S:1:pos:R:3:velocities:R:3:Z:I:1
H         9.60105686       9.13419075       7.29255906         0.00000000       0.00000000       0.00000000          1
H        10.13859234       9.64447099       4.59906254         0.00000000       0.00000000       0.00000000          1
H        11.19195114       7.36671734       5.82648636         0.00000000       0.00000000       0.00000000          1
H         9.16085802       7.11587027       3.92489858         0.00000000       0.00000000       0.00000000          1
H         8.62332950       6.60558621       6.61840054         0.00000000       0.00000000       0.00000000          1
H         7.56996481       8.88333426       5.39098124         0.00000000       0.00000000       0.00000000          1
6
pbc=[F, F, F] list_num_par=6 frozen=false iter=20000 energy=-1.26974174 Lattice="15.00000000 0.00000000 0.00000000 0.00000000 15.00000000 0.00000000 0.00000000 0.00000000 15.00000000" energy_frozen_part=0.00000000 Properties=species:S:1:pos:R:3:velocities:R:3:Z:I:1
H         9.60119297       9.13494414       7.29121763         0.00000000       0.00000000       0.00000000          1
H        10.13798001       9.64371873       4.59727854         0.00000000       0.00000000       0.00000000          1
H        11.19156547       7.36658614       5.82565578         0.00000000       0.00000000       0.00000000          1
H         9.15991491       7.11480178       3.92478844         0.00000000       0.00000000       0.00000000          1
H         8.62312576       6.60602495       6.61871930         0.00000000       0.00000000       0.00000000          1
H         7.56953905       8.88316380       5.39035545         0.00000000       0.00000000       0.00000000          1
6
pbc=[F, F, F] list_num_par=6 frozen=false iter=20000 energy=-1.26974174 Lattice="15.00000000 0.00000000 0.00000000 0.00000000 15.00000000 0.00000000 0.00000000 0.00000000 15.00000000" energy_frozen_part=0.00000000 Properties=species:S:1:pos:R:3:velocities:R:3:Z:I:1
H         9.60121278       9.13468130       7.29221582         0.00000000       0.00000000       0.00000000          1
H        10.13819425       9.64414127       4.59844588         0.00000000       0.00000000       0.00000000          1
H        11.19202398       7.36690345       5.82641603         0.00000000       0.00000000       0.00000000          1
H         9.16060875       7.11520961       3.92529236         0.00000000       0.00000000       0.00000000          1
H         8.62363177       6.60575957       6.61906217         0.00000000       0.00000000       0.00000000          1
H         7.56980069       8.88299616       5.39108539         0.00000000       0.00000000       0.00000000          1
6
pbc=[F, F, F] list_num_par=6 frozen=false iter=20000 energy=-1.26974174 Lattice="15.00000000 0.00000000 0.00000000 0.00000000 15.00000000 0.00000000 0.00000000 0.00000000 15.00000000" energy_frozen_part=0.00000000 Properties=species:S:1:pos:R:3:velocities:R:3:Z:I:1
H         9.60117017       9.13493566       7.29123773         0.00000000       0.00000000       0.00000000          1
H        10.13792898       9.64375065       4.59730409         0.00000000       0.00000000       0.00000000          1
H        11.19154998       7.36661104       5.82563717         0.00000000       0.00000000       0.00000000          1
H         9.15988470       7.11483219       3.92478473         0.00000000       0.00000000       0.00000000          1
H         8.62313151       6.60601189       6.61872471         0.00000000       0.00000000       0.00000000          1
H         7.56950303       8.88315479       5.39039473         0.00000000       0.00000000       0.00000000          1
6
pbc=[F, F, F] list_num_par=6 frozen=false iter=20000 energy=-1.26974174 Lattice="15.00000000 0.00000000 0.00000000 0.00000000 15.00000000 0.00000000 0.00000000 0.00000000 15.00000000" energy_frozen_part=0.00000000 Properties=species:S:1:pos:R:3:velocities:R:3:Z:I:1
H         9.60120175       9.13496369       7.29124703         0.00000000       0.00000000       0.00000000          1
H        10.13795346       9.64377171       4.59730819         0.00000000       0.00000000       0.00000000          1
H        11.19158941       7.36663690       5.82564232         0.00000000       0.00000000       0.00000000          1
H         9.15992848       7.11484468       3.92479224         0.00000000       0.00000000       0.00000000          1
H         8.62317335       6.60603678       6.61873509         0.00000000       0.00000000       0.00000000          1
H         7.56953551       8.88316501       5.39039669         0.00000000       0.00000000       0.00000000          1
6
pbc=[F, F, F] list_num_par=6 frozen=false iter=20000 energy=-1.26974174 Lattice="15.00000000 0.00000000 0.00000000 0.00000000 15.00000000 0.00000000 0.00000000 0.00000000 15.00000000" energy_frozen_part=0.00000000 Properties=species:S:1:pos:R:3:velocities:R:3:Z:I:1
H         9.60121181       9.13495721       7.29121977         0.00000000       0.00000000       0.00000000          1
H        10.13794473       9.64373898       4.59727406         0.00000000       0.00000000       0.00000000          1
H        11.19157513       7.36661154       5.82562298         0.00000000       0.00000000       0.00000000          1
H         9.15989282       7.11480871       3.92479986         0.00000000       0.00000000       0.00000000          1
H         8.62315774       6.60602389       6.61874093         0.00000000       0.00000000       0.00000000          1
H         7.56953014       8.88315632       5.39039293         0.00000000       0.00000000       0.00000000          1
6
pbc=[F, F, F] list_num_par=6 frozen=false iter=20000 energy=-1.26974174 Lattice="15.00000000 0.00000000 0.00000000 0.00000000 15.00000000 0.00000000 0.00000000 0.00000000 15.00000000" energy_frozen_part=0.00000000 Properties=species:S:1:pos:R:3:velocities:R:3:Z:I:1
H         9.60119586       9.13494158       7.29122618         0.00000000       0.00000000       0.00000000          1
H        10.13796044       9.64373515       4.59728752         0.00000000       0.00000000       0.00000000          1
H        11.19157341       7.36659757       5.82564031         0.00000000       0.00000000       0.00000000          1
H         9.15991710       7.11481667       3.92478265         0.00000000       0.00000000       0.00000000          1
H         8.62314556       6.60601419       6.61871887         0.00000000       0.00000000       0.00000000          1
H         7.56953569       8.88315222       5.39037176         0.00000000       0.00000000       0.00000000          1
6
pbc=[F, F, F] list_num_par=6 frozen=false iter=20000 energy=-1.26974174 Lattice="15.00000000 0.00000000 0.00000000 0.00000000 15.00000000 0.00000000 0.00000000 0.00000000 15.00000000" energy_frozen_part=0.00000000 Properties=species:S:1:pos:R:3:velocities:R:3:Z:I:1
H         9.60126819       9.13469163       7.29219304         0.00000000       0.00000000       0.00000000          1
H        10.13821575       9.64411487       4.59841251         0.00000000       0.00000000       0.00000000          1
H        11.19204129       7.36688311       5.82639030         0.00000000       0.00000000       0.00000000          1
H         9.16059296       7.11518782       3.92529191         0.00000000       0.00000000       0.00000000          1
H         8.62364621       6.60576838       6.61907426         0.00000000       0.00000000       0.00000000          1
H         7.56982638       8.88300172       5.39109484         0.00000000       0.00000000       0.00000000          1
6
pbc=[F, F, F] list_num_par=6 frozen=false iter=20000 energy=-1.26974174 Lattice="15.00000000 0.00000000 0.00000000 0.00000000 15.00000000 0.00000000 0.00000000 0.00000000 15.00000000" energy_frozen_part=0.00000000 Properties=species:S:1:pos:R:3:velocities:R:3:Z:I:1
H         9.60142670       9.13434797       7.29251579         0.00000000       0.00000000       0.00000000          1
H        10.13881125       9.64432088       4.59892303         0.00000000       0.00000000       0.00000000          1
H        11.19204345       7.36658618       5.82648279         0.00000000       0.00000000       0.00000000          1
H         9.16078278       7.11574995       3.92506958         0.00000000       0.00000000       0.00000000          1
H         8.62340769       6.60576966       6.61866482         0.00000000       0.00000000       0.00000000          1
H         7.57017245       8.88350691       5.39110610         0.00000000       0.00000000       0.00000000          1
6
pbc=[F, F, F] list_num_par=6 frozen=false iter=20000 energy=-1.26974174 Lattice="15.00000000 0.00000000 0.00000000 0.00000000 15.00000000 0.00000000 0.00000000 0.00000000 15.00000000" energy_frozen_part=0.00000000 Properties=species:S:1:pos:R:3:velocities:R:3:Z:I:1
H         9.60105448       9.13419353       7.29256403         0.00000000       0.00000000       0.00000000          1
H        10.13859990       9.64447830       4.59906310         0.00000000       0.00000000       0.00000000          1
H        11.19194638       7.36671851       5.82649041         0.00000000       0.00000000       0.00000000          1
H         9.16087048       7.11588176       3.92489355         0.00000000       0.00000000       0.00000000          1
H         8.62331775       6.60559471       6.61839163         0.00000000       0.00000000       0.00000000          1
H         7.56996883       8.88335028       5.39097059         0.00000000       0.00000000       0.00000000          1
6
pbc=[F, F, F] list_num_par=6 frozen=false iter=20000 energy=-1.26974174 Lattice="15.00000000 0.00000000 0.00000000 0.00000000 15.00000000 0.00000000 0.00000000 0.00000000 15.00000000" energy_frozen_part=0.00000000 Properties=species:S:1:pos:R:3:velocities:R:3:Z:I:1
H         9.60123895       9.13471753       7.29221099         0.00000000       0.00000000       0.00000000          1
H        10.13819351       9.64413300       4.59842649         0.00000000       0.00000000       0.00000000          1
H        11.19202641       7.36691174       5.82641756         0.00000000       0.00000000       0.00000000          1
H         9.16058973       7.11519508       3.92531710         0.00000000       0.00000000       0.00000000          1
H         8.62363619       6.60578707       6.61910121         0.00000000       0.00000000       0.00000000          1
H         7.56980624       8.88300855       5.39110282         0.00000000       0.00000000       0.00000000          1
6
pbc=[F, F, F] list_num_par=6 frozen=false iter=20000 energy=-1.26974174 Lattice="15.00000000 0.00000000 0.00000000 0.00000000 15.00000000 0.00000000 0.00000000 0.00000000 15.00000000" energy_frozen_part=0.00000000 Properties=species:S:1:pos:R:3:velocities:R:3:Z:I:1
H         9.60126118       9.13469881       7.29218739         0.00000000       0.00000000       0.00000000          1
H        10.13821703       9.64411182       4.59840485         0.00000000       0.00000000       0.00000000          1
H        11.19203633       7.36687660       5.82639973         0.00000000       0.00000000       0.00000000          1
H         9.16059923       7.11518407       3.92529500         0.00000000       0.00000000       0.00000000          1
H         8.62364217       6.60577089       6.61907581         0.00000000       0.00000000       0.00000000          1
H         7.56982197       8.88300495       5.39108376         0.00000000       0.00000000       0.00000000          1
6
pbc=[F, F, F] list_num_par=6 frozen=false iter=20000 energy=-1.26974174 Lattice="15.00000000 0.00000000 0.00000000 0.00000000 15.00000000 0.00000000 0.00000000 0.00000000 15.00000000" energy_frozen_part=0.00000000 Properties=species:S:1:pos:R:3:velocities:R:3:Z:I:1
H         9.60123530       9.13472114       7.29221077         0.00000000       0.00000000       0.00000000          1
H        10.13820595       9.64411746       4.59843131         0.00000000       0.00000000       0.00000000          1
H        11.19202750       7.36689908       5.82643641         0.00000000       0.00000000       0.00000000          1
H         9.16059320       7.11518874       3.92533354         0.00000000       0.00000000       0.00000000          1
H         8.62362779       6.60579038       6.61911107         0.00000000       0.00000000       0.00000000          1
H         7.56980573       8.88301265       5.39109906         0.00000000       0.00000000       0.00000000          1
