6
pbc=[F, F, F] list_num_par=6 frozen=false iter=20000 energy=-1.26974174 Lattice="15.00000000 0.00000000 0.00000000 0.00000000 15.00000000 0.00000000 0.00000000 0.00000000 15.00000000" energy_frozen_part=0.00000000 Properties=species:S:1:pos:R:3:velocities:R:3:Z:I:1
H        10.89291992       3.67748207      11.37223646         0.00000000       0.00000000       0.00000000          1
H         7.61568529       1.88559924      10.08478433         0.00000000       0.00000000       0.00000000          1
H         8.16737705       3.89525292      11.94522008         0.00000000       0.00000000       0.00000000          1
H        10.34122389       1.66782200       9.51180574         0.00000000       0.00000000       0.00000000          1
H         9.44320768       1.41806127      12.14533097         0.00000000       0.00000000       0.00000000          1
H         9.06538671       4.14501628       9.31168957         0.00000000       0.00000000       0.00000000          1
6
pbc=[F, F, F] list_num_par=6 frozen=false iter=20000 energy=-1.26974174 Lattice="15.00000000 0.00000000 0.00000000 0.00000000 15.00000000 0.00000000 0.00000000 0.00000000 15.00000000" energy_frozen_part=0.00000000 Properties=species:S:1:pos:R:3:velocities:R:3:Z:I:1
H        10.96791537       3.64997890      11.23576131         0.00000000       0.00000000       0.00000000          1
H         7.71780962       1.92644376       9.79535033         0.00000000       0.00000000       0.00000000          1
H         8.22079275       3.97993506      11.62139873         0.00000000       0.00000000       0.00000000          1
H        10.46493668       1.59649755       9.40970073         0.00000000       0.00000000       0.00000000          1
H         9.39080504       1.46938952      11.98542868         0.00000000       0.00000000       0.00000000          1
H         9.29491587       4.10703953       9.04567619         0.00000000       0.00000000       0.00000000          1
6
pbc=[F, F, F] list_num_par=6 frozen=false iter=20000 energy=-1.26974174 Lattice="15.00000000 0.00000000 0.00000000 0.00000000 15.00000000 0.00000000 0.00000000 0.00000000 15.00000000" energy_frozen_part=0.00000000 Properties=species:S:1:pos:R:3:velocities:R:3:Z:I:1
H        10.96796496       3.64990816      11.23568847         0.00000000       0.00000000       0.00000000          1
H         7.71769596       1.92649708       9.79549624         0.00000000       0.00000000       0.00000000          1
H         8.22088414       3.97994827      11.62153180         0.00000000       0.00000000       0.00000000          1
H        10.46478898       1.59645365       9.40965114         0.00000000       0.00000000       0.00000000          1
H         9.39083737       1.46936125      11.98545219         0.00000000       0.00000000       0.00000000          1
H         9.29482485       4.10703886       9.04572610         0.00000000       0.00000000       0.00000000          1
6
pbc=[F, F, F] list_num_par=6 frozen=false iter=20000 energy=-1.26974174 Lattice="15.00000000 0.00000000 0.00000000 0.00000000 15.00000000 0.00000000 0.00000000 0.00000000 15.00000000" energy_frozen_part=0.00000000 Properties=species:S:1:pos:R:3:velocities:R:3:Z:I:1
H        10.96792275       3.64996933      11.23577361         0.00000000       0.00000000       0.00000000          1
H         7.71781201       1.92645379       9.79534940         0.00000000       0.00000000       0.00000000          1
H         8.22080190       3.97992528      11.62142404         0.00000000       0.00000000       0.00000000          1
H        10.46494141       1.59649795       9.40970371         0.00000000       0.00000000       0.00000000          1
H         9.39081400       1.46937265      11.98542858         0.00000000       0.00000000       0.00000000          1
H         9.29492643       4.10705382       9.04569582         0.00000000       0.00000000       0.00000000          1
6
pbc=[F, F, F] list_num_par=6 frozen=false iter=20000 energy=-1.26974174 Lattice="15.00000000 0.00000000 0.00000000 0.00000000 15.00000000 0.00000000 0.00000000 0.00000000 15.00000000" energy_frozen_part=0.00000000 Properties=species:S:1:pos:R:3:velocities:R:3:Z:I:1
H        10.89391676       3.67551730      11.37370608         0.00000000       0.00000000       0.00000000          1
H         7.61510042       1.88829980      10.08384738         0.00000000       0.00000000       0.00000000          1
H         8.16853435       3.89523313      11.94668552         0.00000000       0.00000000       0.00000000          1
H        10.34048118       1.66858545       9.51085970         0.00000000       0.00000000       0.00000000          1
H         9.44198350       1.41658236      12.14401029         0.00000000       0.00000000       0.00000000          1
H         9.06704018       4.14723416       9.31354221         0.00000000       0.00000000       0.00000000          1
6
pbc=[F, F, F] list_num_par=6 frozen=false iter=20000 energy=-1.26974174 Lattice="15.00000000 0.00000000 0.00000000 0.00000000 15.00000000 0.00000000 0.00000000 0.00000000 15.00000000" energy_frozen_part=0.00000000 Properties=species:S:1:pos:R:3:velocities:R:3:Z:I:1
H        10.96797994       3.64991193      11.23568233         0.00000000       0.00000000       0.00000000          1
H         7.71770228       1.92648167       9.79550846         0.00000000       0.00000000       0.00000000          1
H         8.22089193       3.97995210      11.62153171         0.00000000       0.00000000       0.00000000          1
H        10.46478935       1.59644139       9.40966749         0.00000000       0.00000000       0.00000000          1
H         9.39084574       1.46936968      11.98547392         0.00000000       0.00000000       0.00000000          1
H         9.29483627       4.10703119       9.04572084         0.00000000       0.00000000       0.00000000          1
6
pbc=[F, F, F] list_num_par=6 frozen=false iter=20000 energy=-1.26974174 Lattice="15.00000000 0.00000000 0.00000000 0.00000000 15.00000000 0.00000000 0.00000000 0.00000000 15.00000000" energy_frozen_part=0.00000000 Properties=species:S:1:pos:R:3:velocities:R:3:Z:I:1
H         6.41930246       3.54835917       3.47999253         0.00000000       0.00000000       0.00000000          1
H         4.24857840       3.84853310       5.21265711         0.00000000       0.00000000       0.00000000          1
H         5.48229834       1.35721372       4.93779534         0.00000000       0.00000000       0.00000000          1
H         5.08926280       1.46746861       2.17416783         0.00000000       0.00000000       0.00000000          1
H         2.91852629       1.76764954       3.90682665         0.00000000       0.00000000       0.00000000          1
H         3.85553163       3.95878316       2.44902087         0.00000000       0.00000000       0.00000000          1
6
pbc=[F, F, F] list_num_par=6 frozen=false iter=20000 energy=-1.26974174 Lattice="15.00000000 0.00000000 0.00000000 0.00000000 15.00000000 0.00000000 0.00000000 0.00000000 15.00000000" energy_frozen_part=0.00000000 Properties=species:S:1:pos:R:3:velocities:R:3:Z:I:1
H        10.89283617       3.67757429      11.37219336         0.00000000       0.00000000       0.00000000          1
H         7.61562614       1.88559346      10.08483192         0.00000000       0.00000000       0.00000000          1
H         8.16729746       3.89529838      11.94520896         0.00000000       0.00000000       0.00000000          1
H        10.34115799       1.66787508       9.51180382         0.00000000       0.00000000       0.00000000          1
H         9.44320084       1.41814272      12.14535205         0.00000000       0.00000000       0.00000000          1
H         9.06526402       4.14503366       9.31166884         0.00000000       0.00000000       0.00000000          1
6
pbc=[F, F, F] list_num_par=6 frozen=false iter=20000 energy=-1.26974174 Lattice="15.00000000 0.00000000 0.00000000 0.00000000 15.00000000 0.00000000 0.00000000 0.00000000 15.00000000" energy_frozen_part=0.00000000 Properties=species:S:1:pos:R:3:velocities:R:3:Z:I:1
H        10.89284428       3.67754215      11.37219891         0.00000000       0.00000000       0.00000000          1
H         7.61563554       1.88556567      10.08483761         0.00000000       0.00000000       0.00000000          1
H         8.16731615       3.89526110      11.94523442         0.00000000       0.00000000       0.00000000          1
H        10.34117564       1.66784065       9.51180658         0.00000000       0.00000000       0.00000000          1
H         9.44321041       1.41810015      12.14535328         0.00000000       0.00000000       0.00000000          1
H         9.06527606       4.14500087       9.31167796         0.00000000       0.00000000       0.00000000          1
6
pbc=[F, F, F] list_num_par=6 frozen=false iter=20000 energy=-1.26974174 Lattice="15.00000000 0.00000000 0.00000000 0.00000000 15.00000000 0.00000000 0.00000000 0.00000000 15.00000000" energy_frozen_part=0.00000000 Properties=species:S:1:pos:R:3:velocities:R:3:Z:I:1
H         6.41930414       3.54837257       3.47996783         0.00000000       0.00000000       0.00000000          1
H         4.24858811       3.84854022       5.21264188         0.00000000       0.00000000       0.00000000          1
H         5.48231326       1.35722289       4.93777622         0.00000000       0.00000000       0.00000000          1
H         5.08924370       1.46748404       2.17415549         0.00000000       0.00000000       0.00000000          1
H         2.91852809       1.76765634       3.90684191         0.00000000       0.00000000       0.00000000          1
H         3.85552301       3.95879457       2.44901782         0.00000000       0.00000000       0.00000000          1
6
pbc=[F, F, F] list_num_par=6 frozen=false iter=20000 energy=-1.26974174 Lattice="15.00000000 0.00000000 0.00000000 0.00000000 15.00000000 0.00000000 0.00000000 0.00000000 15.00000000" energy_frozen_part=0.00000000 Properties=species:S:1:pos:R:3:velocities:R:3:Z:I:1
H         6.41935137       3.54830415       3.47995844         0.00000000       0.00000000       0.00000000          1
H         4.24865306       3.84851296       5.21265028         0.00000000       0.00000000       0.00000000          1
H         5.48235241       1.35717822       4.93780364         0.00000000       0.00000000       0.00000000          1
H         5.08927460       1.46741891       2.17417511         0.00000000       0.00000000       0.00000000          1
H         2.91856738       1.76762271       3.90686878         0.00000000       0.00000000       0.00000000          1
H         3.85556987       3.95874427       2.44902849         0.00000000       0.00000000       0.00000000          1
6
pbc=[F, F, F] list_num_par=6 frozen=false iter=20000 energy=-1.26974174 Lattice="15.00000000 0.00000000 0.00000000 0.00000000 15.00000000 0.00000000 0.00000000 0.00000000 15.00000000" energy_frozen_part=0.00000000 Properties=species:S:1:pos:R:3:velocities:R:3:Z:I:1
H        10.89311970       3.67768338      11.37137980         0.00000000       0.00000000       0.00000000          1
H         7.61573494       1.88567695      10.08449564         0.00000000       0.00000000       0.00000000          1
H         8.16769617       3.89521309      11.94498255         0.00000000       0.00000000       0.00000000          1
H        10.34116000       1.66814638       9.51089656         0.00000000       0.00000000       0.00000000          1
H         9.44374401       1.41809338      12.14460026         0.00000000       0.00000000       0.00000000          1
H         9.06509862       4.14526364       9.31127186         0.00000000       0.00000000       0.00000000          1
6
pbc=[F, F, F] list_num_par=6 frozen=false iter=20000 energy=-1.26974174 Lattice="15.00000000 0.00000000 0.00000000 0.00000000 15.00000000 0.00000000 0.00000000 0.00000000 15.00000000" energy_frozen_part=0.00000000 Properties=species:S:1:pos:R:3:velocities:R:3:Z:I:1
H        10.89284840       3.67753718      11.37217724         0.00000000       0.00000000       0.00000000          1
H         7.61564390       1.88555895      10.08481751         0.00000000       0.00000000       0.00000000          1
H         8.16731241       3.89526684      11.94519998         0.00000000       0.00000000       0.00000000          1
H        10.34117089       1.66783689       9.51179573         0.00000000       0.00000000       0.00000000          1
H         9.44320223       1.41810726      12.14534893         0.00000000       0.00000000       0.00000000          1
H         9.06528379       4.14499633       9.31165715         0.00000000       0.00000000       0.00000000          1
6
pbc=[F, F, F] list_num_par=6 frozen=false iter=20000 energy=-1.26974174 Lattice="15.00000000 0.00000000 0.00000000 0.00000000 15.00000000 0.00000000 0.00000000 0.00000000 15.00000000" energy_frozen_part=0.00000000 Properties=species:S:1:pos:R:3:velocities:R:3:Z:I:1
H        10.96796495       3.64995475      11.23565125         0.00000000       0.00000000       0.00000000          1
H         7.71773847       1.92646035       9.79548062         0.00000000       0.00000000       0.00000000          1
H         8.22087818       3.97998645      11.62145108         0.00000000       0.00000000       0.00000000          1
H        10.46482639       1.59643606       9.40967511         0.00000000       0.00000000       0.00000000          1
H         9.39084836       1.46941790      11.98547426         0.00000000       0.00000000       0.00000000          1
H         9.29484804       4.10699751       9.04564989         0.00000000       0.00000000       0.00000000          1
6
pbc=[F, F, F] list_num_par=6 frozen=false iter=20000 energy=-1.26974174 Lattice="15.00000000 0.00000000 0.00000000 0.00000000 15.00000000 0.00000000 0.00000000 0.00000000 15.00000000" energy_frozen_part=0.00000000 Properties=species:S:1:pos:R:3:velocities:R:3:Z:I:1
H         6.41934960       3.54833641       3.47998039         0.00000000       0.00000000       0.00000000          1
H         4.24861164       3.84852244       5.21263087         0.00000000       0.00000000       0.00000000          1
H         5.48234360       1.35721475       4.93781837         0.00000000       0.00000000       0.00000000          1
H         5.08931577       1.46742282       2.17418850         0.00000000       0.00000000       0.00000000          1
H         2.91857231       1.76761443       3.90683552         0.00000000       0.00000000       0.00000000          1
H         3.85557270       3.95873427       2.44899567         0.00000000       0.00000000       0.00000000          1
6
pbc=[F, F, F] list_num_par=6 frozen=false iter=20000 energy=-1.26974174 Lattice="15.00000000 0.00000000 0.00000000 0.00000000 15.00000000 0.00000000 0.00000000 0.00000000 15.00000000" energy_frozen_part=0.00000000 Properties=species:S:1:pos:R:3:velocities:R:3:Z:I:1
H         6.41934194       3.54834379       3.47995688         0.00000000       0.00000000       0.00000000          1
H         4.24863315       3.84854066       5.21263683         0.00000000       0.00000000       0.00000000          1
H         5.48235146       1.35721789       4.93779382         0.00000000       0.00000000       0.00000000          1
H         5.08927578       1.46745569       2.17416846         0.00000000       0.00000000       0.00000000          1
H         2.91857095       1.76764097       3.90685493         0.00000000       0.00000000       0.00000000          1
H         3.85555497       3.95877995       2.44901812         0.00000000       0.00000000       0.00000000          1
6
pbc=[F, F, F] list_num_par=6 frozen=false iter=20000 energy=-1.26974174 Lattice="15.00000000 0.00000000 0.00000000 0.00000000 15.00000000 0.00000000 0.00000000 0.00000000 15.00000000" energy_frozen_part=0.00000000 Properties=species:S:1:pos:R:3:velocities:R:3:Z:I:1
H         6.41935087       3.54829263       3.47996468         0.00000000       0.00000000       0.00000000          1
H         4.24864179       3.84850185       5.21265282         0.00000000       0.00000000       0.00000000          1
H         5.48234790       1.35717197       4.93781024         0.00000000       0.00000000       0.00000000          1
H         5.08927194       1.46740821       2.17418793         0.00000000       0.00000000       0.00000000          1
H         2.91856256       1.76761402       3.90687472         0.00000000       0.00000000       0.00000000          1
H         3.85556185       3.95873741       2.44903153         0.00000000       0.00000000       0.00000000          1
6
pbc=[F, F, F] list_num_par=6 frozen=false iter=20000 energy=-1.26974174 Lattice="15.00000000 0.00000000 0.00000000 0.00000000 15.00000000 0.00000000 0.00000000 0.00000000 15.00000000" energy_frozen_part=0.00000000 Properties=species:S:1:pos:R:3:velocities:R:3:Z:I:1
H         6.41930774       3.54834138       3.47997272         0.00000000       0.00000000       0.00000000          1
H         4.24859554       3.84852240       5.21265224         0.00000000       0.00000000       0.00000000          1
H         5.48230295       1.35719648       4.93778380         0.00000000       0.00000000       0.00000000          1
H         5.08923402       1.46747105       2.17415746         0.00000000       0.00000000       0.00000000          1
H         2.91851759       1.76765031       3.90683210         0.00000000       0.00000000       0.00000000          1
H         3.85553279       3.95879481       2.44903115         0.00000000       0.00000000       0.00000000          1
6
pbc=[F, F, F] list_num_par=6 frozen=false iter=20000 energy=-1.26974174 Lattice="15.00000000 0.00000000 0.00000000 0.00000000 15.00000000 0.00000000 0.00000000 0.00000000 15.00000000" energy_frozen_part=0.00000000 Properties=species:S:1:pos:R:3:velocities:R:3:Z:I:1
H        10.89347954       3.67703470      11.37083984         0.00000000       0.00000000       0.00000000          1
H         7.61562531       1.88589725      10.08397448         0.00000000       0.00000000       0.00000000          1
H         8.16815190       3.89501118      11.94474546         0.00000000       0.00000000       0.00000000          1
H        10.34094625       1.66791903       9.51007467         0.00000000       0.00000000       0.00000000          1
H         9.44373038       1.41760846      12.14382982         0.00000000       0.00000000       0.00000000          1
H         9.06536946       4.14532794       9.31099244         0.00000000       0.00000000       0.00000000          1
6
pbc=[F, F, F] list_num_par=6 frozen=false iter=20000 energy=-1.26974174 Lattice="15.00000000 0.00000000 0.00000000 0.00000000 15.00000000 0.00000000 0.00000000 0.00000000 15.00000000" energy_frozen_part=0.00000000 Properties=species:S:1:pos:R:3:velocities:R:3:Z:I:1
H        10.96797196       3.64990805      11.23568619         0.00000000       0.00000000       0.00000000          1
H         7.71769325       1.92649189       9.79550041         0.00000000       0.00000000       0.00000000          1
H         8.22088889       3.97994822      11.62153503         0.00000000       0.00000000       0.00000000          1
H        10.46477554       1.59644424       9.40965713         0.00000000       0.00000000       0.00000000          1
H         9.39083071       1.46935874      11.98546377         0.00000000       0.00000000       0.00000000          1
H         9.29483102       4.10703956       9.04573116         0.00000000       0.00000000       0.00000000          1
6
pbc=[F, F, F] list_num_par=6 frozen=false iter=20000 energy=-1.26974174 Lattice="15.00000000 0.00000000 0.00000000 0.00000000 15.00000000 0.00000000 0.00000000 0.00000000 15.00000000" energy_frozen_part=0.00000000 Properties=species:S:1:pos:R:3:velocities:R:3:Z:I:1
H        10.89289710       3.67756599      11.37233991         0.00000000       0.00000000       0.00000000          1
H         7.61579420       1.88553997      10.08479475         0.00000000       0.00000000       0.00000000          1
H         8.16733647       3.89523900      11.94522919         0.00000000       0.00000000       0.00000000          1
H        10.34135714       1.66787730       9.51189862         0.00000000       0.00000000       0.00000000          1
H         9.44326542       1.41809228      12.14540406         0.00000000       0.00000000       0.00000000          1
H         9.06542081       4.14501283       9.31172175         0.00000000       0.00000000       0.00000000          1
6
pbc=[F, F, F] list_num_par=6 frozen=false iter=20000 energy=-1.26974174 Lattice="15.00000000 0.00000000 0.00000000 0.00000000 15.00000000 0.00000000 0.00000000 0.00000000 15.00000000" energy_frozen_part=0.00000000 Properties=species:S:1:pos:R:3:velocities:R:3:Z:I:1
H         6.41926916       3.54826000       3.47982564         0.00000000       0.00000000       0.00000000          1
H         4.24858801       3.84851653       5.21253559         0.00000000       0.00000000       0.00000000          1
H         5.48219847       1.35715462       4.93765185         0.00000000       0.00000000       0.00000000          1
H         5.08910592       1.46743292       2.17403001         0.00000000       0.00000000       0.00000000          1
H         2.91841933       1.76768744       3.90673855         0.00000000       0.00000000       0.00000000          1
H         3.85548187       3.95879669       2.44892234         0.00000000       0.00000000       0.00000000          1
6
pbc=[F, F, F] list_num_par=6 frozen=false iter=20000 energy=-1.26974174 Lattice="15.00000000 0.00000000 0.00000000 0.00000000 15.00000000 0.00000000 0.00000000 0.00000000 15.00000000" energy_frozen_part=0.00000000 Properties=species:S:1:pos:R:3:velocities:R:3:Z:I:1
H        10.96791473       3.64997378      11.23575771         0.00000000       0.00000000       0.00000000          1
H         7.71779743       1.92644586       9.79535159         0.00000000       0.00000000       0.00000000          1
H         8.22078626       3.97992741      11.62141255         0.00000000       0.00000000       0.00000000          1
H        10.46492381       1.59649895       9.40969444         0.00000000       0.00000000       0.00000000          1
H         9.39080289       1.46937846      11.98543119         0.00000000       0.00000000       0.00000000          1
H         9.29491383       4.10704281       9.04567955         0.00000000       0.00000000       0.00000000          1
6
pbc=[F, F, F] list_num_par=6 frozen=false iter=20000 energy=-1.26974174 Lattice="15.00000000 0.00000000 0.00000000 0.00000000 15.00000000 0.00000000 0.00000000 0.00000000 15.00000000" energy_frozen_part=0.00000000 Properties=species:S:1:pos:R:3:velocities:R:3:Z:I:1
H        10.89284268       3.67757857      11.37216570         0.00000000       0.00000000       0.00000000          1
H         7.61563584       1.88557678      10.08483332         0.00000000       0.00000000       0.00000000          1
H         8.16731130       3.89529843      11.94519748         0.00000000       0.00000000       0.00000000          1
H        10.34116291       1.66785906       9.51180100         0.00000000       0.00000000       0.00000000          1
H         9.44322026       1.41814437      12.14535564         0.00000000       0.00000000       0.00000000          1
H         9.06525317       4.14501114       9.31164310         0.00000000       0.00000000       0.00000000          1
6
pbc=[F, F, F] list_num_par=6 frozen=false iter=20000 energy=-1.26974174 Lattice="15.00000000 0.00000000 0.00000000 0.00000000 15.00000000 0.00000000 0.00000000 0.00000000 15.00000000" energy_frozen_part=0.00000000 Properties=species:S:1:pos:R:3:velocities:R:3:Z:I:1
H        10.89310665       3.67770971      11.37134442         0.00000000       0.00000000       0.00000000          1
H         7.61572906       1.88565999      10.08451654         0.00000000       0.00000000       0.00000000          1
H         8.16768516       3.89521748      11.94497403         0.00000000       0.00000000       0.00000000          1
H        10.34115245       1.66815673       9.51087949         0.00000000       0.00000000       0.00000000          1
H         9.44376985       1.41810772      12.14459228         0.00000000       0.00000000       0.00000000          1
H         9.06506374       4.14525612       9.31126293         0.00000000       0.00000000       0.00000000          1
6
pbc=[F, F, F] list_num_par=6 frozen=false iter=20000 energy=-1.26974174 Lattice="15.00000000 0.00000000 0.00000000 0.00000000 15.00000000 0.00000000 0.00000000 0.00000000 15.00000000" energy_frozen_part=0.00000000 Properties=species:S:1:pos:R:3:velocities:R:3:Z:I:1
H        10.96791212       3.64999081      11.23576728         0.00000000       0.00000000       0.00000000          1
H         7.71781359       1.92643134       9.79537292         0.00000000       0.00000000       0.00000000          1
H         8.22078756       3.97992408      11.62141953         0.00000000       0.00000000       0.00000000          1
H        10.46493756       1.59649814       9.40970633         0.00000000       0.00000000       0.00000000          1
H         9.39082321       1.46938646      11.98544238         0.00000000       0.00000000       0.00000000          1
H         9.29490103       4.10703759       9.04568449         0.00000000       0.00000000       0.00000000          1
6
pbc=[F, F, F] list_num_par=6 frozen=false iter=20000 energy=-1.26974174 Lattice="15.00000000 0.00000000 0.00000000 0.00000000 15.00000000 0.00000000 0.00000000 0.00000000 15.00000000" energy_frozen_part=0.00000000 Properties=species:S:1:pos:R:3:velocities:R:3:Z:I:1
H        10.89287509       3.67755645      11.37217928         0.00000000       0.00000000       0.00000000          1
H         7.61566164       1.88558657      10.08482011         0.00000000       0.00000000       0.00000000          1
H         8.16733821       3.89528496      11.94520184         0.00000000       0.00000000       0.00000000          1
H        10.34119499       1.66785633       9.51179809         0.00000000       0.00000000       0.00000000          1
H         9.44322580       1.41812655      12.14534867         0.00000000       0.00000000       0.00000000          1
H         9.06530190       4.14502282       9.31165962         0.00000000       0.00000000       0.00000000          1
6
pbc=[F, F, F] list_num_par=6 frozen=false iter=20000 energy=-1.26974174 Lattice="15.00000000 0.00000000 0.00000000 0.00000000 15.00000000 0.00000000 0.00000000 0.00000000 15.00000000" energy_frozen_part=0.00000000 Properties=species:S:1:pos:R:3:velocities:R:3:Z:I:1
H        10.89394447       3.67555568      11.37370811         0.00000000       0.00000000       0.00000000          1
H         7.61512043       1.88833384      10.08384375         0.00000000       0.00000000       0.00000000          1
H         8.16856234       3.89525937      11.94669581         0.00000000       0.00000000       0.00000000          1
H        10.34050756       1.66862894       9.51084673         0.00000000       0.00000000       0.00000000          1
H         9.44200706       1.41661465      12.14399814         0.00000000       0.00000000       0.00000000          1
H         9.06706299       4.14727525       9.31355175         0.00000000       0.00000000       0.00000000          1
6
pbc=[F, F, F] list_num_par=6 frozen=false iter=20000 energy=-1.26974174 Lattice="15.00000000 0.00000000 0.00000000 0.00000000 15.00000000 0.00000000 0.00000000 0.00000000 15.00000000" energy_frozen_part=0.00000000 Properties=species:S:1:pos:R:3:velocities:R:3:Z:I:1
H        10.89395568       3.67551725      11.37373973         0.00000000       0.00000000       0.00000000          1
H         7.61514401       1.88831051      10.08382951         0.00000000       0.00000000       0.00000000          1
H         8.16856795       3.89521918      11.94670459         0.00000000       0.00000000       0.00000000          1
H        10.34052809       1.66860388       9.51086381         0.00000000       0.00000000       0.00000000          1
H         9.44201378       1.41657612      12.14399850         0.00000000       0.00000000       0.00000000          1
H         9.06708858       4.14725099       9.31356673         0.00000000       0.00000000       0.00000000          1
6
pbc=[F, F, F] list_num_par=6 frozen=false iter=20000 energy=-1.26974174 Lattice="15.00000000 0.00000000 0.00000000 0.00000000 15.00000000 0.00000000 0.00000000 0.00000000 15.00000000" energy_frozen_part=0.00000000 Properties=species:S:1:pos:R:3:velocities:R:3:Z:I:1
H        10.89284736       3.67753818      11.37218583         0.00000000       0.00000000       0.00000000          1
H         7.61565225       1.88555182      10.08482088         0.00000000       0.00000000       0.00000000          1
H         8.16731390       3.89526196      11.94519712         0.00000000       0.00000000       0.00000000          1
H        10.34117717       1.66783003       9.51180224         0.00000000       0.00000000       0.00000000          1
H         9.44320997       1.41810444      12.14535503         0.00000000       0.00000000       0.00000000          1
H         9.06527960       4.14499234       9.31165276         0.00000000       0.00000000       0.00000000          1
6
pbc=[F, F, F] list_num_par=6 frozen=false iter=20000 energy=-1.26974174 Lattice="15.00000000 0.00000000 0.00000000 0.00000000 15.00000000 0.00000000 0.00000000 0.00000000 15.00000000" energy_frozen_part=0.00000000 Properties=species:S:1:pos:R:3:velocities:R:3:Z:I:1
H        10.89350839       3.67705180      11.37086829         0.00000000       0.00000000       0.00000000          1
H         7.61562009       1.88593742      10.08402098         0.00000000       0.00000000       0.00000000          1
H         8.16819355       3.89501428      11.94482284         0.00000000       0.00000000       0.00000000          1
H        10.34093756       1.66798358       9.51006406         0.00000000       0.00000000       0.00000000          1
H         9.44377099       1.41760307      12.14381976         0.00000000       0.00000000       0.00000000          1
H         9.06535235       4.14538899       9.31106239         0.00000000       0.00000000       0.00000000          1
6
pbc=[F, F, F] list_num_par=6 frozen=false iter=20000 energy=-1.26974174 Lattice="15.00000000 0.00000000 0.00000000 0.00000000 15.00000000 0.00000000 0.00000000 0.00000000 15.00000000" energy_frozen_part=0.00000000 Properties=species:S:1:pos:R:3:velocities:R:3:Z:I:1
H         6.41934990       3.54833292       3.47996393         0.00000000       0.00000000       0.00000000          1
H         4.24862212       3.84853408       5.21262421         0.00000000       0.00000000       0.00000000          1
H         5.48234919       1.35721029       4.93781195         0.00000000       0.00000000       0.00000000          1
H         5.08929786       1.46742166       2.17418011         0.00000000       0.00000000       0.00000000          1
H         2.91857796       1.76762590       3.90684339         0.00000000       0.00000000       0.00000000          1
H         3.85556949       3.95874653       2.44899033         0.00000000       0.00000000       0.00000000          1
6
pbc=[F, F, F] list_num_par=6 frozen=false iter=20000 energy=-1.26974174 Lattice="15.00000000 0.00000000 0.00000000 0.00000000 15.00000000 0.00000000 0.00000000 0.00000000 15.00000000" energy_frozen_part=0.00000000 Properties=species:S:1:pos:R:3:velocities:R:3:Z:I:1
H         6.41935280       3.54831696       3.47997316         0.00000000       0.00000000       0.00000000          1
H         4.24864410       3.84851004       5.21264745         0.00000000       0.00000000       0.00000000          1
H         5.48234706       1.35718602       4.93780572         0.00000000       0.00000000       0.00000000          1
H         5.08927862       1.46743644       2.17417830         0.00000000       0.00000000       0.00000000          1
H         2.91856907       1.76762551       3.90685726         0.00000000       0.00000000       0.00000000          1
H         3.85556973       3.95875859       2.44902447         0.00000000       0.00000000       0.00000000          1
6
pbc=[F, F, F] list_num_par=6 frozen=false iter=20000 energy=-1.26974174 Lattice="15.00000000 0.00000000 0.00000000 0.00000000 15.00000000 0.00000000 0.00000000 0.00000000 15.00000000" energy_frozen_part=0.00000000 Properties=species:S:1:pos:R:3:velocities:R:3:Z:I:1
H        10.89283754       3.67755448      11.37216923         0.00000000       0.00000000       0.00000000          1
H         7.61564268       1.88556132      10.08479637         0.00000000       0.00000000       0.00000000          1
H         8.16729934       3.89527412      11.94517465         0.00000000       0.00000000       0.00000000          1
H        10.34117854       1.66785490       9.51177981         0.00000000       0.00000000       0.00000000          1
H         9.44320090       1.41811551      12.14532558         0.00000000       0.00000000       0.00000000          1
H         9.06527445       4.14500195       9.31163731         0.00000000       0.00000000       0.00000000          1
6
pbc=[F, F, F] list_num_par=6 frozen=false iter=20000 energy=-1.26974174 Lattice="15.00000000 0.00000000 0.00000000 0.00000000 15.00000000 0.00000000 0.00000000 0.00000000 15.00000000" energy_frozen_part=0.00000000 Properties=species:S:1:pos:R:3:velocities:R:3:Z:I:1
H        10.89284009       3.67755208      11.37217660         0.00000000       0.00000000       0.00000000          1
H         7.61564982       1.88555183      10.08480752         0.00000000       0.00000000       0.00000000          1
H         8.16730351       3.89527914      11.94517272         0.00000000       0.00000000       0.00000000          1
H        10.34118290       1.66783297       9.51180223         0.00000000       0.00000000       0.00000000          1
H         9.44319872       1.41812154      12.14535256         0.00000000       0.00000000       0.00000000          1
H         9.06528614       4.14499311       9.31163722         0.00000000       0.00000000       0.00000000          1
6
pbc=[F, F, F] list_num_par=6 frozen=false iter=20000 energy=-1.26974174 Lattice="15.00000000 0.00000000 0.00000000 0.00000000 15.00000000 0.00000000 0.00000000 0.00000000 15.00000000" energy_frozen_part=0.00000000 Properties=species:S:1:pos:R:3:velocities:R:3:Z:I:1
H         6.41934920       3.54832205       3.47996539         0.00000000       0.00000000       0.00000000          1
H         4.24864169       3.84851211       5.21265152         0.00000000       0.00000000       0.00000000          1
H         5.48236056       1.35718807       4.93779628         0.00000000       0.00000000       0.00000000          1
H         5.08928160       1.46743952       2.17417283         0.00000000       0.00000000       0.00000000          1
H         2.91856909       1.76762792       3.90685546         0.00000000       0.00000000       0.00000000          1
H         3.85556600       3.95876378       2.44902380         0.00000000       0.00000000       0.00000000          1
6
pbc=[F, F, F] list_num_par=6 frozen=false iter=20000 energy=-1.26974174 Lattice="15.00000000 0.00000000 0.00000000 0.00000000 15.00000000 0.00000000 0.00000000 0.00000000 15.00000000" energy_frozen_part=0.00000000 Properties=species:S:1:pos:R:3:velocities:R:3:Z:I:1
H        10.89284372       3.67753455      11.37220423         0.00000000       0.00000000       0.00000000          1
H         7.61564010       1.88556256      10.08484003         0.00000000       0.00000000       0.00000000          1
H         8.16730914       3.89526623      11.94522754         0.00000000       0.00000000       0.00000000          1
H        10.34116337       1.66783218       9.51181357         0.00000000       0.00000000       0.00000000          1
H         9.44320160       1.41810168      12.14536618         0.00000000       0.00000000       0.00000000          1
H         9.06527976       4.14500407       9.31168316         0.00000000       0.00000000       0.00000000          1
6
pbc=[F, F, F] list_num_par=6 frozen=false iter=20000 energy=-1.26974174 Lattice="15.00000000 0.00000000 0.00000000 0.00000000 15.00000000 0.00000000 0.00000000 0.00000000 15.00000000" energy_frozen_part=0.00000000 Properties=species:S:1:pos:R:3:velocities:R:3:Z:I:1
H        10.89392917       3.67559020      11.37369682         0.00000000       0.00000000       0.00000000          1
H         7.61515527       1.88829413      10.08381896         0.00000000       0.00000000       0.00000000          1
H         8.16852901       3.89527545      11.94663131         0.00000000       0.00000000       0.00000000          1
H        10.34055083       1.66860932       9.51088197         0.00000000       0.00000000       0.00000000          1
H         9.44200413       1.41664682      12.14402344         0.00000000       0.00000000       0.00000000          1
H         9.06707426       4.14723632       9.31349794         0.00000000       0.00000000       0.00000000          1
6
pbc=[F, F, F] list_num_par=6 frozen=false iter=20000 energy=-1.26974174 Lattice="15.00000000 0.00000000 0.00000000 0.00000000 15.00000000 0.00000000 0.00000000 0.00000000 15.00000000" energy_frozen_part=0.00000000 Properties=species:S:1:pos:R:3:velocities:R:3:Z:I:1
H        10.89291260       3.67748016      11.37222570         0.00000000       0.00000000       0.00000000          1
H         7.61567943       1.88560738      10.08477866         0.00000000       0.00000000       0.00000000          1
H         8.16737886       3.89525432      11.94521598         0.00000000       0.00000000       0.00000000          1
H        10.34121041       1.66782910       9.51179181         0.00000000       0.00000000       0.00000000          1
H         9.44320999       1.41806612      12.14532415         0.00000000       0.00000000       0.00000000          1
H         9.06538550       4.14502010       9.31168013         0.00000000       0.00000000       0.00000000          1
6
pbc=[F, F, F] list_num_par=6 frozen=false iter=20000 energy=-1.26974174 Lattice="15.00000000 0.00000000 0.00000000 0.00000000 15.00000000 0.00000000 0.00000000 0.00000000 15.00000000" energy_frozen_part=0.00000000 Properties=species:S:1:pos:R:3:velocities:R:3:Z:I:1
H        10.89395150       3.67551799      11.37373696         0.00000000       0.00000000       0.00000000          1
H         7.61513341       1.88831405      10.08384320         0.00000000       0.00000000       0.00000000          1
H         8.16856994       3.89522449      11.94671029         0.00000000       0.00000000       0.00000000          1
H        10.34051467       1.66860581       9.51086742         0.00000000       0.00000000       0.00000000          1
H         9.44200921       1.41657337      12.14401017         0.00000000       0.00000000       0.00000000          1
H         9.06708534       4.14725870       9.31356237         0.00000000       0.00000000       0.00000000          1
6
pbc=[F, F, F] list_num_par=6 frozen=false iter=20000 energy=-1.26974174 Lattice="15.00000000 0.00000000 0.00000000 0.00000000 15.00000000 0.00000000 0.00000000 0.00000000 15.00000000" energy_frozen_part=0.00000000 Properties=species:S:1:pos:R:3:velocities:R:3:Z:I:1
H        10.89291676       3.67747539      11.37222296         0.00000000       0.00000000       0.00000000          1
H         7.61568438       1.88561246      10.08477676         0.00000000       0.00000000       0.00000000          1
H         8.16737871       3.89526586      11.94521191         0.00000000       0.00000000       0.00000000          1
H        10.34121614       1.66782204       9.51179747         0.00000000       0.00000000       0.00000000          1
H         9.44319950       1.41806487      12.14532938         0.00000000       0.00000000       0.00000000          1
H         9.06538850       4.14502780       9.31168134         0.00000000       0.00000000       0.00000000          1
6
pbc=[F, F, F] list_num_par=6 frozen=false iter=20000 energy=-1.26974174 Lattice="15.00000000 0.00000000 0.00000000 0.00000000 15.00000000 0.00000000 0.00000000 0.00000000 15.00000000" energy_frozen_part=0.00000000 Properties=species:S:1:pos:R:3:velocities:R:3:Z:I:1
H         6.41935649       3.54830330       3.47996271         0.00000000       0.00000000       0.00000000          1
H         4.24865839       3.84851877       5.21264652         0.00000000       0.00000000       0.00000000          1
H         5.48236315       1.35718825       4.93780934         0.00000000       0.00000000       0.00000000          1
H         5.08928232       1.46741156       2.17418258         0.00000000       0.00000000       0.00000000          1
H         2.91857953       1.76762626       3.90686287         0.00000000       0.00000000       0.00000000          1
H         3.85557545       3.95874883       2.44901969         0.00000000       0.00000000       0.00000000          1
6
pbc=[F, F, F] list_num_par=6 frozen=false iter=20000 energy=-1.26974174 Lattice="15.00000000 0.00000000 0.00000000 0.00000000 15.00000000 0.00000000 0.00000000 0.00000000 15.00000000" energy_frozen_part=0.00000000 Properties=species:S:1:pos:R:3:velocities:R:3:Z:I:1
H        10.89292153       3.67747210      11.37223663         0.00000000       0.00000000       0.00000000          1
H         7.61570063       1.88559746      10.08475882         0.00000000       0.00000000       0.00000000          1
H         8.16738238       3.89523069      11.94521556         0.00000000       0.00000000       0.00000000          1
H        10.34124177       1.66783339       9.51177521         0.00000000       0.00000000       0.00000000          1
H         9.44321706       1.41804482      12.14530315         0.00000000       0.00000000       0.00000000          1
H         9.06539989       4.14502565       9.31169313         0.00000000       0.00000000       0.00000000          1
6
pbc=[F, F, F] list_num_par=6 frozen=false iter=20000 energy=-1.26974174 Lattice="15.00000000 0.00000000 0.00000000 0.00000000 15.00000000 0.00000000 0.00000000 0.00000000 15.00000000" energy_frozen_part=0.00000000 Properties=species:S:1:pos:R:3:velocities:R:3:Z:I:1
H        10.89350126       3.67701917      11.37088588         0.00000000       0.00000000       0.00000000          1
H         7.61562571       1.88591666      10.08401250         0.00000000       0.00000000       0.00000000          1
H         8.16818227       3.89501012      11.94480029         0.00000000       0.00000000       0.00000000          1
H        10.34095116       1.66792959       9.51009757         0.00000000       0.00000000       0.00000000          1
H         9.44374497       1.41758741      12.14384814         0.00000000       0.00000000       0.00000000          1
H         9.06537204       4.14534539       9.31104657         0.00000000       0.00000000       0.00000000          1
6
pbc=[F, F, F] list_num_par=6 frozen=false iter=20000 energy=-1.26974174 Lattice="15.00000000 0.00000000 0.00000000 0.00000000 15.00000000 0.00000000 0.00000000 0.00000000 15.00000000" energy_frozen_part=0.00000000 Properties=species:S:1:pos:R:3:velocities:R:3:Z:I:1
H        10.96801249       3.64985734      11.23562564         0.00000000       0.00000000       0.00000000          1
H         7.71766531       1.92651219       9.79550415         0.00000000       0.00000000       0.00000000          1
H         8.22093841       3.97997712      11.62150384         0.00000000       0.00000000       0.00000000          1
H        10.46473683       1.59639467       9.40962938         0.00000000       0.00000000       0.00000000          1
H         9.39082650       1.46936651      11.98544534         0.00000000       0.00000000       0.00000000          1
H         9.29484581       4.10700888       9.04568289         0.00000000       0.00000000       0.00000000          1
6
pbc=[F, F, F] list_num_par=6 frozen=false iter=20000 energy=-1.26974174 Lattice="15.00000000 0.00000000 0.00000000 0.00000000 15.00000000 0.00000000 0.00000000 0.00000000 15.00000000" energy_frozen_part=0.00000000 Properties=species:S:1:pos:R:3:velocities:R:3:Z:I:1
H        10.89285594       3.67757059      11.37218715         0.00000000       0.00000000       0.00000000          1
H         7.61565264       1.88558734      10.08484217         0.00000000       0.00000000       0.00000000          1
H         8.16732591       3.89529230      11.94521886         0.00000000       0.00000000       0.00000000          1
H        10.34117564       1.66786206       9.51181232         0.00000000       0.00000000       0.00000000          1
H         9.44322260       1.41813380      12.14536434         0.00000000       0.00000000       0.00000000          1
H         9.06528277       4.14501713       9.31166790         0.00000000       0.00000000       0.00000000          1
6
pbc=[F, F, F] list_num_par=6 frozen=false iter=20000 energy=-1.26974174 Lattice="15.00000000 0.00000000 0.00000000 0.00000000 15.00000000 0.00000000 0.00000000 0.00000000 15.00000000" energy_frozen_part=0.00000000 Properties=species:S:1:pos:R:3:velocities:R:3:Z:I:1
H        10.89308380       3.67771925      11.37136736         0.00000000       0.00000000       0.00000000          1
H         7.61572037       1.88566395      10.08451426         0.00000000       0.00000000       0.00000000          1
H         8.16765358       3.89520665      11.94499261         0.00000000       0.00000000       0.00000000          1
H        10.34113790       1.66817099       9.51089169         0.00000000       0.00000000       0.00000000          1
H         9.44375399       1.41811133      12.14460716         0.00000000       0.00000000       0.00000000          1
H         9.06504453       4.14526907       9.31128186         0.00000000       0.00000000       0.00000000          1
6
pbc=[F, F, F] list_num_par=6 frozen=false iter=20000 energy=-1.26974174 Lattice="15.00000000 0.00000000 0.00000000 0.00000000 15.00000000 0.00000000 0.00000000 0.00000000 15.00000000" energy_frozen_part=0.00000000 Properties=species:S:1:pos:R:3:velocities:R:3:Z:I:1
H        10.89285197       3.67754298      11.37219989         0.00000000       0.00000000       0.00000000          1
H         7.61564836       1.88557093      10.08482714         0.00000000       0.00000000       0.00000000          1
H         8.16732576       3.89527209      11.94521636         0.00000000       0.00000000       0.00000000          1
H        10.34118446       1.66784851       9.51180464         0.00000000       0.00000000       0.00000000          1
H         9.44321366       1.41810211      12.14534783         0.00000000       0.00000000       0.00000000          1
H         9.06529349       4.14500329       9.31167019         0.00000000       0.00000000       0.00000000          1
6
pbc=[F, F, F] list_num_par=6 frozen=false iter=20000 energy=-1.26974174 Lattice="15.00000000 0.00000000 0.00000000 0.00000000 15.00000000 0.00000000 0.00000000 0.00000000 15.00000000" energy_frozen_part=0.00000000 Properties=species:S:1:pos:R:3:velocities:R:3:Z:I:1
H        10.89347206       3.67702557      11.37086153         0.00000000       0.00000000       0.00000000          1
H         7.61562127       1.88590062      10.08394905         0.00000000       0.00000000       0.00000000          1
H         8.16814163       3.89500487      11.94474540         0.00000000       0.00000000       0.00000000          1
H        10.34095278       1.66792982       9.51007150         0.00000000       0.00000000       0.00000000          1
H         9.44371260       1.41759326      12.14381311         0.00000000       0.00000000       0.00000000          1
H         9.06537289       4.14534234       9.31100311         0.00000000       0.00000000       0.00000000          1
6
pbc=[F, F, F] list_num_par=6 frozen=false iter=20000 energy=-1.26974174 Lattice="15.00000000 0.00000000 0.00000000 0.00000000 15.00000000 0.00000000 0.00000000 0.00000000 15.00000000" energy_frozen_part=0.00000000 Properties=species:S:1:pos:R:3:velocities:R:3:Z:I:1
H        10.89287018       3.67755138      11.37220112         0.00000000       0.00000000       0.00000000          1
H         7.61565622       1.88557943      10.08483281         0.00000000       0.00000000       0.00000000          1
H         8.16733516       3.89527714      11.94521907         0.00000000       0.00000000       0.00000000          1
H        10.34118455       1.66784300       9.51181296         0.00000000       0.00000000       0.00000000          1
H         9.44321701       1.41811850      12.14536129         0.00000000       0.00000000       0.00000000          1
H         9.06530519       4.14501085       9.31167208         0.00000000       0.00000000       0.00000000          1
6
pbc=[F, F, F] list_num_par=6 frozen=false iter=20000 energy=-1.26974174 Lattice="15.00000000 0.00000000 0.00000000 0.00000000 15.00000000 0.00000000 0.00000000 0.00000000 15.00000000" energy_frozen_part=0.00000000 Properties=species:S:1:pos:R:3:velocities:R:3:Z:I:1
H        10.89348111       3.67703588      11.37085197         0.00000000       0.00000000       0.00000000          1
H         7.61560326       1.88592877      10.08398768         0.00000000       0.00000000       0.00000000          1
H         8.16815704       3.89501733      11.94477333         0.00000000       0.00000000       0.00000000          1
H        10.34092396       1.66793832       9.51006239         0.00000000       0.00000000       0.00000000          1
H         9.44373358       1.41760368      12.14381115         0.00000000       0.00000000       0.00000000          1
H         9.06535644       4.14535878       9.31102165         0.00000000       0.00000000       0.00000000          1
6
pbc=[F, F, F] list_num_par=6 frozen=false iter=20000 energy=-1.26974174 Lattice="15.00000000 0.00000000 0.00000000 0.00000000 15.00000000 0.00000000 0.00000000 0.00000000 15.00000000" energy_frozen_part=0.00000000 Properties=species:S:1:pos:R:3:velocities:R:3:Z:I:1
H        10.89290956       3.67747465      11.37222841         0.00000000       0.00000000       0.00000000          1
H         7.61566846       1.88560554      10.08478770         0.00000000       0.00000000       0.00000000          1
H         8.16737594       3.89525641      11.94521912         0.00000000       0.00000000       0.00000000          1
H        10.34120543       1.66782569       9.51179686         0.00000000       0.00000000       0.00000000          1
H         9.44319955       1.41805393      12.14533081         0.00000000       0.00000000       0.00000000          1
H         9.06537530       4.14501739       9.31168715         0.00000000       0.00000000       0.00000000          1
6
pbc=[F, F, F] list_num_par=6 frozen=false iter=20000 energy=-1.26974174 Lattice="15.00000000 0.00000000 0.00000000 0.00000000 15.00000000 0.00000000 0.00000000 0.00000000 15.00000000" energy_frozen_part=0.00000000 Properties=species:S:1:pos:R:3:velocities:R:3:Z:I:1
H        10.89282753       3.67757236      11.37218305         0.00000000       0.00000000       0.00000000          1
H         7.61561878       1.88559448      10.08484195         0.00000000       0.00000000       0.00000000          1
H         8.16729373       3.89529977      11.94522148         0.00000000       0.00000000       0.00000000          1
H        10.34115014       1.66787004       9.51180185         0.00000000       0.00000000       0.00000000          1
H         9.44319438       1.41814626      12.14536134         0.00000000       0.00000000       0.00000000          1
H         9.06525014       4.14502943       9.31166825         0.00000000       0.00000000       0.00000000          1
6
pbc=[F, F, F] list_num_par=6 frozen=false iter=20000 energy=-1.26974174 Lattice="15.00000000 0.00000000 0.00000000 0.00000000 15.00000000 0.00000000 0.00000000 0.00000000 15.00000000" energy_frozen_part=0.00000000 Properties=species:S:1:pos:R:3:velocities:R:3:Z:I:1
H        10.96798091       3.64989230      11.23565887         0.00000000       0.00000000       0.00000000          1
H         7.71770191       1.92645878       9.79550693         0.00000000       0.00000000       0.00000000          1
H         8.22089528       3.97997541      11.62147336         0.00000000       0.00000000       0.00000000          1
H        10.46478061       1.59637844       9.40968988         0.00000000       0.00000000       0.00000000          1
H         9.39082030       1.46939012      11.98550073         0.00000000       0.00000000       0.00000000          1
H         9.29486324       4.10696660       9.04567666         0.00000000       0.00000000       0.00000000          1
6
pbc=[F, F, F] list_num_par=6 frozen=false iter=20000 energy=-1.26974174 Lattice="15.00000000 0.00000000 0.00000000 0.00000000 15.00000000 0.00000000 0.00000000 0.00000000 15.00000000" energy_frozen_part=0.00000000 Properties=species:S:1:pos:R:3:velocities:R:3:Z:I:1
H        10.96791048       3.64998671      11.23576300         0.00000000       0.00000000       0.00000000          1
H         7.71779475       1.92646833       9.79535479         0.00000000       0.00000000       0.00000000          1
H         8.22079239       3.97993648      11.62141962         0.00000000       0.00000000       0.00000000          1
H        10.46491563       1.59651594       9.40969022         0.00000000       0.00000000       0.00000000          1
H         9.39079757       1.46938424      11.98542781         0.00000000       0.00000000       0.00000000          1
H         9.29490695       4.10706535       9.04569212         0.00000000       0.00000000       0.00000000          1
6
pbc=[F, F, F] list_num_par=6 frozen=false iter=20000 energy=-1.26974174 Lattice="15.00000000 0.00000000 0.00000000 0.00000000 15.00000000 0.00000000 0.00000000 0.00000000 15.00000000" energy_frozen_part=0.00000000 Properties=species:S:1:pos:R:3:velocities:R:3:Z:I:1
H        10.96791663       3.64998677      11.23577850         0.00000000       0.00000000       0.00000000          1
H         7.71781258       1.92642921       9.79536520         0.00000000       0.00000000       0.00000000          1
H         8.22078724       3.97991618      11.62142790         0.00000000       0.00000000       0.00000000          1
H        10.46493716       1.59649682       9.40971305         0.00000000       0.00000000       0.00000000          1
H         9.39081438       1.46937935      11.98544416         0.00000000       0.00000000       0.00000000          1
H         9.29490922       4.10704083       9.04569552         0.00000000       0.00000000       0.00000000          1
6
pbc=[F, F, F] list_num_par=6 frozen=false iter=20000 energy=-1.26974174 Lattice="15.00000000 0.00000000 0.00000000 0.00000000 15.00000000 0.00000000 0.00000000 0.00000000 15.00000000" energy_frozen_part=0.00000000 Properties=species:S:1:pos:R:3:velocities:R:3:Z:I:1
H        10.89284636       3.67753633      11.37218132         0.00000000       0.00000000       0.00000000          1
H         7.61563509       1.88555577      10.08482438         0.00000000       0.00000000       0.00000000          1
H         8.16731197       3.89525965      11.94520742         0.00000000       0.00000000       0.00000000          1
H        10.34116444       1.66783519       9.51179585         0.00000000       0.00000000       0.00000000          1
H         9.44320269       1.41809825      12.14534940         0.00000000       0.00000000       0.00000000          1
H         9.06527798       4.14499281       9.31165397         0.00000000       0.00000000       0.00000000          1
6
pbc=[F, F, F] list_num_par=6 frozen=false iter=20000 energy=-1.26974174 Lattice="15.00000000 0.00000000 0.00000000 0.00000000 15.00000000 0.00000000 0.00000000 0.00000000 15.00000000" energy_frozen_part=0.00000000 Properties=species:S:1:pos:R:3:velocities:R:3:Z:I:1
H        10.89310945       3.67770744      11.37134603         0.00000000       0.00000000       0.00000000          1
H         7.61574211       1.88565566      10.08451216         0.00000000       0.00000000       0.00000000          1
H         8.16769166       3.89521379      11.94497892         0.00000000       0.00000000       0.00000000          1
H        10.34116142       1.66814834       9.51088610         0.00000000       0.00000000       0.00000000          1
H         9.44377536       1.41810917      12.14459818         0.00000000       0.00000000       0.00000000          1
H         9.06507302       4.14525761       9.31125670         0.00000000       0.00000000       0.00000000          1
6
pbc=[F, F, F] list_num_par=6 frozen=false iter=20000 energy=-1.26974174 Lattice="15.00000000 0.00000000 0.00000000 0.00000000 15.00000000 0.00000000 0.00000000 0.00000000 15.00000000" energy_frozen_part=0.00000000 Properties=species:S:1:pos:R:3:velocities:R:3:Z:I:1
H        10.89285508       3.67753771      11.37219584         0.00000000       0.00000000       0.00000000          1
H         7.61564772       1.88557745      10.08483900         0.00000000       0.00000000       0.00000000          1
H         8.16732349       3.89527413      11.94521637         0.00000000       0.00000000       0.00000000          1
H        10.34117379       1.66783947       9.51181197         0.00000000       0.00000000       0.00000000          1
H         9.44321369       1.41810708      12.14536134         0.00000000       0.00000000       0.00000000          1
H         9.06529158       4.14500853       9.31166786         0.00000000       0.00000000       0.00000000          1
6
pbc=[F, F, F] list_num_par=6 frozen=false iter=20000 energy=-1.26974174 Lattice="15.00000000 0.00000000 0.00000000 0.00000000 15.00000000 0.00000000 0.00000000 0.00000000 15.00000000" energy_frozen_part=0.00000000 Properties=species:S:1:pos:R:3:velocities:R:3:Z:I:1
H        10.89284996       3.67753425      11.37216650         0.00000000       0.00000000       0.00000000          1
H         7.61563641       1.88555546      10.08481260         0.00000000       0.00000000       0.00000000          1
H         8.16731835       3.89526838      11.94518670         0.00000000       0.00000000       0.00000000          1
H        10.34116619       1.66782573       9.51178721         0.00000000       0.00000000       0.00000000          1
H         9.44320572       1.41811036      12.14533374         0.00000000       0.00000000       0.00000000          1
H         9.06528365       4.14498499       9.31164150         0.00000000       0.00000000       0.00000000          1
6
pbc=[F, F, F] list_num_par=6 frozen=false iter=20000 energy=-1.26974174 Lattice="15.00000000 0.00000000 0.00000000 0.00000000 15.00000000 0.00000000 0.00000000 0.00000000 15.00000000" energy_frozen_part=0.00000000 Properties=species:S:1:pos:R:3:velocities:R:3:Z:I:1
H        10.89389826       3.67558928      11.37362930         0.00000000       0.00000000       0.00000000          1
H         7.61512301       1.88827432      10.08379639         0.00000000       0.00000000       0.00000000          1
H         8.16852105       3.89524433      11.94661749         0.00000000       0.00000000       0.00000000          1
H        10.34050403       1.66860951       9.51081054         0.00000000       0.00000000       0.00000000          1
H         9.44201624       1.41662926      12.14396863         0.00000000       0.00000000       0.00000000          1
H         9.06700466       4.14722833       9.31345581         0.00000000       0.00000000       0.00000000          1
6
pbc=[F, F, F] list_num_par=6 frozen=false iter=20000 energy=-1.26974174 Lattice="15.00000000 0.00000000 0.00000000 0.00000000 15.00000000 0.00000000 0.00000000 0.00000000 15.00000000" energy_frozen_part=0.00000000 Properties=species:S:1:pos:R:3:velocities:R:3:Z:I:1
H        10.89390829       3.67559573      11.37364627         0.00000000       0.00000000       0.00000000          1
H         7.61513538       1.88828246      10.08380193         0.00000000       0.00000000       0.00000000          1
H         8.16852055       3.89523585      11.94663594         0.00000000       0.00000000       0.00000000          1
H        10.34051757       1.66863942       9.51079998         0.00000000       0.00000000       0.00000000          1
H         9.44203696       1.41662303      12.14395672         0.00000000       0.00000000       0.00000000          1
H         9.06701088       4.14724949       9.31348641         0.00000000       0.00000000       0.00000000          1
6
pbc=[F, F, F] list_num_par=6 frozen=false iter=20000 energy=-1.26974174 Lattice="15.00000000 0.00000000 0.00000000 0.00000000 15.00000000 0.00000000 0.00000000 0.00000000 15.00000000" energy_frozen_part=0.00000000 Properties=species:S:1:pos:R:3:velocities:R:3:Z:I:1
H        10.96795509       3.64991446      11.23565712         0.00000000       0.00000000       0.00000000          1
H         7.71770671       1.92644771       9.79549638         0.00000000       0.00000000       0.00000000          1
H         8.22086293       3.97996479      11.62146760         0.00000000       0.00000000       0.00000000          1
H        10.46479100       1.59639512       9.40968529         0.00000000       0.00000000       0.00000000          1
H         9.39081907       1.46939380      11.98548482         0.00000000       0.00000000       0.00000000          1
H         9.29484368       4.10697122       9.04566455         0.00000000       0.00000000       0.00000000          1
6
pbc=[F, F, F] list_num_par=6 frozen=false iter=20000 energy=-1.26974174 Lattice="15.00000000 0.00000000 0.00000000 0.00000000 15.00000000 0.00000000 0.00000000 0.00000000 15.00000000" energy_frozen_part=0.00000000 Properties=species:S:1:pos:R:3:velocities:R:3:Z:I:1
H        10.89285314       3.67753909      11.37219410         0.00000000       0.00000000       0.00000000          1
H         7.61565028       1.88555831      10.08481787         0.00000000       0.00000000       0.00000000          1
H         8.16731563       3.89526424      11.94520145         0.00000000       0.00000000       0.00000000          1
H        10.34118836       1.66782989       9.51180316         0.00000000       0.00000000       0.00000000          1
H         9.44321533       1.41810573      12.14534375         0.00000000       0.00000000       0.00000000          1
H         9.06529633       4.14498887       9.31165526         0.00000000       0.00000000       0.00000000          1
6
pbc=[F, F, F] list_num_par=6 frozen=false iter=20000 energy=-1.26974174 Lattice="15.00000000 0.00000000 0.00000000 0.00000000 15.00000000 0.00000000 0.00000000 0.00000000 15.00000000" energy_frozen_part=0.00000000 Properties=species:S:1:pos:R:3:velocities:R:3:Z:I:1
H        10.89287932       3.67755149      11.37217636         0.00000000       0.00000000       0.00000000          1
H         7.61566355       1.88558556      10.08482575         0.00000000       0.00000000       0.00000000          1
H         8.16734798       3.89529395      11.94520456         0.00000000       0.00000000       0.00000000          1
H        10.34119503       1.66785545       9.51179108         0.00000000       0.00000000       0.00000000          1
H         9.44322791       1.41812473      12.14534490         0.00000000       0.00000000       0.00000000          1
H         9.06530364       4.14502230       9.31165611         0.00000000       0.00000000       0.00000000          1
6
pbc=[F, F, F] list_num_par=6 frozen=false iter=20000 energy=-1.26974174 Lattice="15.00000000 0.00000000 0.00000000 0.00000000 15.00000000 0.00000000 0.00000000 0.00000000 15.00000000" energy_frozen_part=0.00000000 Properties=species:S:1:pos:R:3:velocities:R:3:Z:I:1
H        10.89286270       3.67753455      11.37217750         0.00000000       0.00000000       0.00000000          1
H         7.61565712       1.88556323      10.08481569         0.00000000       0.00000000       0.00000000          1
H         8.16732965       3.89526275      11.94519817         0.00000000       0.00000000       0.00000000          1
H        10.34118353       1.66782807       9.51179517         0.00000000       0.00000000       0.00000000          1
H         9.44322237       1.41809416      12.14534028         0.00000000       0.00000000       0.00000000          1
H         9.06529884       4.14499586       9.31165064         0.00000000       0.00000000       0.00000000          1
6
pbc=[F, F, F] list_num_par=6 frozen=false iter=20000 energy=-1.26974174 Lattice="15.00000000 0.00000000 0.00000000 0.00000000 15.00000000 0.00000000 0.00000000 0.00000000 15.00000000" energy_frozen_part=0.00000000 Properties=species:S:1:pos:R:3:velocities:R:3:Z:I:1
H        10.89286773       3.67755470      11.37217695         0.00000000       0.00000000       0.00000000          1
H         7.61563791       1.88559195      10.08482423         0.00000000       0.00000000       0.00000000          1
H         8.16733784       3.89530532      11.94520008         0.00000000       0.00000000       0.00000000          1
H        10.34116902       1.66784617       9.51179743         0.00000000       0.00000000       0.00000000          1
H         9.44320744       1.41813669      12.14535023         0.00000000       0.00000000       0.00000000          1
H         9.06529881       4.14501714       9.31164724         0.00000000       0.00000000       0.00000000          1
6
pbc=[F, F, F] list_num_par=6 frozen=false iter=20000 energy=-1.26974174 Lattice="15.00000000 0.00000000 0.00000000 0.00000000 15.00000000 0.00000000 0.00000000 0.00000000 15.00000000" energy_frozen_part=0.00000000 Properties=species:S:1:pos:R:3:velocities:R:3:Z:I:1
H        10.89284174       3.67756930      11.37216630         0.00000000       0.00000000       0.00000000          1
H         7.61566007       1.88554954      10.08480771         0.00000000       0.00000000       0.00000000          1
H         8.16730430       3.89527461      11.94517641         0.00000000       0.00000000       0.00000000          1
H        10.34119270       1.66784932       9.51179661         0.00000000       0.00000000       0.00000000          1
H         9.44322505       1.41812098      12.14534496         0.00000000       0.00000000       0.00000000          1
H         9.06528095       4.14499707       9.31163367         0.00000000       0.00000000       0.00000000          1
6
pbc=[F, F, F] list_num_par=6 frozen=false iter=20000 energy=-1.26974174 Lattice="15.00000000 0.00000000 0.00000000 0.00000000 15.00000000 0.00000000 0.00000000 0.00000000 15.00000000" energy_frozen_part=0.00000000 Properties=species:S:1:pos:R:3:velocities:R:3:Z:I:1
H         6.41935341       3.54832680       3.47996277         0.00000000       0.00000000       0.00000000          1
H         4.24862091       3.84853656       5.21262178         0.00000000       0.00000000       0.00000000          1
H         5.48234948       1.35721002       4.93781443         0.00000000       0.00000000       0.00000000          1
H         5.08929731       1.46741379       2.17418827         0.00000000       0.00000000       0.00000000          1
H         2.91857255       1.76761873       3.90684450         0.00000000       0.00000000       0.00000000          1
H         3.85557928       3.95873684       2.44899454         0.00000000       0.00000000       0.00000000          1
6
pbc=[F, F, F] list_num_par=6 frozen=false iter=20000 energy=-1.26974174 Lattice="15.00000000 0.00000000 0.00000000 0.00000000 15.00000000 0.00000000 0.00000000 0.00000000 15.00000000" energy_frozen_part=0.00000000 Properties=species:S:1:pos:R:3:velocities:R:3:Z:I:1
H        10.89347883       3.67704255      11.37084722         0.00000000       0.00000000       0.00000000          1
H         7.61560331       1.88591299      10.08399256         0.00000000       0.00000000       0.00000000          1
H         8.16815697       3.89501879      11.94477078         0.00000000       0.00000000       0.00000000          1
H        10.34092828       1.66794717       9.51005994         0.00000000       0.00000000       0.00000000          1
H         9.44373593       1.41760970      12.14382081         0.00000000       0.00000000       0.00000000          1
H         9.06534410       4.14535007       9.31101774         0.00000000       0.00000000       0.00000000          1
6
pbc=[F, F, F] list_num_par=6 frozen=false iter=20000 energy=-1.26974174 Lattice="15.00000000 0.00000000 0.00000000 0.00000000 15.00000000 0.00000000 0.00000000 0.00000000 15.00000000" energy_frozen_part=0.00000000 Properties=species:S:1:pos:R:3:velocities:R:3:Z:I:1
H         6.41930152       3.54837695       3.47998513         0.00000000       0.00000000       0.00000000          1
H         4.24856620       3.84854891       5.21264620         0.00000000       0.00000000       0.00000000          1
H         5.48227628       1.35723174       4.93778540         0.00000000       0.00000000       0.00000000          1
H         5.08924115       1.46749965       2.17416056         0.00000000       0.00000000       0.00000000          1
H         2.91850454       1.76768036       3.90681515         0.00000000       0.00000000       0.00000000          1
H         3.85552788       3.95882591       2.44901968         0.00000000       0.00000000       0.00000000          1
6
pbc=[F, F, F] list_num_par=6 frozen=false iter=20000 energy=-1.26974174 Lattice="15.00000000 0.00000000 0.00000000 0.00000000 15.00000000 0.00000000 0.00000000 0.00000000 15.00000000" energy_frozen_part=0.00000000 Properties=species:S:1:pos:R:3:velocities:R:3:Z:I:1
H        10.89347333       3.67702732      11.37086093         0.00000000       0.00000000       0.00000000          1
H         7.61562144       1.88589961      10.08396411         0.00000000       0.00000000       0.00000000          1
H         8.16815092       3.89499612      11.94474813         0.00000000       0.00000000       0.00000000          1
H        10.34095206       1.66793014       9.51007552         0.00000000       0.00000000       0.00000000          1
H         9.44372996       1.41758629      12.14381533         0.00000000       0.00000000       0.00000000          1
H         9.06537418       4.14533775       9.31100856         0.00000000       0.00000000       0.00000000          1
6
pbc=[F, F, F] list_num_par=6 frozen=false iter=20000 energy=-1.26974174 Lattice="15.00000000 0.00000000 0.00000000 0.00000000 15.00000000 0.00000000 0.00000000 0.00000000 15.00000000" energy_frozen_part=0.00000000 Properties=species:S:1:pos:R:3:velocities:R:3:Z:I:1
H        10.89388865       3.67558465      11.37364561         0.00000000       0.00000000       0.00000000          1
H         7.61512471       1.88827090      10.08375533         0.00000000       0.00000000       0.00000000          1
H         8.16849666       3.89521708      11.94661082         0.00000000       0.00000000       0.00000000          1
H        10.34051854       1.66863223       9.51079293         0.00000000       0.00000000       0.00000000          1
H         9.44199835       1.41660423      12.14393321         0.00000000       0.00000000       0.00000000          1
H         9.06700584       4.14724520       9.31347365         0.00000000       0.00000000       0.00000000          1
6
pbc=[F, F, F] list_num_par=6 frozen=false iter=20000 energy=-1.26974174 Lattice="15.00000000 0.00000000 0.00000000 0.00000000 15.00000000 0.00000000 0.00000000 0.00000000 15.00000000" energy_frozen_part=0.00000000 Properties=species:S:1:pos:R:3:velocities:R:3:Z:I:1
H        10.96791616       3.64998402      11.23576859         0.00000000       0.00000000       0.00000000          1
H         7.71781443       1.92642404       9.79537048         0.00000000       0.00000000       0.00000000          1
H         8.22079007       3.97991014      11.62143289         0.00000000       0.00000000       0.00000000          1
H        10.46494319       1.59649413       9.40971262         0.00000000       0.00000000       0.00000000          1
H         9.39083023       1.46938100      11.98544979         0.00000000       0.00000000       0.00000000          1
H         9.29490442       4.10703498       9.04569844         0.00000000       0.00000000       0.00000000          1
6
pbc=[F, F, F] list_num_par=6 frozen=false iter=20000 energy=-1.26974174 Lattice="15.00000000 0.00000000 0.00000000 0.00000000 15.00000000 0.00000000 0.00000000 0.00000000 15.00000000" energy_frozen_part=0.00000000 Properties=species:S:1:pos:R:3:velocities:R:3:Z:I:1
H        10.89288923       3.67748393      11.37217910         0.00000000       0.00000000       0.00000000          1
H         7.61564791       1.88562467      10.08474173         0.00000000       0.00000000       0.00000000          1
H         8.16736109       3.89524042      11.94520652         0.00000000       0.00000000       0.00000000          1
H        10.34117257       1.66785655       9.51172296         0.00000000       0.00000000       0.00000000          1
H         9.44320557       1.41804946      12.14526090         0.00000000       0.00000000       0.00000000          1
H         9.06533555       4.14505583       9.31166494         0.00000000       0.00000000       0.00000000          1
6
pbc=[F, F, F] list_num_par=6 frozen=false iter=20000 energy=-1.26974174 Lattice="15.00000000 0.00000000 0.00000000 0.00000000 15.00000000 0.00000000 0.00000000 0.00000000 15.00000000" energy_frozen_part=0.00000000 Properties=species:S:1:pos:R:3:velocities:R:3:Z:I:1
H        10.89284896       3.67753354      11.37216817         0.00000000       0.00000000       0.00000000          1
H         7.61563083       1.88555896      10.08482832         0.00000000       0.00000000       0.00000000          1
H         8.16731944       3.89527226      11.94520321         0.00000000       0.00000000       0.00000000          1
H        10.34116540       1.66782368       9.51178985         0.00000000       0.00000000       0.00000000          1
H         9.44320673       1.41811175      12.14534496         0.00000000       0.00000000       0.00000000          1
H         9.06527987       4.14498626       9.31164853         0.00000000       0.00000000       0.00000000          1
6
pbc=[F, F, F] list_num_par=6 frozen=false iter=20000 energy=-1.26974174 Lattice="15.00000000 0.00000000 0.00000000 0.00000000 15.00000000 0.00000000 0.00000000 0.00000000 15.00000000" energy_frozen_part=0.00000000 Properties=species:S:1:pos:R:3:velocities:R:3:Z:I:1
H        10.89292513       3.67746680      11.37224457         0.00000000       0.00000000       0.00000000          1
H         7.61570316       1.88561135      10.08474747         0.00000000       0.00000000       0.00000000          1
H         8.16738241       3.89522548      11.94521864         0.00000000       0.00000000       0.00000000          1
H        10.34124564       1.66784575       9.51176746         0.00000000       0.00000000       0.00000000          1
H         9.44322656       1.41803492      12.14529163         0.00000000       0.00000000       0.00000000          1
H         9.06541461       4.14504125       9.31170052         0.00000000       0.00000000       0.00000000          1
6
pbc=[F, F, F] list_num_par=6 frozen=false iter=20000 energy=-1.26974174 Lattice="15.00000000 0.00000000 0.00000000 0.00000000 15.00000000 0.00000000 0.00000000 0.00000000 15.00000000" energy_frozen_part=0.00000000 Properties=species:S:1:pos:R:3:velocities:R:3:Z:I:1
H        10.89292700       3.67746572      11.37225211         0.00000000       0.00000000       0.00000000          1
H         7.61569136       1.88561457      10.08477075         0.00000000       0.00000000       0.00000000          1
H         8.16738379       3.89523537      11.94523925         0.00000000       0.00000000       0.00000000          1
H        10.34122644       1.66785223       9.51177302         0.00000000       0.00000000       0.00000000          1
H         9.44321729       1.41803635      12.14530383         0.00000000       0.00000000       0.00000000          1
H         9.06540096       4.14504965       9.31171880         0.00000000       0.00000000       0.00000000          1
6
pbc=[F, F, F] list_num_par=6 frozen=false iter=20000 energy=-1.26974174 Lattice="15.00000000 0.00000000 0.00000000 0.00000000 15.00000000 0.00000000 0.00000000 0.00000000 15.00000000" energy_frozen_part=0.00000000 Properties=species:S:1:pos:R:3:velocities:R:3:Z:I:1
H        10.89286210       3.67754634      11.37219560         0.00000000       0.00000000       0.00000000          1
H         7.61565709       1.88556957      10.08483528         0.00000000       0.00000000       0.00000000          1
H         8.16733105       3.89528031      11.94522387         0.00000000       0.00000000       0.00000000          1
H        10.34118962       1.66784903       9.51180911         0.00000000       0.00000000       0.00000000          1
H         9.44321779       1.41811792      12.14536219         0.00000000       0.00000000       0.00000000          1
H         9.06529287       4.14500888       9.31167286         0.00000000       0.00000000       0.00000000          1
6
pbc=[F, F, F] list_num_par=6 frozen=false iter=20000 energy=-1.26974174 Lattice="15.00000000 0.00000000 0.00000000 0.00000000 15.00000000 0.00000000 0.00000000 0.00000000 15.00000000" energy_frozen_part=0.00000000 Properties=species:S:1:pos:R:3:velocities:R:3:Z:I:1
H        10.89284820       3.67755432      11.37216604         0.00000000       0.00000000       0.00000000          1
H         7.61565162       1.88555405      10.08480648         0.00000000       0.00000000       0.00000000          1
H         8.16731078       3.89527015      11.94518645         0.00000000       0.00000000       0.00000000          1
H        10.34118796       1.66784766       9.51178556         0.00000000       0.00000000       0.00000000          1
H         9.44321477       1.41811279      12.14533117         0.00000000       0.00000000       0.00000000          1
H         9.06527517       4.14499359       9.31163419         0.00000000       0.00000000       0.00000000          1
6
pbc=[F, F, F] list_num_par=6 frozen=false iter=20000 energy=-1.26974174 Lattice="15.00000000 0.00000000 0.00000000 0.00000000 15.00000000 0.00000000 0.00000000 0.00000000 15.00000000" energy_frozen_part=0.00000000 Properties=species:S:1:pos:R:3:velocities:R:3:Z:I:1
H        10.89285774       3.67757579      11.37220123         0.00000000       0.00000000       0.00000000          1
H         7.61567015       1.88556981      10.08483323         0.00000000       0.00000000       0.00000000          1
H         8.16732240       3.89527907      11.94522723         0.00000000       0.00000000       0.00000000          1
H        10.34119993       1.66787709       9.51181212         0.00000000       0.00000000       0.00000000          1
H         9.44323265       1.41812650      12.14535828         0.00000000       0.00000000       0.00000000          1
H         9.06528569       4.14502439       9.31167609         0.00000000       0.00000000       0.00000000          1
6
pbc=[F, F, F] list_num_par=6 frozen=false iter=20000 energy=-1.26974174 Lattice="15.00000000 0.00000000 0.00000000 0.00000000 15.00000000 0.00000000 0.00000000 0.00000000 15.00000000" energy_frozen_part=0.00000000 Properties=species:S:1:pos:R:3:velocities:R:3:Z:I:1
H        10.89288465       3.67746400      11.37219206         0.00000000       0.00000000       0.00000000          1
H         7.61564226       1.88562106      10.08472047         0.00000000       0.00000000       0.00000000          1
H         8.16735272       3.89521860      11.94521261         0.00000000       0.00000000       0.00000000          1
H        10.34117241       1.66785941       9.51171268         0.00000000       0.00000000       0.00000000          1
H         9.44318828       1.41802374      12.14524423         0.00000000       0.00000000       0.00000000          1
H         9.06533322       4.14506081       9.31168249         0.00000000       0.00000000       0.00000000          1
6
pbc=[F, F, F] list_num_par=6 frozen=false iter=20000 energy=-1.26974174 Lattice="15.00000000 0.00000000 0.00000000 0.00000000 15.00000000 0.00000000 0.00000000 0.00000000 15.00000000" energy_frozen_part=0.00000000 Properties=species:S:1:pos:R:3:velocities:R:3:Z:I:1
H         6.41934628       3.54833495       3.47996413         0.00000000       0.00000000       0.00000000          1
H         4.24862445       3.84852589       5.21263018         0.00000000       0.00000000       0.00000000          1
H         5.48235989       1.35721119       4.93781028         0.00000000       0.00000000       0.00000000          1
H         5.08929947       1.46742499       2.17418053         0.00000000       0.00000000       0.00000000          1
H         2.91858448       1.76762036       3.90684777         0.00000000       0.00000000       0.00000000          1
H         3.85557134       3.95873994       2.44899843         0.00000000       0.00000000       0.00000000          1
6
pbc=[F, F, F] list_num_par=6 frozen=false iter=20000 energy=-1.26974174 Lattice="15.00000000 0.00000000 0.00000000 0.00000000 15.00000000 0.00000000 0.00000000 0.00000000 15.00000000" energy_frozen_part=0.00000000 Properties=species:S:1:pos:R:3:velocities:R:3:Z:I:1
H         6.41929893       3.54834729       3.47997285         0.00000000       0.00000000       0.00000000          1
H         4.24858503       3.84852918       5.21264644         0.00000000       0.00000000       0.00000000          1
H         5.48230627       1.35720595       4.93778618         0.00000000       0.00000000       0.00000000          1
H         5.08924076       1.46746440       2.17415782         0.00000000       0.00000000       0.00000000          1
H         2.91852817       1.76765209       3.90683129         0.00000000       0.00000000       0.00000000          1
H         3.85552126       3.95879178       2.44901770         0.00000000       0.00000000       0.00000000          1
6
pbc=[F, F, F] list_num_par=6 frozen=false iter=20000 energy=-1.26974174 Lattice="15.00000000 0.00000000 0.00000000 0.00000000 15.00000000 0.00000000 0.00000000 0.00000000 15.00000000" energy_frozen_part=0.00000000 Properties=species:S:1:pos:R:3:velocities:R:3:Z:I:1
H        10.96795718       3.64991877      11.23568914         0.00000000       0.00000000       0.00000000          1
H         7.71769141       1.92649348       9.79548989         0.00000000       0.00000000       0.00000000          1
H         8.22086835       3.97995257      11.62152063         0.00000000       0.00000000       0.00000000          1
H        10.46477953       1.59644596       9.40965956         0.00000000       0.00000000       0.00000000          1
H         9.39082677       1.46937029      11.98545459         0.00000000       0.00000000       0.00000000          1
H         9.29483043       4.10703260       9.04572255         0.00000000       0.00000000       0.00000000          1
6
pbc=[F, F, F] list_num_par=6 frozen=false iter=20000 energy=-1.26974174 Lattice="15.00000000 0.00000000 0.00000000 0.00000000 15.00000000 0.00000000 0.00000000 0.00000000 15.00000000" energy_frozen_part=0.00000000 Properties=species:S:1:pos:R:3:velocities:R:3:Z:I:1
H        10.89347133       3.67703637      11.37084826         0.00000000       0.00000000       0.00000000          1
H         7.61560729       1.88591942      10.08399009         0.00000000       0.00000000       0.00000000          1
H         8.16815654       3.89501184      11.94477383         0.00000000       0.00000000       0.00000000          1
H        10.34092493       1.66794299       9.51006512         0.00000000       0.00000000       0.00000000          1
H         9.44373694       1.41760273      12.14381779         0.00000000       0.00000000       0.00000000          1
H         9.06534414       4.14535548       9.31101499         0.00000000       0.00000000       0.00000000          1
6
pbc=[F, F, F] list_num_par=6 frozen=false iter=20000 energy=-1.26974174 Lattice="15.00000000 0.00000000 0.00000000 0.00000000 15.00000000 0.00000000 0.00000000 0.00000000 15.00000000" energy_frozen_part=0.00000000 Properties=species:S:1:pos:R:3:velocities:R:3:Z:I:1
H        10.89285197       3.67758044      11.37216638         0.00000000       0.00000000       0.00000000          1
H         7.61564320       1.88558044      10.08484496         0.00000000       0.00000000       0.00000000          1
H         8.16732747       3.89528517      11.94522107         0.00000000       0.00000000       0.00000000          1
H        10.34117506       1.66786495       9.51179188         0.00000000       0.00000000       0.00000000          1
H         9.44323884       1.41813651      12.14535240         0.00000000       0.00000000       0.00000000          1
H         9.06526663       4.14502091       9.31166387         0.00000000       0.00000000       0.00000000          1
6
pbc=[F, F, F] list_num_par=6 frozen=false iter=20000 energy=-1.26974174 Lattice="15.00000000 0.00000000 0.00000000 0.00000000 15.00000000 0.00000000 0.00000000 0.00000000 15.00000000" energy_frozen_part=0.00000000 Properties=species:S:1:pos:R:3:velocities:R:3:Z:I:1
H        10.89348062       3.67703693      11.37084527         0.00000000       0.00000000       0.00000000          1
H         7.61562244       1.88590637      10.08396539         0.00000000       0.00000000       0.00000000          1
H         8.16814880       3.89501121      11.94474534         0.00000000       0.00000000       0.00000000          1
H        10.34095268       1.66792217       9.51007084         0.00000000       0.00000000       0.00000000          1
H         9.44373339       1.41760351      12.14381415         0.00000000       0.00000000       0.00000000          1
H         9.06536868       4.14533124       9.31099261         0.00000000       0.00000000       0.00000000          1
6
pbc=[F, F, F] list_num_par=6 frozen=false iter=20000 energy=-1.26974174 Lattice="15.00000000 0.00000000 0.00000000 0.00000000 15.00000000 0.00000000 0.00000000 0.00000000 15.00000000" energy_frozen_part=0.00000000 Properties=species:S:1:pos:R:3:velocities:R:3:Z:I:1
H        10.89390460       3.67558745      11.37364806         0.00000000       0.00000000       0.00000000          1
H         7.61512469       1.88828629      10.08379240         0.00000000       0.00000000       0.00000000          1
H         8.16851791       3.89524625      11.94663203         0.00000000       0.00000000       0.00000000          1
H        10.34050777       1.66864147       9.51080609         0.00000000       0.00000000       0.00000000          1
H         9.44201589       1.41662935      12.14395994         0.00000000       0.00000000       0.00000000          1
H         9.06700872       4.14725768       9.31348800         0.00000000       0.00000000       0.00000000          1
6
pbc=[F, F, F] list_num_par=6 frozen=false iter=20000 energy=-1.26974174 Lattice="15.00000000 0.00000000 0.00000000 0.00000000 15.00000000 0.00000000 0.00000000 0.00000000 15.00000000" energy_frozen_part=0.00000000 Properties=species:S:1:pos:R:3:velocities:R:3:Z:I:1
H        10.89291169       3.67748703      11.37221979         0.00000000       0.00000000       0.00000000          1
H         7.61569188       1.88559235      10.08477309         0.00000000       0.00000000       0.00000000          1
H         8.16737880       3.89524495      11.94521528         0.00000000       0.00000000       0.00000000          1
H        10.34122233       1.66784015       9.51178183         0.00000000       0.00000000       0.00000000          1
H         9.44321848       1.41805741      12.14531760         0.00000000       0.00000000       0.00000000          1
H         9.06537526       4.14502690       9.31168571         0.00000000       0.00000000       0.00000000          1
6
pbc=[F, F, F] list_num_par=6 frozen=false iter=20000 energy=-1.26974174 Lattice="15.00000000 0.00000000 0.00000000 0.00000000 15.00000000 0.00000000 0.00000000 0.00000000 15.00000000" energy_frozen_part=0.00000000 Properties=species:S:1:pos:R:3:velocities:R:3:Z:I:1
H         6.41933513       3.54832606       3.47993161         0.00000000       0.00000000       0.00000000          1
H         4.24864165       3.84854823       5.21262836         0.00000000       0.00000000       0.00000000          1
H         5.48234060       1.35721059       4.93777588         0.00000000       0.00000000       0.00000000          1
H         5.08923895       1.46743874       2.17415228         0.00000000       0.00000000       0.00000000          1
H         2.91855180       1.76765991       3.90685679         0.00000000       0.00000000       0.00000000          1
H         3.85555144       3.95877947       2.44900320         0.00000000       0.00000000       0.00000000          1
6
pbc=[F, F, F] list_num_par=6 frozen=false iter=20000 energy=-1.26974174 Lattice="15.00000000 0.00000000 0.00000000 0.00000000 15.00000000 0.00000000 0.00000000 0.00000000 15.00000000" energy_frozen_part=0.00000000 Properties=species:S:1:pos:R:3:velocities:R:3:Z:I:1
H        10.96797304       3.64991135      11.23569794         0.00000000       0.00000000       0.00000000          1
H         7.71769723       1.92649927       9.79550126         0.00000000       0.00000000       0.00000000          1
H         8.22088294       3.97996529      11.62153075         0.00000000       0.00000000       0.00000000          1
H        10.46478732       1.59644624       9.40966817         0.00000000       0.00000000       0.00000000          1
H         9.39082564       1.46937615      11.98547215         0.00000000       0.00000000       0.00000000          1
H         9.29484928       4.10703750       9.04572722         0.00000000       0.00000000       0.00000000          1
6
pbc=[F, F, F] list_num_par=6 frozen=false iter=20000 energy=-1.26974174 Lattice="15.00000000 0.00000000 0.00000000 0.00000000 15.00000000 0.00000000 0.00000000 0.00000000 15.00000000" energy_frozen_part=0.00000000 Properties=species:S:1:pos:R:3:velocities:R:3:Z:I:1
H        10.89285265       3.67753771      11.37219595         0.00000000       0.00000000       0.00000000          1
H         7.61563416       1.88558047      10.08484181         0.00000000       0.00000000       0.00000000          1
H         8.16732613       3.89528281      11.94522126         0.00000000       0.00000000       0.00000000          1
H        10.34116484       1.66783081       9.51181240         0.00000000       0.00000000       0.00000000          1
H         9.44319900       1.41810918      12.14536590         0.00000000       0.00000000       0.00000000          1
H         9.06528410       4.14500228       9.31167480         0.00000000       0.00000000       0.00000000          1
6
pbc=[F, F, F] list_num_par=6 frozen=false iter=20000 energy=-1.26974174 Lattice="15.00000000 0.00000000 0.00000000 0.00000000 15.00000000 0.00000000 0.00000000 0.00000000 15.00000000" energy_frozen_part=0.00000000 Properties=species:S:1:pos:R:3:velocities:R:3:Z:I:1
H        10.96791098       3.64998535      11.23575897         0.00000000       0.00000000       0.00000000          1
H         7.71778895       1.92645406       9.79535156         0.00000000       0.00000000       0.00000000          1
H         8.22078527       3.97993252      11.62141322         0.00000000       0.00000000       0.00000000          1
H        10.46491231       1.59650599       9.40969665         0.00000000       0.00000000       0.00000000          1
H         9.39079334       1.46939025      11.98542442         0.00000000       0.00000000       0.00000000          1
H         9.29489844       4.10705622       9.04568624         0.00000000       0.00000000       0.00000000          1
6
pbc=[F, F, F] list_num_par=6 frozen=false iter=20000 energy=-1.26974174 Lattice="15.00000000 0.00000000 0.00000000 0.00000000 15.00000000 0.00000000 0.00000000 0.00000000 15.00000000" energy_frozen_part=0.00000000 Properties=species:S:1:pos:R:3:velocities:R:3:Z:I:1
H         6.41934066       3.54832401       3.47997052         0.00000000       0.00000000       0.00000000          1
H         4.24862333       3.84851179       5.21264510         0.00000000       0.00000000       0.00000000          1
H         5.48235193       1.35718869       4.93780309         0.00000000       0.00000000       0.00000000          1
H         5.08928899       1.46742269       2.17417803         0.00000000       0.00000000       0.00000000          1
H         2.91856873       1.76761757       3.90685106         0.00000000       0.00000000       0.00000000          1
H         3.85556381       3.95873771       2.44901241         0.00000000       0.00000000       0.00000000          1
6
pbc=[F, F, F] list_num_par=6 frozen=false iter=20000 energy=-1.26974174 Lattice="15.00000000 0.00000000 0.00000000 0.00000000 15.00000000 0.00000000 0.00000000 0.00000000 15.00000000" energy_frozen_part=0.00000000 Properties=species:S:1:pos:R:3:velocities:R:3:Z:I:1
H        10.89285973       3.67753714      11.37218913         0.00000000       0.00000000       0.00000000          1
H         7.61565379       1.88556324      10.08483133         0.00000000       0.00000000       0.00000000          1
H         8.16733441       3.89526595      11.94521212         0.00000000       0.00000000       0.00000000          1
H        10.34118494       1.66783253       9.51180893         0.00000000       0.00000000       0.00000000          1
H         9.44321870       1.41810413      12.14535811         0.00000000       0.00000000       0.00000000          1
H         9.06528860       4.14499969       9.31166450         0.00000000       0.00000000       0.00000000          1
6
pbc=[F, F, F] list_num_par=6 frozen=false iter=20000 energy=-1.26974174 Lattice="15.00000000 0.00000000 0.00000000 0.00000000 15.00000000 0.00000000 0.00000000 0.00000000 15.00000000" energy_frozen_part=0.00000000 Properties=species:S:1:pos:R:3:velocities:R:3:Z:I:1
H        10.89285984       3.67754021      11.37217791         0.00000000       0.00000000       0.00000000          1
H         7.61565126       1.88555846      10.08481602         0.00000000       0.00000000       0.00000000          1
H         8.16733005       3.89526191      11.94519425         0.00000000       0.00000000       0.00000000          1
H        10.34118733       1.66782993       9.51179169         0.00000000       0.00000000       0.00000000          1
H         9.44322107       1.41809859      12.14533769         0.00000000       0.00000000       0.00000000          1
H         9.06529634       4.14499357       9.31164479         0.00000000       0.00000000       0.00000000          1
6
pbc=[F, F, F] list_num_par=6 frozen=false iter=20000 energy=-1.26974174 Lattice="15.00000000 0.00000000 0.00000000 0.00000000 15.00000000 0.00000000 0.00000000 0.00000000 15.00000000" energy_frozen_part=0.00000000 Properties=species:S:1:pos:R:3:velocities:R:3:Z:I:1
H        10.96792748       3.64996824      11.23576388         0.00000000       0.00000000       0.00000000          1
H         7.71781093       1.92644656       9.79534861         0.00000000       0.00000000       0.00000000          1
H         8.22080896       3.97992274      11.62141488         0.00000000       0.00000000       0.00000000          1
H        10.46493502       1.59649476       9.40969336         0.00000000       0.00000000       0.00000000          1
H         9.39080466       1.46937335      11.98542587         0.00000000       0.00000000       0.00000000          1
H         9.29492627       4.10704483       9.04568605         0.00000000       0.00000000       0.00000000          1
6
pbc=[F, F, F] list_num_par=6 frozen=false iter=20000 energy=-1.26974174 Lattice="15.00000000 0.00000000 0.00000000 0.00000000 15.00000000 0.00000000 0.00000000 0.00000000 15.00000000" energy_frozen_part=0.00000000 Properties=species:S:1:pos:R:3:velocities:R:3:Z:I:1
H        10.96792440       3.64998719      11.23575390         0.00000000       0.00000000       0.00000000          1
H         7.71780676       1.92643958       9.79535173         0.00000000       0.00000000       0.00000000          1
H         8.22079469       3.97992975      11.62139870         0.00000000       0.00000000       0.00000000          1
H        10.46493102       1.59649158       9.40970398         0.00000000       0.00000000       0.00000000          1
H         9.39081368       1.46939242      11.98543318         0.00000000       0.00000000       0.00000000          1
H         9.29492404       4.10703723       9.04567120         0.00000000       0.00000000       0.00000000          1
6
pbc=[F, F, F] list_num_par=6 frozen=false iter=20000 energy=-1.26974174 Lattice="15.00000000 0.00000000 0.00000000 0.00000000 15.00000000 0.00000000 0.00000000 0.00000000 15.00000000" energy_frozen_part=0.00000000 Properties=species:S:1:pos:R:3:velocities:R:3:Z:I:1
H        10.89391931       3.67559822      11.37369330         0.00000000       0.00000000       0.00000000          1
H         7.61514228       1.88829871      10.08382466         0.00000000       0.00000000       0.00000000          1
H         8.16852930       3.89527959      11.94664137         0.00000000       0.00000000       0.00000000          1
H        10.34053195       1.66861831       9.51087429         0.00000000       0.00000000       0.00000000          1
H         9.44201008       1.41665054      12.14401963         0.00000000       0.00000000       0.00000000          1
H         9.06705567       4.14724451       9.31350487         0.00000000       0.00000000       0.00000000          1
6
pbc=[F, F, F] list_num_par=6 frozen=false iter=20000 energy=-1.26974174 Lattice="15.00000000 0.00000000 0.00000000 0.00000000 15.00000000 0.00000000 0.00000000 0.00000000 15.00000000" energy_frozen_part=0.00000000 Properties=species:S:1:pos:R:3:velocities:R:3:Z:I:1
H        10.89284992       3.67757152      11.37217399         0.00000000       0.00000000       0.00000000          1
H         7.61563986       1.88557777      10.08484952         0.00000000       0.00000000       0.00000000          1
H         8.16732448       3.89529251      11.94521543         0.00000000       0.00000000       0.00000000          1
H        10.34117068       1.66786042       9.51181147         0.00000000       0.00000000       0.00000000          1
H         9.44322417       1.41813848      12.14536505         0.00000000       0.00000000       0.00000000          1
H         9.06526085       4.14501173       9.31165797         0.00000000       0.00000000       0.00000000          1
6
pbc=[F, F, F] list_num_par=6 frozen=false iter=20000 energy=-1.26974174 Lattice="15.00000000 0.00000000 0.00000000 0.00000000 15.00000000 0.00000000 0.00000000 0.00000000 15.00000000" energy_frozen_part=0.00000000 Properties=species:S:1:pos:R:3:velocities:R:3:Z:I:1
H        10.89287611       3.67757143      11.37216627         0.00000000       0.00000000       0.00000000          1
H         7.61565148       1.88559211      10.08484886         0.00000000       0.00000000       0.00000000          1
H         8.16734331       3.89530750      11.94521074         0.00000000       0.00000000       0.00000000          1
H        10.34117517       1.66785031       9.51180222         0.00000000       0.00000000       0.00000000          1
H         9.44323631       1.41814449      12.14536277         0.00000000       0.00000000       0.00000000          1
H         9.06529206       4.14501965       9.31165856         0.00000000       0.00000000       0.00000000          1
6
pbc=[F, F, F] list_num_par=6 frozen=false iter=20000 energy=-1.26974174 Lattice="15.00000000 0.00000000 0.00000000 0.00000000 15.00000000 0.00000000 0.00000000 0.00000000 15.00000000" energy_frozen_part=0.00000000 Properties=species:S:1:pos:R:3:velocities:R:3:Z:I:1
H        10.89311269       3.67770430      11.37133555         0.00000000       0.00000000       0.00000000          1
H         7.61572398       1.88566214      10.08452328         0.00000000       0.00000000       0.00000000          1
H         8.16769818       3.89521686      11.94497914         0.00000000       0.00000000       0.00000000          1
H        10.34114168       1.66815245       9.51087472         0.00000000       0.00000000       0.00000000          1
H         9.44377836       1.41810140      12.14459495         0.00000000       0.00000000       0.00000000          1
H         9.06506558       4.14525626       9.31125608         0.00000000       0.00000000       0.00000000          1
6
pbc=[F, F, F] list_num_par=6 frozen=false iter=20000 energy=-1.26974174 Lattice="15.00000000 0.00000000 0.00000000 0.00000000 15.00000000 0.00000000 0.00000000 0.00000000 15.00000000" energy_frozen_part=0.00000000 Properties=species:S:1:pos:R:3:velocities:R:3:Z:I:1
H        10.89311860       3.67768066      11.37136091         0.00000000       0.00000000       0.00000000          1
H         7.61573373       1.88568343      10.08450373         0.00000000       0.00000000       0.00000000          1
H         8.16769727       3.89522552      11.94497699         0.00000000       0.00000000       0.00000000          1
H        10.34115259       1.66814239       9.51089082         0.00000000       0.00000000       0.00000000          1
H         9.44375129       1.41810152      12.14459780         0.00000000       0.00000000       0.00000000          1
H         9.06510548       4.14526678       9.31126360         0.00000000       0.00000000       0.00000000          1
6
pbc=[F, F, F] list_num_par=6 frozen=false iter=20000 energy=-1.26974174 Lattice="15.00000000 0.00000000 0.00000000 0.00000000 15.00000000 0.00000000 0.00000000 0.00000000 15.00000000" energy_frozen_part=0.00000000 Properties=species:S:1:pos:R:3:velocities:R:3:Z:I:1
H        10.89390318       3.67558580      11.37363585         0.00000000       0.00000000       0.00000000          1
H         7.61512333       1.88826848      10.08378413         0.00000000       0.00000000       0.00000000          1
H         8.16850833       3.89523835      11.94660963         0.00000000       0.00000000       0.00000000          1
H        10.34051584       1.66861839       9.51080374         0.00000000       0.00000000       0.00000000          1
H         9.44201394       1.41662732      12.14395542         0.00000000       0.00000000       0.00000000          1
H         9.06701603       4.14723169       9.31346120         0.00000000       0.00000000       0.00000000          1
6
pbc=[F, F, F] list_num_par=6 frozen=false iter=20000 energy=-1.26974174 Lattice="15.00000000 0.00000000 0.00000000 0.00000000 15.00000000 0.00000000 0.00000000 0.00000000 15.00000000" energy_frozen_part=0.00000000 Properties=species:S:1:pos:R:3:velocities:R:3:Z:I:1
H         6.41930949       3.54833259       3.47999659         0.00000000       0.00000000       0.00000000          1
H         4.24857419       3.84850693       5.21265148         0.00000000       0.00000000       0.00000000          1
H         5.48229427       1.35718690       4.93778986         0.00000000       0.00000000       0.00000000          1
H         5.08926366       1.46746063       2.17415388         0.00000000       0.00000000       0.00000000          1
H         2.91853089       1.76763106       3.90681119         0.00000000       0.00000000       0.00000000          1
H         3.85554312       3.95877401       2.44901505         0.00000000       0.00000000       0.00000000          1
6
pbc=[F, F, F] list_num_par=6 frozen=false iter=20000 energy=-1.26974174 Lattice="15.00000000 0.00000000 0.00000000 0.00000000 15.00000000 0.00000000 0.00000000 0.00000000 15.00000000" energy_frozen_part=0.00000000 Properties=species:S:1:pos:R:3:velocities:R:3:Z:I:1
H         6.41935285       3.54830207       3.47995355         0.00000000       0.00000000       0.00000000          1
H         4.24865308       3.84851011       5.21264982         0.00000000       0.00000000       0.00000000          1
H         5.48235067       1.35718427       4.93779924         0.00000000       0.00000000       0.00000000          1
H         5.08925998       1.46742001       2.17417029         0.00000000       0.00000000       0.00000000          1
H         2.91856736       1.76762941       3.90686378         0.00000000       0.00000000       0.00000000          1
H         3.85556863       3.95875443       2.44902935         0.00000000       0.00000000       0.00000000          1
6
pbc=[F, F, F] list_num_par=6 frozen=false iter=20000 energy=-1.26974174 Lattice="15.00000000 0.00000000 0.00000000 0.00000000 15.00000000 0.00000000 0.00000000 0.00000000 15.00000000" energy_frozen_part=0.00000000 Properties=species:S:1:pos:R:3:velocities:R:3:Z:I:1
H        10.89392420       3.67558274      11.37369803         0.00000000       0.00000000       0.00000000          1
H         7.61515285       1.88828664      10.08381070         0.00000000       0.00000000       0.00000000          1
H         8.16852999       3.89526979      11.94663164         0.00000000       0.00000000       0.00000000          1
H        10.34054157       1.66860786       9.51087523         0.00000000       0.00000000       0.00000000          1
H         9.44200406       1.41664329      12.14401183         0.00000000       0.00000000       0.00000000          1
H         9.06707043       4.14723171       9.31349038         0.00000000       0.00000000       0.00000000          1
6
pbc=[F, F, F] list_num_par=6 frozen=false iter=20000 energy=-1.26974174 Lattice="15.00000000 0.00000000 0.00000000 0.00000000 15.00000000 0.00000000 0.00000000 0.00000000 15.00000000" energy_frozen_part=0.00000000 Properties=species:S:1:pos:R:3:velocities:R:3:Z:I:1
H        10.96797764       3.64988882      11.23567654         0.00000000       0.00000000       0.00000000          1
H         7.71769969       1.92645565       9.79550125         0.00000000       0.00000000       0.00000000          1
H         8.22089207       3.97997286      11.62146901         0.00000000       0.00000000       0.00000000          1
H        10.46478881       1.59637442       9.40970399         0.00000000       0.00000000       0.00000000          1
H         9.39080653       1.46938370      11.98549448         0.00000000       0.00000000       0.00000000          1
H         9.29487302       4.10695708       9.04567700         0.00000000       0.00000000       0.00000000          1
6
pbc=[F, F, F] list_num_par=6 frozen=false iter=20000 energy=-1.26974174 Lattice="15.00000000 0.00000000 0.00000000 0.00000000 15.00000000 0.00000000 0.00000000 0.00000000 15.00000000" energy_frozen_part=0.00000000 Properties=species:S:1:pos:R:3:velocities:R:3:Z:I:1
H         6.41931217       3.54834785       3.47998670         0.00000000       0.00000000       0.00000000          1
H         4.24857803       3.84851227       5.21265048         0.00000000       0.00000000       0.00000000          1
H         5.48229648       1.35719706       4.93777694         0.00000000       0.00000000       0.00000000          1
H         5.08925833       1.46746916       2.17415127         0.00000000       0.00000000       0.00000000          1
H         2.91852847       1.76763977       3.90681131         0.00000000       0.00000000       0.00000000          1
H         3.85554106       3.95879361       2.44902352         0.00000000       0.00000000       0.00000000          1
6
pbc=[F, F, F] list_num_par=6 frozen=false iter=20000 energy=-1.26974174 Lattice="15.00000000 0.00000000 0.00000000 0.00000000 15.00000000 0.00000000 0.00000000 0.00000000 15.00000000" energy_frozen_part=0.00000000 Properties=species:S:1:pos:R:3:velocities:R:3:Z:I:1
H        10.89391299       3.67558869      11.37364127         0.00000000       0.00000000       0.00000000          1
H         7.61512986       1.88828051      10.08379218         0.00000000       0.00000000       0.00000000          1
H         8.16852915       3.89523822      11.94663240         0.00000000       0.00000000       0.00000000          1
H        10.34051683       1.66864280       9.51080351         0.00000000       0.00000000       0.00000000          1
H         9.44202895       1.41661961      12.14395330         0.00000000       0.00000000       0.00000000          1
H         9.06701175       4.14725281       9.31348120         0.00000000       0.00000000       0.00000000          1
6
pbc=[F, F, F] list_num_par=6 frozen=false iter=20000 energy=-1.26974174 Lattice="15.00000000 0.00000000 0.00000000 0.00000000 15.00000000 0.00000000 0.00000000 0.00000000 15.00000000" energy_frozen_part=0.00000000 Properties=species:S:1:pos:R:3:velocities:R:3:Z:I:1
H        10.96797042       3.64990209      11.23566505         0.00000000       0.00000000       0.00000000          1
H         7.71770967       1.92644916       9.79550010         0.00000000       0.00000000       0.00000000          1
H         8.22088374       3.97996093      11.62147739         0.00000000       0.00000000       0.00000000          1
H        10.46479296       1.59639171       9.40968450         0.00000000       0.00000000       0.00000000          1
H         9.39083042       1.46938348      11.98548960         0.00000000       0.00000000       0.00000000          1
H         9.29484586       4.10696787       9.04567503         0.00000000       0.00000000       0.00000000          1
6
pbc=[F, F, F] list_num_par=6 frozen=false iter=20000 energy=-1.26974174 Lattice="15.00000000 0.00000000 0.00000000 0.00000000 15.00000000 0.00000000 0.00000000 0.00000000 15.00000000" energy_frozen_part=0.00000000 Properties=species:S:1:pos:R:3:velocities:R:3:Z:I:1
H         6.41934359       3.54833663       3.47997494         0.00000000       0.00000000       0.00000000          1
H         4.24859940       3.84853051       5.21262262         0.00000000       0.00000000       0.00000000          1
H         5.48233797       1.35721620       4.93782281         0.00000000       0.00000000       0.00000000          1
H         5.08930380       1.46742190       2.17418862         0.00000000       0.00000000       0.00000000          1
H         2.91856880       1.76761864       3.90682942         0.00000000       0.00000000       0.00000000          1
H         3.85557187       3.95874286       2.44898987         0.00000000       0.00000000       0.00000000          1
6
pbc=[F, F, F] list_num_par=6 frozen=false iter=20000 energy=-1.26974174 Lattice="15.00000000 0.00000000 0.00000000 0.00000000 15.00000000 0.00000000 0.00000000 0.00000000 15.00000000" energy_frozen_part=0.00000000 Properties=species:S:1:pos:R:3:velocities:R:3:Z:I:1
H        10.89286919       3.67755354      11.37216431         0.00000000       0.00000000       0.00000000          1
H         7.61564315       1.88558819      10.08484186         0.00000000       0.00000000       0.00000000          1
H         8.16734619       3.89529937      11.94521559         0.00000000       0.00000000       0.00000000          1
H        10.34117126       1.66783548       9.51180119         0.00000000       0.00000000       0.00000000          1
H         9.44322136       1.41813032      12.14535687         0.00000000       0.00000000       0.00000000          1
H         9.06529075       4.14500880       9.31165443         0.00000000       0.00000000       0.00000000          1
6
pbc=[F, F, F] list_num_par=6 frozen=false iter=20000 energy=-1.26974174 Lattice="15.00000000 0.00000000 0.00000000 0.00000000 15.00000000 0.00000000 0.00000000 0.00000000 15.00000000" energy_frozen_part=0.00000000 Properties=species:S:1:pos:R:3:velocities:R:3:Z:I:1
H        10.89389369       3.67557917      11.37363038         0.00000000       0.00000000       0.00000000          1
H         7.61512179       1.88825523      10.08376223         0.00000000       0.00000000       0.00000000          1
H         8.16849921       3.89522170      11.94659832         0.00000000       0.00000000       0.00000000          1
H        10.34051209       1.66861305       9.51079131         0.00000000       0.00000000       0.00000000          1
H         9.44200941       1.41660912      12.14393862         0.00000000       0.00000000       0.00000000          1
H         9.06700981       4.14722891       9.31345459         0.00000000       0.00000000       0.00000000          1
6
pbc=[F, F, F] list_num_par=6 frozen=false iter=20000 energy=-1.26974174 Lattice="15.00000000 0.00000000 0.00000000 0.00000000 15.00000000 0.00000000 0.00000000 0.00000000 15.00000000" energy_frozen_part=0.00000000 Properties=species:S:1:pos:R:3:velocities:R:3:Z:I:1
H        10.89288792       3.67747342      11.37219034         0.00000000       0.00000000       0.00000000          1
H         7.61564381       1.88563298      10.08474532         0.00000000       0.00000000       0.00000000          1
H         8.16736387       3.89524306      11.94521682         0.00000000       0.00000000       0.00000000          1
H        10.34117556       1.66786180       9.51172560         0.00000000       0.00000000       0.00000000          1
H         9.44319240       1.41804331      12.14525781         0.00000000       0.00000000       0.00000000          1
H         9.06533640       4.14506257       9.31167921         0.00000000       0.00000000       0.00000000          1
6
pbc=[F, F, F] list_num_par=6 frozen=false iter=20000 energy=-1.26974174 Lattice="15.00000000 0.00000000 0.00000000 0.00000000 15.00000000 0.00000000 0.00000000 0.00000000 15.00000000" energy_frozen_part=0.00000000 Properties=species:S:1:pos:R:3:velocities:R:3:Z:I:1
H        10.96792072       3.64998436      11.23575259         0.00000000       0.00000000       0.00000000          1
H         7.71780554       1.92643839       9.79536609         0.00000000       0.00000000       0.00000000          1
H         8.22079707       3.97993621      11.62140068         0.00000000       0.00000000       0.00000000          1
H        10.46493207       1.59648420       9.40970942         0.00000000       0.00000000       0.00000000          1
H         9.39081327       1.46939425      11.98544733         0.00000000       0.00000000       0.00000000          1
H         9.29491849       4.10702745       9.04567260         0.00000000       0.00000000       0.00000000          1
6
pbc=[F, F, F] list_num_par=6 frozen=false iter=20000 energy=-1.26974174 Lattice="15.00000000 0.00000000 0.00000000 0.00000000 15.00000000 0.00000000 0.00000000 0.00000000 15.00000000" energy_frozen_part=0.00000000 Properties=species:S:1:pos:R:3:velocities:R:3:Z:I:1
H        10.96790897       3.64997244      11.23576554         0.00000000       0.00000000       0.00000000          1
H         7.71780103       1.92644797       9.79536134         0.00000000       0.00000000       0.00000000          1
H         8.22078786       3.97992494      11.62142271         0.00000000       0.00000000       0.00000000          1
H        10.46492160       1.59649385       9.40970691         0.00000000       0.00000000       0.00000000          1
H         9.39079672       1.46937968      11.98544155         0.00000000       0.00000000       0.00000000          1
H         9.29491056       4.10704356       9.04568930         0.00000000       0.00000000       0.00000000          1
6
pbc=[F, F, F] list_num_par=6 frozen=false iter=20000 energy=-1.26974174 Lattice="15.00000000 0.00000000 0.00000000 0.00000000 15.00000000 0.00000000 0.00000000 0.00000000 15.00000000" energy_frozen_part=0.00000000 Properties=species:S:1:pos:R:3:velocities:R:3:Z:I:1
H        10.89291287       3.67747442      11.37224185         0.00000000       0.00000000       0.00000000          1
H         7.61568311       1.88561627      10.08476911         0.00000000       0.00000000       0.00000000          1
H         8.16737949       3.89526527      11.94521361         0.00000000       0.00000000       0.00000000          1
H        10.34121880       1.66783024       9.51180120         0.00000000       0.00000000       0.00000000          1
H         9.44319208       1.41805983      12.14532337         0.00000000       0.00000000       0.00000000          1
H         9.06540333       4.14503294       9.31168834         0.00000000       0.00000000       0.00000000          1
6
pbc=[F, F, F] list_num_par=6 frozen=false iter=20000 energy=-1.26974174 Lattice="15.00000000 0.00000000 0.00000000 0.00000000 15.00000000 0.00000000 0.00000000 0.00000000 15.00000000" energy_frozen_part=0.00000000 Properties=species:S:1:pos:R:3:velocities:R:3:Z:I:1
H         6.41936428       3.54830281       3.47995612         0.00000000       0.00000000       0.00000000          1
H         4.24867032       3.84851580       5.21265091         0.00000000       0.00000000       0.00000000          1
H         5.48235512       1.35717932       4.93779243         0.00000000       0.00000000       0.00000000          1
H         5.08926601       1.46742369       2.17417564         0.00000000       0.00000000       0.00000000          1
H         2.91856424       1.76763439       3.90686980         0.00000000       0.00000000       0.00000000          1
H         3.85558077       3.95875821       2.44902926         0.00000000       0.00000000       0.00000000          1
