6
pbc=[F, F, F] list_num_par=6 frozen=false iter=20000 energy=-1.26974174 Lattice="15.00000000 0.00000000 0.00000000 0.00000000 15.00000000 0.00000000 0.00000000 0.00000000 15.00000000" energy_frozen_part=0.00000000 Properties=species:S:1:pos:R:3:velocities:R:3:Z:I:1
H         9.55346886      11.54380188      11.54646247         0.00000000       0.00000000       0.00000000          1
H        10.13294073       8.53568485       9.05166152         0.00000000       0.00000000       0.00000000          1
H         7.89169908       9.75310209      10.19139511         0.00000000       0.00000000       0.00000000          1
H        11.79471935      10.32638503      10.40672751         0.00000000       0.00000000       0.00000000          1
H         9.74418218      11.28785847       8.77114262         0.00000000       0.00000000       0.00000000          1
H         9.94223882       8.79163431      11.82698533         0.00000000       0.00000000       0.00000000          1
6
pbc=[F, F, F] list_num_par=6 frozen=false iter=20000 energy=-1.26974174 Lattice="15.00000000 0.00000000 0.00000000 0.00000000 15.00000000 0.00000000 0.00000000 0.00000000 15.00000000" energy_frozen_part=0.00000000 Properties=species:S:1:pos:R:3:velocities:R:3:Z:I:1
H         9.55331476      11.54364917      11.54640876         0.00000000       0.00000000       0.00000000          1
H        10.13297984       8.53569238       9.05147427         0.00000000       0.00000000       0.00000000          1
H         7.89164599       9.75300549      10.19115487         0.00000000       0.00000000       0.00000000          1
H        11.79464734      10.32634063      10.40673383         0.00000000       0.00000000       0.00000000          1
H         9.74417916      11.28787130       8.77108648         0.00000000       0.00000000       0.00000000          1
H         9.94211113       8.79146503      11.82679600         0.00000000       0.00000000       0.00000000          1
6
pbc=[F, F, F] list_num_par=6 frozen=false iter=20000 energy=-1.26974174 Lattice="15.00000000 0.00000000 0.00000000 0.00000000 15.00000000 0.00000000 0.00000000 0.00000000 15.00000000" energy_frozen_part=0.00000000 Properties=species:S:1:pos:R:3:velocities:R:3:Z:I:1
H         9.56703652      11.58144746      11.53515796         0.00000000       0.00000000       0.00000000          1
H        10.05556927       8.51105020       9.09742248         0.00000000       0.00000000       0.00000000          1
H         7.85507456       9.77694861      10.26345020         0.00000000       0.00000000       0.00000000          1
H        11.76752601      10.31555061      10.36912839         0.00000000       0.00000000       0.00000000          1
H         9.68619480      11.25983566       8.76267761         0.00000000       0.00000000       0.00000000          1
H         9.93640346       8.83266296      11.86990416         0.00000000       0.00000000       0.00000000          1
6
pbc=[F, F, F] list_num_par=6 frozen=false iter=20000 energy=-1.26974174 Lattice="15.00000000 0.00000000 0.00000000 0.00000000 15.00000000 0.00000000 0.00000000 0.00000000 15.00000000" energy_frozen_part=0.00000000 Properties=species:S:1:pos:R:3:velocities:R:3:Z:I:1
H         9.56672280      11.57940250      11.53804820         0.00000000       0.00000000       0.00000000          1
H        10.05434472       8.51391180       9.09395485         0.00000000       0.00000000       0.00000000          1
H         7.85425695       9.77772775      10.26301239         0.00000000       0.00000000       0.00000000          1
H        11.76680673      10.31559007      10.36899255         0.00000000       0.00000000       0.00000000          1
H         9.68528338      11.26341787       8.76489014         0.00000000       0.00000000       0.00000000          1
H         9.93579111       8.82989275      11.86710861         0.00000000       0.00000000       0.00000000          1
6
pbc=[F, F, F] list_num_par=6 frozen=false iter=20000 energy=-1.26974174 Lattice="15.00000000 0.00000000 0.00000000 0.00000000 15.00000000 0.00000000 0.00000000 0.00000000 15.00000000" energy_frozen_part=0.00000000 Properties=species:S:1:pos:R:3:velocities:R:3:Z:I:1
H         9.56674619      11.57936562      11.53804106         0.00000000       0.00000000       0.00000000          1
H        10.05435557       8.51387387       9.09395330         0.00000000       0.00000000       0.00000000          1
H         7.85427565       9.77769247      10.26301038         0.00000000       0.00000000       0.00000000          1
H        11.76682578      10.31554733      10.36898358         0.00000000       0.00000000       0.00000000          1
H         9.68529220      11.26338217       8.76489213         0.00000000       0.00000000       0.00000000          1
H         9.93580278       8.82985285      11.86710421         0.00000000       0.00000000       0.00000000          1
6
pbc=[F, F, F] list_num_par=6 frozen=false iter=20000 energy=-1.26974174 Lattice="15.00000000 0.00000000 0.00000000 0.00000000 15.00000000 0.00000000 0.00000000 0.00000000 15.00000000" energy_frozen_part=0.00000000 Properties=species:S:1:pos:R:3:velocities:R:3:Z:I:1
H         9.56704721      11.58145888      11.53515201         0.00000000       0.00000000       0.00000000          1
H        10.05554914       8.51104597       9.09742240         0.00000000       0.00000000       0.00000000          1
H         7.85507153       9.77696426      10.26344839         0.00000000       0.00000000       0.00000000          1
H        11.76752815      10.31554513      10.36911617         0.00000000       0.00000000       0.00000000          1
H         9.68619596      11.25983192       8.76267063         0.00000000       0.00000000       0.00000000          1
H         9.93639463       8.83267891      11.86990047         0.00000000       0.00000000       0.00000000          1
6
pbc=[F, F, F] list_num_par=6 frozen=false iter=20000 energy=-1.26974174 Lattice="15.00000000 0.00000000 0.00000000 0.00000000 15.00000000 0.00000000 0.00000000 0.00000000 15.00000000" energy_frozen_part=0.00000000 Properties=species:S:1:pos:R:3:velocities:R:3:Z:I:1
H         9.55351058      11.54380293      11.54648429         0.00000000       0.00000000       0.00000000          1
H        10.13294516       8.53570041       9.05166599         0.00000000       0.00000000       0.00000000          1
H         7.89171899       9.75316568      10.19137618         0.00000000       0.00000000       0.00000000          1
H        11.79474378      10.32633615      10.40677658         0.00000000       0.00000000       0.00000000          1
H         9.74425906      11.28788520       8.77116462         0.00000000       0.00000000       0.00000000          1
H         9.94220013       8.79161875      11.82698528         0.00000000       0.00000000       0.00000000          1
6
pbc=[F, F, F] list_num_par=6 frozen=false iter=20000 energy=-1.26974174 Lattice="15.00000000 0.00000000 0.00000000 0.00000000 15.00000000 0.00000000 0.00000000 0.00000000 15.00000000" energy_frozen_part=0.00000000 Properties=species:S:1:pos:R:3:velocities:R:3:Z:I:1
H         9.56666395      11.57939142      11.53870485         0.00000000       0.00000000       0.00000000          1
H        10.05390169       8.51413712       9.09423343         0.00000000       0.00000000       0.00000000          1
H         7.85392279       9.77859953      10.26279536         0.00000000       0.00000000       0.00000000          1
H        11.76664430      10.31492940      10.37014493         0.00000000       0.00000000       0.00000000          1
H         9.68600281      11.26384707       8.76553510         0.00000000       0.00000000       0.00000000          1
H         9.93456447       8.82968178      11.86740123         0.00000000       0.00000000       0.00000000          1
6
pbc=[F, F, F] list_num_par=6 frozen=false iter=20000 energy=-1.26974174 Lattice="15.00000000 0.00000000 0.00000000 0.00000000 15.00000000 0.00000000 0.00000000 0.00000000 15.00000000" energy_frozen_part=0.00000000 Properties=species:S:1:pos:R:3:velocities:R:3:Z:I:1
H         9.56703746      11.58144677      11.53516062         0.00000000       0.00000000       0.00000000          1
H        10.05555755       8.51104551       9.09742343         0.00000000       0.00000000       0.00000000          1
H         7.85507015       9.77694636      10.26345368         0.00000000       0.00000000       0.00000000          1
H        11.76752881      10.31554520      10.36912522         0.00000000       0.00000000       0.00000000          1
H         9.68619852      11.25983221       8.76267805         0.00000000       0.00000000       0.00000000          1
H         9.93639898       8.83266894      11.86990611         0.00000000       0.00000000       0.00000000          1
6
pbc=[F, F, F] list_num_par=6 frozen=false iter=20000 energy=-1.26974174 Lattice="15.00000000 0.00000000 0.00000000 0.00000000 15.00000000 0.00000000 0.00000000 0.00000000 15.00000000" energy_frozen_part=0.00000000 Properties=species:S:1:pos:R:3:velocities:R:3:Z:I:1
H         9.56693886      11.58129892      11.53520546         0.00000000       0.00000000       0.00000000          1
H        10.05517415       8.51112789       9.09711752         0.00000000       0.00000000       0.00000000          1
H         7.85481418       9.77704409      10.26336590         0.00000000       0.00000000       0.00000000          1
H        11.76730307      10.31538430      10.36895420         0.00000000       0.00000000       0.00000000          1
H         9.68598070      11.25996957       8.76268310         0.00000000       0.00000000       0.00000000          1
H         9.93614019       8.83245447      11.86963343         0.00000000       0.00000000       0.00000000          1
6
pbc=[F, F, F] list_num_par=6 frozen=false iter=20000 energy=-1.26974174 Lattice="15.00000000 0.00000000 0.00000000 0.00000000 15.00000000 0.00000000 0.00000000 0.00000000 15.00000000" energy_frozen_part=0.00000000 Properties=species:S:1:pos:R:3:velocities:R:3:Z:I:1
H         9.56690420      11.58145016      11.53509589         0.00000000       0.00000000       0.00000000          1
H        10.05563350       8.51102358       9.09742109         0.00000000       0.00000000       0.00000000          1
H         7.85504936       9.77686629      10.26334595         0.00000000       0.00000000       0.00000000          1
H        11.76748681      10.31560083      10.36917400         0.00000000       0.00000000       0.00000000          1
H         9.68618636      11.25978720       8.76262657         0.00000000       0.00000000       0.00000000          1
H         9.93634779       8.83268445      11.86989275         0.00000000       0.00000000       0.00000000          1
6
pbc=[F, F, F] list_num_par=6 frozen=false iter=20000 energy=-1.26974174 Lattice="15.00000000 0.00000000 0.00000000 0.00000000 15.00000000 0.00000000 0.00000000 0.00000000 15.00000000" energy_frozen_part=0.00000000 Properties=species:S:1:pos:R:3:velocities:R:3:Z:I:1
H         9.56703105      11.58143298      11.53516460         0.00000000       0.00000000       0.00000000          1
H        10.05559559       8.51105553       9.09739870         0.00000000       0.00000000       0.00000000          1
H         7.85508861       9.77693464      10.26342374         0.00000000       0.00000000       0.00000000          1
H        11.76753563      10.31555756      10.36913683         0.00000000       0.00000000       0.00000000          1
H         9.68621956      11.25983896       8.76267911         0.00000000       0.00000000       0.00000000          1
H         9.93641249       8.83264711      11.86987698         0.00000000       0.00000000       0.00000000          1
6
pbc=[F, F, F] list_num_par=6 frozen=false iter=20000 energy=-1.26974174 Lattice="15.00000000 0.00000000 0.00000000 0.00000000 15.00000000 0.00000000 0.00000000 0.00000000 15.00000000" energy_frozen_part=0.00000000 Properties=species:S:1:pos:R:3:velocities:R:3:Z:I:1
H         9.55346862      11.54381879      11.54642289         0.00000000       0.00000000       0.00000000          1
H        10.13294737       8.53566519       9.05167655         0.00000000       0.00000000       0.00000000          1
H         7.89169507       9.75311092      10.19137592         0.00000000       0.00000000       0.00000000          1
H        11.79471755      10.32637361      10.40672766         0.00000000       0.00000000       0.00000000          1
H         9.74419759      11.28783238       8.77110844         0.00000000       0.00000000       0.00000000          1
H         9.94222231       8.79165461      11.82699570         0.00000000       0.00000000       0.00000000          1
6
pbc=[F, F, F] list_num_par=6 frozen=false iter=20000 energy=-1.26974174 Lattice="15.00000000 0.00000000 0.00000000 0.00000000 15.00000000 0.00000000 0.00000000 0.00000000 15.00000000" energy_frozen_part=0.00000000 Properties=species:S:1:pos:R:3:velocities:R:3:Z:I:1
H         9.55349059      11.54378140      11.54649686         0.00000000       0.00000000       0.00000000          1
H        10.13294226       8.53572215       9.05162714         0.00000000       0.00000000       0.00000000          1
H         7.89170362       9.75315464      10.19134820         0.00000000       0.00000000       0.00000000          1
H        11.79473126      10.32634636      10.40676912         0.00000000       0.00000000       0.00000000          1
H         9.74424425      11.28790676       8.77116780         0.00000000       0.00000000       0.00000000          1
H         9.94218644       8.79159302      11.82695156         0.00000000       0.00000000       0.00000000          1
6
pbc=[F, F, F] list_num_par=6 frozen=false iter=20000 energy=-1.26974174 Lattice="15.00000000 0.00000000 0.00000000 0.00000000 15.00000000 0.00000000 0.00000000 0.00000000 15.00000000" energy_frozen_part=0.00000000 Properties=species:S:1:pos:R:3:velocities:R:3:Z:I:1
H         9.55347758      11.54381127      11.54643615         0.00000000       0.00000000       0.00000000          1
H        10.13293537       8.53567044       9.05166112         0.00000000       0.00000000       0.00000000          1
H         7.89169704       9.75312218      10.19136884         0.00000000       0.00000000       0.00000000          1
H        11.79471967      10.32635764      10.40672362         0.00000000       0.00000000       0.00000000          1
H         9.74420921      11.28784557       8.77111876         0.00000000       0.00000000       0.00000000          1
H         9.94221227       8.79163005      11.82697770         0.00000000       0.00000000       0.00000000          1
6
pbc=[F, F, F] list_num_par=6 frozen=false iter=20000 energy=-1.26974174 Lattice="15.00000000 0.00000000 0.00000000 0.00000000 15.00000000 0.00000000 0.00000000 0.00000000 15.00000000" energy_frozen_part=0.00000000 Properties=species:S:1:pos:R:3:velocities:R:3:Z:I:1
H         9.56667839      11.57933344      11.53872319         0.00000000       0.00000000       0.00000000          1
H        10.05386717       8.51415043       9.09416988         0.00000000       0.00000000       0.00000000          1
H         7.85391566       9.77857085      10.26281465         0.00000000       0.00000000       0.00000000          1
H        11.76664004      10.31491301      10.37008082         0.00000000       0.00000000       0.00000000          1
H         9.68595491      11.26386406       8.76554219         0.00000000       0.00000000       0.00000000          1
H         9.93459992       8.82962193      11.86735171         0.00000000       0.00000000       0.00000000          1
6
pbc=[F, F, F] list_num_par=6 frozen=false iter=20000 energy=-1.26974174 Lattice="15.00000000 0.00000000 0.00000000 0.00000000 15.00000000 0.00000000 0.00000000 0.00000000 15.00000000" energy_frozen_part=0.00000000 Properties=species:S:1:pos:R:3:velocities:R:3:Z:I:1
H         9.56671119      11.57937444      11.53803697         0.00000000       0.00000000       0.00000000          1
H        10.05436122       8.51388105       9.09396544         0.00000000       0.00000000       0.00000000          1
H         7.85426230       9.77768883      10.26299503         0.00000000       0.00000000       0.00000000          1
H        11.76681195      10.31556709      10.36900407         0.00000000       0.00000000       0.00000000          1
H         9.68528654      11.26338762       8.76488368         0.00000000       0.00000000       0.00000000          1
H         9.93578866       8.82986804      11.86711213         0.00000000       0.00000000       0.00000000          1
6
pbc=[F, F, F] list_num_par=6 frozen=false iter=20000 energy=-1.26974174 Lattice="15.00000000 0.00000000 0.00000000 0.00000000 15.00000000 0.00000000 0.00000000 0.00000000 15.00000000" energy_frozen_part=0.00000000 Properties=species:S:1:pos:R:3:velocities:R:3:Z:I:1
H         9.55348637      11.54377456      11.54649270         0.00000000       0.00000000       0.00000000          1
H        10.13293878       8.53571011       9.05162834         0.00000000       0.00000000       0.00000000          1
H         7.89169964       9.75314865      10.19135496         0.00000000       0.00000000       0.00000000          1
H        11.79472687      10.32634269      10.40677350         0.00000000       0.00000000       0.00000000          1
H         9.74424127      11.28789622       8.77116712         0.00000000       0.00000000       0.00000000          1
H         9.94218535       8.79158462      11.82695354         0.00000000       0.00000000       0.00000000          1
6
pbc=[F, F, F] list_num_par=6 frozen=false iter=20000 energy=-1.26974174 Lattice="15.00000000 0.00000000 0.00000000 0.00000000 15.00000000 0.00000000 0.00000000 0.00000000 15.00000000" energy_frozen_part=0.00000000 Properties=species:S:1:pos:R:3:velocities:R:3:Z:I:1
H         9.55346314      11.54381036      11.54642799         0.00000000       0.00000000       0.00000000          1
H        10.13295587       8.53566773       9.05166858         0.00000000       0.00000000       0.00000000          1
H         7.89170300       9.75310847      10.19135561         0.00000000       0.00000000       0.00000000          1
H        11.79471603      10.32636757      10.40673760         0.00000000       0.00000000       0.00000000          1
H         9.74421301      11.28784331       8.77111049         0.00000000       0.00000000       0.00000000          1
H         9.94220451       8.79163948      11.82698168         0.00000000       0.00000000       0.00000000          1
6
pbc=[F, F, F] list_num_par=6 frozen=false iter=20000 energy=-1.26974174 Lattice="15.00000000 0.00000000 0.00000000 0.00000000 15.00000000 0.00000000 0.00000000 0.00000000 15.00000000" energy_frozen_part=0.00000000 Properties=species:S:1:pos:R:3:velocities:R:3:Z:I:1
H         9.56666867      11.57933579      11.53870363         0.00000000       0.00000000       0.00000000          1
H        10.05387096       8.51412810       9.09417340         0.00000000       0.00000000       0.00000000          1
H         7.85391519       9.77855361      10.26280315         0.00000000       0.00000000       0.00000000          1
H        11.76663271      10.31491462      10.37008007         0.00000000       0.00000000       0.00000000          1
H         9.68595379      11.26384052       8.76552455         0.00000000       0.00000000       0.00000000          1
H         9.93459090       8.82962318      11.86735449         0.00000000       0.00000000       0.00000000          1
6
pbc=[F, F, F] list_num_par=6 frozen=false iter=20000 energy=-1.26974174 Lattice="15.00000000 0.00000000 0.00000000 0.00000000 15.00000000 0.00000000 0.00000000 0.00000000 15.00000000" energy_frozen_part=0.00000000 Properties=species:S:1:pos:R:3:velocities:R:3:Z:I:1
H         9.55351627      11.54381547      11.54647533         0.00000000       0.00000000       0.00000000          1
H        10.13294218       8.53571053       9.05165735         0.00000000       0.00000000       0.00000000          1
H         7.89171219       9.75317790      10.19136186         0.00000000       0.00000000       0.00000000          1
H        11.79474238      10.32634224      10.40676936         0.00000000       0.00000000       0.00000000          1
H         9.74425824      11.28789809       8.77115330         0.00000000       0.00000000       0.00000000          1
H         9.94219051       8.79162895      11.82698151         0.00000000       0.00000000       0.00000000          1
6
pbc=[F, F, F] list_num_par=6 frozen=false iter=20000 energy=-1.26974174 Lattice="15.00000000 0.00000000 0.00000000 0.00000000 15.00000000 0.00000000 0.00000000 0.00000000 15.00000000" energy_frozen_part=0.00000000 Properties=species:S:1:pos:R:3:velocities:R:3:Z:I:1
H         9.55349035      11.54377715      11.54649695         0.00000000       0.00000000       0.00000000          1
H        10.13294088       8.53571718       9.05161990         0.00000000       0.00000000       0.00000000          1
H         7.89170424       9.75315854      10.19134676         0.00000000       0.00000000       0.00000000          1
H        11.79473004      10.32634149      10.40675739         0.00000000       0.00000000       0.00000000          1
H         9.74424195      11.28790717       8.77116976         0.00000000       0.00000000       0.00000000          1
H         9.94219022       8.79158845      11.82694313         0.00000000       0.00000000       0.00000000          1
6
pbc=[F, F, F] list_num_par=6 frozen=false iter=20000 energy=-1.26974174 Lattice="15.00000000 0.00000000 0.00000000 0.00000000 15.00000000 0.00000000 0.00000000 0.00000000 15.00000000" energy_frozen_part=0.00000000 Properties=species:S:1:pos:R:3:velocities:R:3:Z:I:1
H         9.56702884      11.58146520      11.53514317         0.00000000       0.00000000       0.00000000          1
H        10.05560885       8.51107184       9.09741930         0.00000000       0.00000000       0.00000000          1
H         7.85509088       9.77694223      10.26342864         0.00000000       0.00000000       0.00000000          1
H        11.76754350      10.31560063      10.36912975         0.00000000       0.00000000       0.00000000          1
H         9.68620578      11.25985076       8.76266409         0.00000000       0.00000000       0.00000000          1
H         9.93642556       8.83268974      11.86989439         0.00000000       0.00000000       0.00000000          1
6
pbc=[F, F, F] list_num_par=6 frozen=false iter=20000 energy=-1.26974174 Lattice="15.00000000 0.00000000 0.00000000 0.00000000 15.00000000 0.00000000 0.00000000 0.00000000 15.00000000" energy_frozen_part=0.00000000 Properties=species:S:1:pos:R:3:velocities:R:3:Z:I:1
H         9.56702928      11.58143922      11.53515561         0.00000000       0.00000000       0.00000000          1
H        10.05556974       8.51105000       9.09742022         0.00000000       0.00000000       0.00000000          1
H         7.85507402       9.77692822      10.26345335         0.00000000       0.00000000       0.00000000          1
H        11.76752843      10.31556191      10.36912123         0.00000000       0.00000000       0.00000000          1
H         9.68618740      11.25983159       8.76267771         0.00000000       0.00000000       0.00000000          1
H         9.93642052       8.83266167      11.86989586         0.00000000       0.00000000       0.00000000          1
6
pbc=[F, F, F] list_num_par=6 frozen=false iter=20000 energy=-1.26974174 Lattice="15.00000000 0.00000000 0.00000000 0.00000000 15.00000000 0.00000000 0.00000000 0.00000000 15.00000000" energy_frozen_part=0.00000000 Properties=species:S:1:pos:R:3:velocities:R:3:Z:I:1
H         9.56689831      11.58144178      11.53509147         0.00000000       0.00000000       0.00000000          1
H        10.05563902       8.51102056       9.09743121         0.00000000       0.00000000       0.00000000          1
H         7.85505516       9.77686184      10.26333684         0.00000000       0.00000000       0.00000000          1
H        11.76748281      10.31560226      10.36918490         0.00000000       0.00000000       0.00000000          1
H         9.68620120      11.25978197       8.76261850         0.00000000       0.00000000       0.00000000          1
H         9.93633934       8.83267946      11.86990285         0.00000000       0.00000000       0.00000000          1
6
pbc=[F, F, F] list_num_par=6 frozen=false iter=20000 energy=-1.26974174 Lattice="15.00000000 0.00000000 0.00000000 0.00000000 15.00000000 0.00000000 0.00000000 0.00000000 15.00000000" energy_frozen_part=0.00000000 Properties=species:S:1:pos:R:3:velocities:R:3:Z:I:1
H         9.56671568      11.57940460      11.53804834         0.00000000       0.00000000       0.00000000          1
H        10.05434577       8.51390985       9.09396340         0.00000000       0.00000000       0.00000000          1
H         7.85425277       9.77771863      10.26302246         0.00000000       0.00000000       0.00000000          1
H        11.76680238      10.31559752      10.36899874         0.00000000       0.00000000       0.00000000          1
H         9.68526528      11.26341424       8.76489797         0.00000000       0.00000000       0.00000000          1
H         9.93578684       8.82989703      11.86712034         0.00000000       0.00000000       0.00000000          1
6
pbc=[F, F, F] list_num_par=6 frozen=false iter=20000 energy=-1.26974174 Lattice="15.00000000 0.00000000 0.00000000 0.00000000 15.00000000 0.00000000 0.00000000 0.00000000 15.00000000" energy_frozen_part=0.00000000 Properties=species:S:1:pos:R:3:velocities:R:3:Z:I:1
H         9.55348445      11.54380823      11.54643258         0.00000000       0.00000000       0.00000000          1
H        10.13295028       8.53567075       9.05166179         0.00000000       0.00000000       0.00000000          1
H         7.89170360       9.75312197      10.19135997         0.00000000       0.00000000       0.00000000          1
H        11.79472556      10.32635438      10.40674072         0.00000000       0.00000000       0.00000000          1
H         9.74421930      11.28784973       8.77111639         0.00000000       0.00000000       0.00000000          1
H         9.94220710       8.79163049      11.82697834         0.00000000       0.00000000       0.00000000          1
6
pbc=[F, F, F] list_num_par=6 frozen=false iter=20000 energy=-1.26974174 Lattice="15.00000000 0.00000000 0.00000000 0.00000000 15.00000000 0.00000000 0.00000000 0.00000000 15.00000000" energy_frozen_part=0.00000000 Properties=species:S:1:pos:R:3:velocities:R:3:Z:I:1
H         9.56704226      11.58145315      11.53515810         0.00000000       0.00000000       0.00000000          1
H        10.05555766       8.51105447       9.09741148         0.00000000       0.00000000       0.00000000          1
H         7.85507332       9.77695327      10.26345254         0.00000000       0.00000000       0.00000000          1
H        11.76752960      10.31555235      10.36912341         0.00000000       0.00000000       0.00000000          1
H         9.68619355      11.25983797       8.76267702         0.00000000       0.00000000       0.00000000          1
H         9.93640296       8.83267281      11.86989809         0.00000000       0.00000000       0.00000000          1
6
pbc=[F, F, F] list_num_par=6 frozen=false iter=20000 energy=-1.26974174 Lattice="15.00000000 0.00000000 0.00000000 0.00000000 15.00000000 0.00000000 0.00000000 0.00000000 15.00000000" energy_frozen_part=0.00000000 Properties=species:S:1:pos:R:3:velocities:R:3:Z:I:1
H         9.56703858      11.58144648      11.53514961         0.00000000       0.00000000       0.00000000          1
H        10.05557847       8.51104311       9.09742858         0.00000000       0.00000000       0.00000000          1
H         7.85507945       9.77693620      10.26344775         0.00000000       0.00000000       0.00000000          1
H        11.76753287      10.31555300      10.36913576         0.00000000       0.00000000       0.00000000          1
H         9.68620764      11.25982236       8.76267695         0.00000000       0.00000000       0.00000000          1
H         9.93640726       8.83266869      11.86990742         0.00000000       0.00000000       0.00000000          1
6
pbc=[F, F, F] list_num_par=6 frozen=false iter=20000 energy=-1.26974174 Lattice="15.00000000 0.00000000 0.00000000 0.00000000 15.00000000 0.00000000 0.00000000 0.00000000 15.00000000" energy_frozen_part=0.00000000 Properties=species:S:1:pos:R:3:velocities:R:3:Z:I:1
H         9.56671336      11.57939822      11.53804914         0.00000000       0.00000000       0.00000000          1
H        10.05433222       8.51390640       9.09396531         0.00000000       0.00000000       0.00000000          1
H         7.85424969       9.77771867      10.26301781         0.00000000       0.00000000       0.00000000          1
H        11.76679715      10.31559054      10.36899174         0.00000000       0.00000000       0.00000000          1
H         9.68526467      11.26341643       8.76489484         0.00000000       0.00000000       0.00000000          1
H         9.93579056       8.82989390      11.86711935         0.00000000       0.00000000       0.00000000          1
6
pbc=[F, F, F] list_num_par=6 frozen=false iter=20000 energy=-1.26974174 Lattice="15.00000000 0.00000000 0.00000000 0.00000000 15.00000000 0.00000000 0.00000000 0.00000000 15.00000000" energy_frozen_part=0.00000000 Properties=species:S:1:pos:R:3:velocities:R:3:Z:I:1
H         9.56703791      11.58145024      11.53517207         0.00000000       0.00000000       0.00000000          1
H        10.05555434       8.51106688       9.09741367         0.00000000       0.00000000       0.00000000          1
H         7.85507190       9.77696183      10.26344995         0.00000000       0.00000000       0.00000000          1
H        11.76752891      10.31555105      10.36913317         0.00000000       0.00000000       0.00000000          1
H         9.68620361      11.25985591       8.76268831         0.00000000       0.00000000       0.00000000          1
H         9.93639618       8.83266595      11.86990030         0.00000000       0.00000000       0.00000000          1
6
pbc=[F, F, F] list_num_par=6 frozen=false iter=20000 energy=-1.26974174 Lattice="15.00000000 0.00000000 0.00000000 0.00000000 15.00000000 0.00000000 0.00000000 0.00000000 15.00000000" energy_frozen_part=0.00000000 Properties=species:S:1:pos:R:3:velocities:R:3:Z:I:1
H         9.56703994      11.58145191      11.53515922         0.00000000       0.00000000       0.00000000          1
H        10.05556269       8.51106219       9.09741269         0.00000000       0.00000000       0.00000000          1
H         7.85507260       9.77695966      10.26344500         0.00000000       0.00000000       0.00000000          1
H        11.76752705      10.31555778      10.36912612         0.00000000       0.00000000       0.00000000          1
H         9.68620191      11.25984566       8.76267801         0.00000000       0.00000000       0.00000000          1
H         9.93640748       8.83266606      11.86989011         0.00000000       0.00000000       0.00000000          1
6
pbc=[F, F, F] list_num_par=6 frozen=false iter=20000 energy=-1.26974174 Lattice="15.00000000 0.00000000 0.00000000 0.00000000 15.00000000 0.00000000 0.00000000 0.00000000 15.00000000" energy_frozen_part=0.00000000 Properties=species:S:1:pos:R:3:velocities:R:3:Z:I:1
H         9.56702614      11.58144433      11.53514995         0.00000000       0.00000000       0.00000000          1
H        10.05560301       8.51105687       9.09740265         0.00000000       0.00000000       0.00000000          1
H         7.85509395       9.77692744      10.26342779         0.00000000       0.00000000       0.00000000          1
H        11.76753950      10.31557290      10.36912479         0.00000000       0.00000000       0.00000000          1
H         9.68621061      11.25983480       8.76266280         0.00000000       0.00000000       0.00000000          1
H         9.93642619       8.83266177      11.86988539         0.00000000       0.00000000       0.00000000          1
6
pbc=[F, F, F] list_num_par=6 frozen=false iter=20000 energy=-1.26974174 Lattice="15.00000000 0.00000000 0.00000000 0.00000000 15.00000000 0.00000000 0.00000000 0.00000000 15.00000000" energy_frozen_part=0.00000000 Properties=species:S:1:pos:R:3:velocities:R:3:Z:I:1
H         9.55340481      11.54358780      11.54633709         0.00000000       0.00000000       0.00000000          1
H        10.13302631       8.53566135       9.05135088         0.00000000       0.00000000       0.00000000          1
H         7.89171391       9.75295312      10.19109579         0.00000000       0.00000000       0.00000000          1
H        11.79471578      10.32630291      10.40659243         0.00000000       0.00000000       0.00000000          1
H         9.74421357      11.28784351       8.77100253         0.00000000       0.00000000       0.00000000          1
H         9.94222114       8.79141151      11.82668451         0.00000000       0.00000000       0.00000000          1
6
pbc=[F, F, F] list_num_par=6 frozen=false iter=20000 energy=-1.26974174 Lattice="15.00000000 0.00000000 0.00000000 0.00000000 15.00000000 0.00000000 0.00000000 0.00000000 15.00000000" energy_frozen_part=0.00000000 Properties=species:S:1:pos:R:3:velocities:R:3:Z:I:1
H         9.55339564      11.54358105      11.54632688         0.00000000       0.00000000       0.00000000          1
H        10.13302240       8.53565000       9.05134474         0.00000000       0.00000000       0.00000000          1
H         7.89171111       9.75293866      10.19109084         0.00000000       0.00000000       0.00000000          1
H        11.79470839      10.32629908      10.40658361         0.00000000       0.00000000       0.00000000          1
H         9.74420088      11.28783263       8.77099756         0.00000000       0.00000000       0.00000000          1
H         9.94221768       8.79139953      11.82668121         0.00000000       0.00000000       0.00000000          1
6
pbc=[F, F, F] list_num_par=6 frozen=false iter=20000 energy=-1.26974174 Lattice="15.00000000 0.00000000 0.00000000 0.00000000 15.00000000 0.00000000 0.00000000 0.00000000 15.00000000" energy_frozen_part=0.00000000 Properties=species:S:1:pos:R:3:velocities:R:3:Z:I:1
H         9.56704140      11.58144737      11.53515406         0.00000000       0.00000000       0.00000000          1
H        10.05557673       8.51104990       9.09742194         0.00000000       0.00000000       0.00000000          1
H         7.85508130       9.77694977      10.26344179         0.00000000       0.00000000       0.00000000          1
H        11.76753619      10.31555015      10.36913073         0.00000000       0.00000000       0.00000000          1
H         9.68620577      11.25982967       8.76267710         0.00000000       0.00000000       0.00000000          1
H         9.93640814       8.83266919      11.86990074         0.00000000       0.00000000       0.00000000          1
6
pbc=[F, F, F] list_num_par=6 frozen=false iter=20000 energy=-1.26974174 Lattice="15.00000000 0.00000000 0.00000000 0.00000000 15.00000000 0.00000000 0.00000000 0.00000000 15.00000000" energy_frozen_part=0.00000000 Properties=species:S:1:pos:R:3:velocities:R:3:Z:I:1
H         9.55330608      11.54365449      11.54641963         0.00000000       0.00000000       0.00000000          1
H        10.13298506       8.53570627       9.05147020         0.00000000       0.00000000       0.00000000          1
H         7.89164957       9.75300545      10.19115430         0.00000000       0.00000000       0.00000000          1
H        11.79464545      10.32635115      10.40674163         0.00000000       0.00000000       0.00000000          1
H         9.74418091      11.28788592       8.77109230         0.00000000       0.00000000       0.00000000          1
H         9.94211680       8.79147665      11.82680244         0.00000000       0.00000000       0.00000000          1
6
pbc=[F, F, F] list_num_par=6 frozen=false iter=20000 energy=-1.26974174 Lattice="15.00000000 0.00000000 0.00000000 0.00000000 15.00000000 0.00000000 0.00000000 0.00000000 15.00000000" energy_frozen_part=0.00000000 Properties=species:S:1:pos:R:3:velocities:R:3:Z:I:1
H         9.55331043      11.54366600      11.54642352         0.00000000       0.00000000       0.00000000          1
H        10.13298455       8.53570271       9.05147609         0.00000000       0.00000000       0.00000000          1
H         7.89165401       9.75301025      10.19116344         0.00000000       0.00000000       0.00000000          1
H        11.79464302      10.32635806      10.40674017         0.00000000       0.00000000       0.00000000          1
H         9.74417374      11.28788536       8.77109869         0.00000000       0.00000000       0.00000000          1
H         9.94212277       8.79148570      11.82680725         0.00000000       0.00000000       0.00000000          1
6
pbc=[F, F, F] list_num_par=6 frozen=false iter=20000 energy=-1.26974174 Lattice="15.00000000 0.00000000 0.00000000 0.00000000 15.00000000 0.00000000 0.00000000 0.00000000 15.00000000" energy_frozen_part=0.00000000 Properties=species:S:1:pos:R:3:velocities:R:3:Z:I:1
H         9.56671034      11.57938300      11.53803969         0.00000000       0.00000000       0.00000000          1
H        10.05436114       8.51389368       9.09396527         0.00000000       0.00000000       0.00000000          1
H         7.85426040       9.77769354      10.26300176         0.00000000       0.00000000       0.00000000          1
H        11.76681141      10.31557465      10.36900910         0.00000000       0.00000000       0.00000000          1
H         9.68528424      11.26339591       8.76489148         0.00000000       0.00000000       0.00000000          1
H         9.93578764       8.82987877      11.86712185         0.00000000       0.00000000       0.00000000          1
6
pbc=[F, F, F] list_num_par=6 frozen=false iter=20000 energy=-1.26974174 Lattice="15.00000000 0.00000000 0.00000000 0.00000000 15.00000000 0.00000000 0.00000000 0.00000000 15.00000000" energy_frozen_part=0.00000000 Properties=species:S:1:pos:R:3:velocities:R:3:Z:I:1
H         9.55346641      11.54381089      11.54642941         0.00000000       0.00000000       0.00000000          1
H        10.13295598       8.53567140       9.05167197         0.00000000       0.00000000       0.00000000          1
H         7.89170117       9.75310959      10.19136568         0.00000000       0.00000000       0.00000000          1
H        11.79472392      10.32637097      10.40673359         0.00000000       0.00000000       0.00000000          1
H         9.74420666      11.28784414       8.77111542         0.00000000       0.00000000       0.00000000          1
H         9.94221583       8.79164239      11.82698230         0.00000000       0.00000000       0.00000000          1
6
pbc=[F, F, F] list_num_par=6 frozen=false iter=20000 energy=-1.26974174 Lattice="15.00000000 0.00000000 0.00000000 0.00000000 15.00000000 0.00000000 0.00000000 0.00000000 15.00000000" energy_frozen_part=0.00000000 Properties=species:S:1:pos:R:3:velocities:R:3:Z:I:1
H         9.56704620      11.58144208      11.53515953         0.00000000       0.00000000       0.00000000          1
H        10.05555847       8.51104950       9.09741556         0.00000000       0.00000000       0.00000000          1
H         7.85507481       9.77694687      10.26345807         0.00000000       0.00000000       0.00000000          1
H        11.76753428      10.31555388      10.36910773         0.00000000       0.00000000       0.00000000          1
H         9.68618918      11.25983495       8.76267647         0.00000000       0.00000000       0.00000000          1
H         9.93642222       8.83266517      11.86989160         0.00000000       0.00000000       0.00000000          1
6
pbc=[F, F, F] list_num_par=6 frozen=false iter=20000 energy=-1.26974174 Lattice="15.00000000 0.00000000 0.00000000 0.00000000 15.00000000 0.00000000 0.00000000 0.00000000 15.00000000" energy_frozen_part=0.00000000 Properties=species:S:1:pos:R:3:velocities:R:3:Z:I:1
H         9.55338726      11.54362345      11.54632378         0.00000000       0.00000000       0.00000000          1
H        10.13305441       8.53568961       9.05135405         0.00000000       0.00000000       0.00000000          1
H         7.89172469       9.75295572      10.19108275         0.00000000       0.00000000       0.00000000          1
H        11.79471738      10.32635174      10.40659067         0.00000000       0.00000000       0.00000000          1
H         9.74420537      11.28786325       8.77098937         0.00000000       0.00000000       0.00000000          1
H         9.94223498       8.79144662      11.82667988         0.00000000       0.00000000       0.00000000          1
6
pbc=[F, F, F] list_num_par=6 frozen=false iter=20000 energy=-1.26974174 Lattice="15.00000000 0.00000000 0.00000000 0.00000000 15.00000000 0.00000000 0.00000000 0.00000000 15.00000000" energy_frozen_part=0.00000000 Properties=species:S:1:pos:R:3:velocities:R:3:Z:I:1
H         9.56690927      11.58145203      11.53509082         0.00000000       0.00000000       0.00000000          1
H        10.05563744       8.51102314       9.09743461         0.00000000       0.00000000       0.00000000          1
H         7.85505539       9.77687130      10.26333840         0.00000000       0.00000000       0.00000000          1
H        11.76748781      10.31559602      10.36918510         0.00000000       0.00000000       0.00000000          1
H         9.68620153      11.25978732       8.76262428         0.00000000       0.00000000       0.00000000          1
H         9.93633500       8.83268747      11.86990749         0.00000000       0.00000000       0.00000000          1
6
pbc=[F, F, F] list_num_par=6 frozen=false iter=20000 energy=-1.26974174 Lattice="15.00000000 0.00000000 0.00000000 0.00000000 15.00000000 0.00000000 0.00000000 0.00000000 15.00000000" energy_frozen_part=0.00000000 Properties=species:S:1:pos:R:3:velocities:R:3:Z:I:1
H         9.56692268      11.58132214      11.53519859         0.00000000       0.00000000       0.00000000          1
H        10.05519719       8.51114484       9.09712757         0.00000000       0.00000000       0.00000000          1
H         7.85481764       9.77705748      10.26335288         0.00000000       0.00000000       0.00000000          1
H        11.76730500      10.31541240      10.36897232         0.00000000       0.00000000       0.00000000          1
H         9.68598541      11.25998374       8.76268257         0.00000000       0.00000000       0.00000000          1
H         9.93613358       8.83247714      11.86964445         0.00000000       0.00000000       0.00000000          1
6
pbc=[F, F, F] list_num_par=6 frozen=false iter=20000 energy=-1.26974174 Lattice="15.00000000 0.00000000 0.00000000 0.00000000 15.00000000 0.00000000 0.00000000 0.00000000 15.00000000" energy_frozen_part=0.00000000 Properties=species:S:1:pos:R:3:velocities:R:3:Z:I:1
H         9.55347945      11.54380390      11.54643889         0.00000000       0.00000000       0.00000000          1
H        10.13291722       8.53567583       9.05165145         0.00000000       0.00000000       0.00000000          1
H         7.89168642       9.75312388      10.19137310         0.00000000       0.00000000       0.00000000          1
H        11.79471375      10.32635133      10.40671906         0.00000000       0.00000000       0.00000000          1
H         9.74419655      11.28785283       8.77112397         0.00000000       0.00000000       0.00000000          1
H         9.94220920       8.79162514      11.82697400         0.00000000       0.00000000       0.00000000          1
6
pbc=[F, F, F] list_num_par=6 frozen=false iter=20000 energy=-1.26974174 Lattice="15.00000000 0.00000000 0.00000000 0.00000000 15.00000000 0.00000000 0.00000000 0.00000000 15.00000000" energy_frozen_part=0.00000000 Properties=species:S:1:pos:R:3:velocities:R:3:Z:I:1
H         9.55346643      11.54380953      11.54644465         0.00000000       0.00000000       0.00000000          1
H        10.13294154       8.53567332       9.05166198         0.00000000       0.00000000       0.00000000          1
H         7.89169255       9.75313582      10.19135292         0.00000000       0.00000000       0.00000000          1
H        11.79471519      10.32635286      10.40675739         0.00000000       0.00000000       0.00000000          1
H         9.74423055      11.28785034       8.77112733         0.00000000       0.00000000       0.00000000          1
H         9.94218607       8.79163061      11.82697771         0.00000000       0.00000000       0.00000000          1
6
pbc=[F, F, F] list_num_par=6 frozen=false iter=20000 energy=-1.26974174 Lattice="15.00000000 0.00000000 0.00000000 0.00000000 15.00000000 0.00000000 0.00000000 0.00000000 15.00000000" energy_frozen_part=0.00000000 Properties=species:S:1:pos:R:3:velocities:R:3:Z:I:1
H         9.55338428      11.54361451      11.54631669         0.00000000       0.00000000       0.00000000          1
H        10.13305092       8.53566848       9.05135406         0.00000000       0.00000000       0.00000000          1
H         7.89172375       9.75293986      10.19108210         0.00000000       0.00000000       0.00000000          1
H        11.79471531      10.32634353      10.40658817         0.00000000       0.00000000       0.00000000          1
H         9.74420350      11.28784672       8.77099256         0.00000000       0.00000000       0.00000000          1
H         9.94223613       8.79143616      11.82668063         0.00000000       0.00000000       0.00000000          1
6
pbc=[F, F, F] list_num_par=6 frozen=false iter=20000 energy=-1.26974174 Lattice="15.00000000 0.00000000 0.00000000 0.00000000 15.00000000 0.00000000 0.00000000 0.00000000 15.00000000" energy_frozen_part=0.00000000 Properties=species:S:1:pos:R:3:velocities:R:3:Z:I:1
H         9.56702955      11.58143741      11.53518178         0.00000000       0.00000000       0.00000000          1
H        10.05560375       8.51109073       9.09739433         0.00000000       0.00000000       0.00000000          1
H         7.85509277       9.77695174      10.26342676         0.00000000       0.00000000       0.00000000          1
H        11.76754681      10.31558028      10.36915490         0.00000000       0.00000000       0.00000000          1
H         9.68622297      11.25987011       8.76269582         0.00000000       0.00000000       0.00000000          1
H         9.93641710       8.83265409      11.86987913         0.00000000       0.00000000       0.00000000          1
6
pbc=[F, F, F] list_num_par=6 frozen=false iter=20000 energy=-1.26974174 Lattice="15.00000000 0.00000000 0.00000000 0.00000000 15.00000000 0.00000000 0.00000000 0.00000000 15.00000000" energy_frozen_part=0.00000000 Properties=species:S:1:pos:R:3:velocities:R:3:Z:I:1
H         9.55347414      11.54380368      11.54643062         0.00000000       0.00000000       0.00000000          1
H        10.13294033       8.53567343       9.05165841         0.00000000       0.00000000       0.00000000          1
H         7.89169375       9.75312019      10.19135419         0.00000000       0.00000000       0.00000000          1
H        11.79471950      10.32635218      10.40673866         0.00000000       0.00000000       0.00000000          1
H         9.74421864      11.28784525       8.77111680         0.00000000       0.00000000       0.00000000          1
H         9.94220232       8.79162746      11.82697475         0.00000000       0.00000000       0.00000000          1
6
pbc=[F, F, F] list_num_par=6 frozen=false iter=20000 energy=-1.26974174 Lattice="15.00000000 0.00000000 0.00000000 0.00000000 15.00000000 0.00000000 0.00000000 0.00000000 15.00000000" energy_frozen_part=0.00000000 Properties=species:S:1:pos:R:3:velocities:R:3:Z:I:1
H         9.55347463      11.54380588      11.54645721         0.00000000       0.00000000       0.00000000          1
H        10.13294703       8.53567559       9.05166733         0.00000000       0.00000000       0.00000000          1
H         7.89169960       9.75310210      10.19139591         0.00000000       0.00000000       0.00000000          1
H        11.79472048      10.32637613      10.40672706         0.00000000       0.00000000       0.00000000          1
H         9.74417870      11.28784585       8.77113408         0.00000000       0.00000000       0.00000000          1
H         9.94223608       8.79163121      11.82698586         0.00000000       0.00000000       0.00000000          1
6
pbc=[F, F, F] list_num_par=6 frozen=false iter=20000 energy=-1.26974174 Lattice="15.00000000 0.00000000 0.00000000 0.00000000 15.00000000 0.00000000 0.00000000 0.00000000 15.00000000" energy_frozen_part=0.00000000 Properties=species:S:1:pos:R:3:velocities:R:3:Z:I:1
H         9.55347906      11.54379737      11.54644728         0.00000000       0.00000000       0.00000000          1
H        10.13294391       8.53567710       9.05165135         0.00000000       0.00000000       0.00000000          1
H         7.89170391       9.75309920      10.19139388         0.00000000       0.00000000       0.00000000          1
H        11.79471942      10.32636984      10.40670901         0.00000000       0.00000000       0.00000000          1
H         9.74418171      11.28784657       8.77112416         0.00000000       0.00000000       0.00000000          1
H         9.94224321       8.79162371      11.82697106         0.00000000       0.00000000       0.00000000          1
6
pbc=[F, F, F] list_num_par=6 frozen=false iter=20000 energy=-1.26974174 Lattice="15.00000000 0.00000000 0.00000000 0.00000000 15.00000000 0.00000000 0.00000000 0.00000000 15.00000000" energy_frozen_part=0.00000000 Properties=species:S:1:pos:R:3:velocities:R:3:Z:I:1
H         9.55352584      11.54379567      11.54649303         0.00000000       0.00000000       0.00000000          1
H        10.13294680       8.53572823       9.05162617         0.00000000       0.00000000       0.00000000          1
H         7.89171375       9.75319125      10.19134743         0.00000000       0.00000000       0.00000000          1
H        11.79475093      10.32633267      10.40676942         0.00000000       0.00000000       0.00000000          1
H         9.74427200      11.28792167       8.77116733         0.00000000       0.00000000       0.00000000          1
H         9.94218517       8.79160111      11.82695033         0.00000000       0.00000000       0.00000000          1
6
pbc=[F, F, F] list_num_par=6 frozen=false iter=20000 energy=-1.26974174 Lattice="15.00000000 0.00000000 0.00000000 0.00000000 15.00000000 0.00000000 0.00000000 0.00000000 15.00000000" energy_frozen_part=0.00000000 Properties=species:S:1:pos:R:3:velocities:R:3:Z:I:1
H         9.56689771      11.58144799      11.53508322         0.00000000       0.00000000       0.00000000          1
H        10.05562819       8.51102362       9.09741949         0.00000000       0.00000000       0.00000000          1
H         7.85504681       9.77686933      10.26333221         0.00000000       0.00000000       0.00000000          1
H        11.76748052      10.31559968      10.36917174         0.00000000       0.00000000       0.00000000          1
H         9.68618745      11.25978029       8.76261440         0.00000000       0.00000000       0.00000000          1
H         9.93633923       8.83268435      11.86988870         0.00000000       0.00000000       0.00000000          1
6
pbc=[F, F, F] list_num_par=6 frozen=false iter=20000 energy=-1.26974174 Lattice="15.00000000 0.00000000 0.00000000 0.00000000 15.00000000 0.00000000 0.00000000 0.00000000 15.00000000" energy_frozen_part=0.00000000 Properties=species:S:1:pos:R:3:velocities:R:3:Z:I:1
H         9.56668273      11.57934087      11.53871000         0.00000000       0.00000000       0.00000000          1
H        10.05387893       8.51413005       9.09417502         0.00000000       0.00000000       0.00000000          1
H         7.85392064       9.77855545      10.26281210         0.00000000       0.00000000       0.00000000          1
H        11.76663679      10.31491898      10.37007101         0.00000000       0.00000000       0.00000000          1
H         9.68594840      11.26384671       8.76553045         0.00000000       0.00000000       0.00000000          1
H         9.93460523       8.82963169      11.86735668         0.00000000       0.00000000       0.00000000          1
6
pbc=[F, F, F] list_num_par=6 frozen=false iter=20000 energy=-1.26974174 Lattice="15.00000000 0.00000000 0.00000000 0.00000000 15.00000000 0.00000000 0.00000000 0.00000000 15.00000000" energy_frozen_part=0.00000000 Properties=species:S:1:pos:R:3:velocities:R:3:Z:I:1
H         9.56704131      11.58143720      11.53516511         0.00000000       0.00000000       0.00000000          1
H        10.05556566       8.51104654       9.09741988         0.00000000       0.00000000       0.00000000          1
H         7.85507626       9.77693155      10.26346384         0.00000000       0.00000000       0.00000000          1
H        11.76752955      10.31555668      10.36911386         0.00000000       0.00000000       0.00000000          1
H         9.68617934      11.25982653       8.76267765         0.00000000       0.00000000       0.00000000          1
H         9.93641998       8.83266127      11.86990333         0.00000000       0.00000000       0.00000000          1
6
pbc=[F, F, F] list_num_par=6 frozen=false iter=20000 energy=-1.26974174 Lattice="15.00000000 0.00000000 0.00000000 0.00000000 15.00000000 0.00000000 0.00000000 0.00000000 15.00000000" energy_frozen_part=0.00000000 Properties=species:S:1:pos:R:3:velocities:R:3:Z:I:1
H         9.55341746      11.54357720      11.54633920         0.00000000       0.00000000       0.00000000          1
H        10.13302462       8.53566081       9.05133675         0.00000000       0.00000000       0.00000000          1
H         7.89172102       9.75295127      10.19109313         0.00000000       0.00000000       0.00000000          1
H        11.79472544      10.32628615      10.40658443         0.00000000       0.00000000       0.00000000          1
H         9.74421852      11.28784977       8.77100872         0.00000000       0.00000000       0.00000000          1
H         9.94222526       8.79139353      11.82667524         0.00000000       0.00000000       0.00000000          1
6
pbc=[F, F, F] list_num_par=6 frozen=false iter=20000 energy=-1.26974174 Lattice="15.00000000 0.00000000 0.00000000 0.00000000 15.00000000 0.00000000 0.00000000 0.00000000 15.00000000" energy_frozen_part=0.00000000 Properties=species:S:1:pos:R:3:velocities:R:3:Z:I:1
H         9.56671472      11.57937985      11.53803318         0.00000000       0.00000000       0.00000000          1
H        10.05436123       8.51389135       9.09395224         0.00000000       0.00000000       0.00000000          1
H         7.85426665       9.77769654      10.26298866         0.00000000       0.00000000       0.00000000          1
H        11.76681270      10.31557586      10.36899218         0.00000000       0.00000000       0.00000000          1
H         9.68528722      11.26340105       8.76488505         0.00000000       0.00000000       0.00000000          1
H         9.93579320       8.82987819      11.86710517         0.00000000       0.00000000       0.00000000          1
6
pbc=[F, F, F] list_num_par=6 frozen=false iter=20000 energy=-1.26974174 Lattice="15.00000000 0.00000000 0.00000000 0.00000000 15.00000000 0.00000000 0.00000000 0.00000000 15.00000000" energy_frozen_part=0.00000000 Properties=species:S:1:pos:R:3:velocities:R:3:Z:I:1
H         9.55348418      11.54380504      11.54643938         0.00000000       0.00000000       0.00000000          1
H        10.13294854       8.53567116       9.05165839         0.00000000       0.00000000       0.00000000          1
H         7.89170448       9.75312188      10.19136225         0.00000000       0.00000000       0.00000000          1
H        11.79472409      10.32635054      10.40673285         0.00000000       0.00000000       0.00000000          1
H         9.74422151      11.28784759       8.77112040         0.00000000       0.00000000       0.00000000          1
H         9.94220932       8.79162575      11.82697147         0.00000000       0.00000000       0.00000000          1
6
pbc=[F, F, F] list_num_par=6 frozen=false iter=20000 energy=-1.26974174 Lattice="15.00000000 0.00000000 0.00000000 0.00000000 15.00000000 0.00000000 0.00000000 0.00000000 15.00000000" energy_frozen_part=0.00000000 Properties=species:S:1:pos:R:3:velocities:R:3:Z:I:1
H         9.56693761      11.58129147      11.53520222         0.00000000       0.00000000       0.00000000          1
H        10.05519521       8.51112447       9.09712730         0.00000000       0.00000000       0.00000000          1
H         7.85482051       9.77703090      10.26336945         0.00000000       0.00000000       0.00000000          1
H        11.76730876      10.31538760      10.36896448         0.00000000       0.00000000       0.00000000          1
H         9.68597576      11.25996587       8.76268499         0.00000000       0.00000000       0.00000000          1
H         9.93614952       8.83245152      11.86964559         0.00000000       0.00000000       0.00000000          1
6
pbc=[F, F, F] list_num_par=6 frozen=false iter=20000 energy=-1.26974174 Lattice="15.00000000 0.00000000 0.00000000 0.00000000 15.00000000 0.00000000 0.00000000 0.00000000 15.00000000" energy_frozen_part=0.00000000 Properties=species:S:1:pos:R:3:velocities:R:3:Z:I:1
H         9.56693214      11.58129173      11.53520141         0.00000000       0.00000000       0.00000000          1
H        10.05519337       8.51111556       9.09712090         0.00000000       0.00000000       0.00000000          1
H         7.85481963       9.77701789      10.26336541         0.00000000       0.00000000       0.00000000          1
H        11.76730699      10.31539184      10.36895409         0.00000000       0.00000000       0.00000000          1
H         9.68596868      11.25995509       8.76268240         0.00000000       0.00000000       0.00000000          1
H         9.93615444       8.83244935      11.86964216         0.00000000       0.00000000       0.00000000          1
6
pbc=[F, F, F] list_num_par=6 frozen=false iter=20000 energy=-1.26974174 Lattice="15.00000000 0.00000000 0.00000000 0.00000000 15.00000000 0.00000000 0.00000000 0.00000000 15.00000000" energy_frozen_part=0.00000000 Properties=species:S:1:pos:R:3:velocities:R:3:Z:I:1
H         9.56702632      11.58147094      11.53514430         0.00000000       0.00000000       0.00000000          1
H        10.05560388       8.51107448       9.09740736         0.00000000       0.00000000       0.00000000          1
H         7.85509225       9.77695172      10.26343161         0.00000000       0.00000000       0.00000000          1
H        11.76753794      10.31559635      10.36913140         0.00000000       0.00000000       0.00000000          1
H         9.68621027      11.25985307       8.76266552         0.00000000       0.00000000       0.00000000          1
H         9.93641864       8.83269130      11.86988915         0.00000000       0.00000000       0.00000000          1
6
pbc=[F, F, F] list_num_par=6 frozen=false iter=20000 energy=-1.26974174 Lattice="15.00000000 0.00000000 0.00000000 0.00000000 15.00000000 0.00000000 0.00000000 0.00000000 15.00000000" energy_frozen_part=0.00000000 Properties=species:S:1:pos:R:3:velocities:R:3:Z:I:1
H         9.56671008      11.57938125      11.53804458         0.00000000       0.00000000       0.00000000          1
H        10.05437188       8.51389083       9.09397194         0.00000000       0.00000000       0.00000000          1
H         7.85427108       9.77769825      10.26300065         0.00000000       0.00000000       0.00000000          1
H        11.76681666      10.31557733      10.36902080         0.00000000       0.00000000       0.00000000          1
H         9.68529999      11.26339240       8.76489257         0.00000000       0.00000000       0.00000000          1
H         9.93578481       8.82987911      11.86712143         0.00000000       0.00000000       0.00000000          1
6
pbc=[F, F, F] list_num_par=6 frozen=false iter=20000 energy=-1.26974174 Lattice="15.00000000 0.00000000 0.00000000 0.00000000 15.00000000 0.00000000 0.00000000 0.00000000 15.00000000" energy_frozen_part=0.00000000 Properties=species:S:1:pos:R:3:velocities:R:3:Z:I:1
H         9.55342279      11.54358026      11.54634474         0.00000000       0.00000000       0.00000000          1
H        10.13301400       8.53565566       9.05134261         0.00000000       0.00000000       0.00000000          1
H         7.89171894       9.75295442      10.19110444         0.00000000       0.00000000       0.00000000          1
H        11.79472038      10.32628210      10.40658687         0.00000000       0.00000000       0.00000000          1
H         9.74421706      11.28784090       8.77101419         0.00000000       0.00000000       0.00000000          1
H         9.94222740       8.79139738      11.82668148         0.00000000       0.00000000       0.00000000          1
6
pbc=[F, F, F] list_num_par=6 frozen=false iter=20000 energy=-1.26974174 Lattice="15.00000000 0.00000000 0.00000000 0.00000000 15.00000000 0.00000000 0.00000000 0.00000000 15.00000000" energy_frozen_part=0.00000000 Properties=species:S:1:pos:R:3:velocities:R:3:Z:I:1
H         9.56705615      11.58145244      11.53515963         0.00000000       0.00000000       0.00000000          1
H        10.05557212       8.51106455       9.09741198         0.00000000       0.00000000       0.00000000          1
H         7.85508251       9.77695072      10.26345886         0.00000000       0.00000000       0.00000000          1
H        11.76754408      10.31556276      10.36910809         0.00000000       0.00000000       0.00000000          1
H         9.68619471      11.25984548       8.76268285         0.00000000       0.00000000       0.00000000          1
H         9.93643225       8.83267382      11.86988996         0.00000000       0.00000000       0.00000000          1
6
pbc=[F, F, F] list_num_par=6 frozen=false iter=20000 energy=-1.26974174 Lattice="15.00000000 0.00000000 0.00000000 0.00000000 15.00000000 0.00000000 0.00000000 0.00000000 15.00000000" energy_frozen_part=0.00000000 Properties=species:S:1:pos:R:3:velocities:R:3:Z:I:1
H         9.56672269      11.57937221      11.53804675         0.00000000       0.00000000       0.00000000          1
H        10.05436336       8.51388276       9.09396856         0.00000000       0.00000000       0.00000000          1
H         7.85426715       9.77769331      10.26300066         0.00000000       0.00000000       0.00000000          1
H        11.76681703      10.31556743      10.36900509         0.00000000       0.00000000       0.00000000          1
H         9.68529508      11.26339085       8.76489232         0.00000000       0.00000000       0.00000000          1
H         9.93579348       8.82986651      11.86711460         0.00000000       0.00000000       0.00000000          1
6
pbc=[F, F, F] list_num_par=6 frozen=false iter=20000 energy=-1.26974174 Lattice="15.00000000 0.00000000 0.00000000 0.00000000 15.00000000 0.00000000 0.00000000 0.00000000 15.00000000" energy_frozen_part=0.00000000 Properties=species:S:1:pos:R:3:velocities:R:3:Z:I:1
H         9.55337493      11.54361423      11.54631911         0.00000000       0.00000000       0.00000000          1
H        10.13305522       8.53568184       9.05134999         0.00000000       0.00000000       0.00000000          1
H         7.89171978       9.75294930      10.19107687         0.00000000       0.00000000       0.00000000          1
H        11.79471324      10.32634749      10.40659145         0.00000000       0.00000000       0.00000000          1
H         9.74420272      11.28785899       8.77099079         0.00000000       0.00000000       0.00000000          1
H         9.94222931       8.79143657      11.82668075         0.00000000       0.00000000       0.00000000          1
6
pbc=[F, F, F] list_num_par=6 frozen=false iter=20000 energy=-1.26974174 Lattice="15.00000000 0.00000000 0.00000000 0.00000000 15.00000000 0.00000000 0.00000000 0.00000000 15.00000000" energy_frozen_part=0.00000000 Properties=species:S:1:pos:R:3:velocities:R:3:Z:I:1
H         9.55346969      11.54381206      11.54643171         0.00000000       0.00000000       0.00000000          1
H        10.13293678       8.53567771       9.05166150         0.00000000       0.00000000       0.00000000          1
H         7.89169297       9.75313027      10.19136155         0.00000000       0.00000000       0.00000000          1
H        11.79471309      10.32636513      10.40673401         0.00000000       0.00000000       0.00000000          1
H         9.74420767      11.28785558       8.77111590         0.00000000       0.00000000       0.00000000          1
H         9.94220367       8.79163915      11.82698183         0.00000000       0.00000000       0.00000000          1
6
pbc=[F, F, F] list_num_par=6 frozen=false iter=20000 energy=-1.26974174 Lattice="15.00000000 0.00000000 0.00000000 0.00000000 15.00000000 0.00000000 0.00000000 0.00000000 15.00000000" energy_frozen_part=0.00000000 Properties=species:S:1:pos:R:3:velocities:R:3:Z:I:1
H         9.55331111      11.54366006      11.54640547         0.00000000       0.00000000       0.00000000          1
H        10.13298525       8.53569491       9.05147472         0.00000000       0.00000000       0.00000000          1
H         7.89164753       9.75300706      10.19115355         0.00000000       0.00000000       0.00000000          1
H        11.79464604      10.32634721      10.40673163         0.00000000       0.00000000       0.00000000          1
H         9.74418277      11.28787296       8.77108024         0.00000000       0.00000000       0.00000000          1
H         9.94211608       8.79148314      11.82679753         0.00000000       0.00000000       0.00000000          1
6
pbc=[F, F, F] list_num_par=6 frozen=false iter=20000 energy=-1.26974174 Lattice="15.00000000 0.00000000 0.00000000 0.00000000 15.00000000 0.00000000 0.00000000 0.00000000 15.00000000" energy_frozen_part=0.00000000 Properties=species:S:1:pos:R:3:velocities:R:3:Z:I:1
H         9.56694169      11.58129417      11.53519966         0.00000000       0.00000000       0.00000000          1
H        10.05518015       8.51112331       9.09712742         0.00000000       0.00000000       0.00000000          1
H         7.85481089       9.77703268      10.26337395         0.00000000       0.00000000       0.00000000          1
H        11.76730536      10.31538282      10.36895603         0.00000000       0.00000000       0.00000000          1
H         9.68596921      11.25996354       8.76268237         0.00000000       0.00000000       0.00000000          1
H         9.93614741       8.83245347      11.86964797         0.00000000       0.00000000       0.00000000          1
6
pbc=[F, F, F] list_num_par=6 frozen=false iter=20000 energy=-1.26974174 Lattice="15.00000000 0.00000000 0.00000000 0.00000000 15.00000000 0.00000000 0.00000000 0.00000000 15.00000000" energy_frozen_part=0.00000000 Properties=species:S:1:pos:R:3:velocities:R:3:Z:I:1
H         9.55347868      11.54380560      11.54643557         0.00000000       0.00000000       0.00000000          1
H        10.13294139       8.53566819       9.05165772         0.00000000       0.00000000       0.00000000          1
H         7.89169855       9.75312206      10.19136940         0.00000000       0.00000000       0.00000000          1
H        11.79472411      10.32635500      10.40672932         0.00000000       0.00000000       0.00000000          1
H         9.74420877      11.28784013       8.77111411         0.00000000       0.00000000       0.00000000          1
H         9.94220979       8.79162948      11.82697696         0.00000000       0.00000000       0.00000000          1
6
pbc=[F, F, F] list_num_par=6 frozen=false iter=20000 energy=-1.26974174 Lattice="15.00000000 0.00000000 0.00000000 0.00000000 15.00000000 0.00000000 0.00000000 0.00000000 15.00000000" energy_frozen_part=0.00000000 Properties=species:S:1:pos:R:3:velocities:R:3:Z:I:1
H         9.56667520      11.57933768      11.53872309         0.00000000       0.00000000       0.00000000          1
H        10.05388109       8.51414453       9.09417575         0.00000000       0.00000000       0.00000000          1
H         7.85391568       9.77855800      10.26281024         0.00000000       0.00000000       0.00000000          1
H        11.76663188      10.31492230      10.37008862         0.00000000       0.00000000       0.00000000          1
H         9.68595588      11.26385811       8.76554219         0.00000000       0.00000000       0.00000000          1
H         9.93459556       8.82962665      11.86735721         0.00000000       0.00000000       0.00000000          1
6
pbc=[F, F, F] list_num_par=6 frozen=false iter=20000 energy=-1.26974174 Lattice="15.00000000 0.00000000 0.00000000 0.00000000 15.00000000 0.00000000 0.00000000 0.00000000 15.00000000" energy_frozen_part=0.00000000 Properties=species:S:1:pos:R:3:velocities:R:3:Z:I:1
H         9.55330875      11.54366289      11.54642824         0.00000000       0.00000000       0.00000000          1
H        10.13298305       8.53570354       9.05148075         0.00000000       0.00000000       0.00000000          1
H         7.89164996       9.75300336      10.19116631         0.00000000       0.00000000       0.00000000          1
H        11.79464354      10.32636829      10.40673465         0.00000000       0.00000000       0.00000000          1
H         9.74416686      11.28788849       8.77110021         0.00000000       0.00000000       0.00000000          1
H         9.94212821       8.79148179      11.82680482         0.00000000       0.00000000       0.00000000          1
6
pbc=[F, F, F] list_num_par=6 frozen=false iter=20000 energy=-1.26974174 Lattice="15.00000000 0.00000000 0.00000000 0.00000000 15.00000000 0.00000000 0.00000000 0.00000000 15.00000000" energy_frozen_part=0.00000000 Properties=species:S:1:pos:R:3:velocities:R:3:Z:I:1
H         9.56703023      11.58144074      11.53514920         0.00000000       0.00000000       0.00000000          1
H        10.05559916       8.51105171       9.09741056         0.00000000       0.00000000       0.00000000          1
H         7.85508806       9.77692938      10.26343307         0.00000000       0.00000000       0.00000000          1
H        11.76753723      10.31556441      10.36912666         0.00000000       0.00000000       0.00000000          1
H         9.68621003      11.25983170       8.76266614         0.00000000       0.00000000       0.00000000          1
H         9.93641568       8.83266022      11.86989077         0.00000000       0.00000000       0.00000000          1
6
pbc=[F, F, F] list_num_par=6 frozen=false iter=20000 energy=-1.26974174 Lattice="15.00000000 0.00000000 0.00000000 0.00000000 15.00000000 0.00000000 0.00000000 0.00000000 15.00000000" energy_frozen_part=0.00000000 Properties=species:S:1:pos:R:3:velocities:R:3:Z:I:1
H         9.55348243      11.54380391      11.54645541         0.00000000       0.00000000       0.00000000          1
H        10.13293829       8.53568204       9.05166217         0.00000000       0.00000000       0.00000000          1
H         7.89169626       9.75311148      10.19140306         0.00000000       0.00000000       0.00000000          1
H        11.79472127      10.32637826      10.40672088         0.00000000       0.00000000       0.00000000          1
H         9.74417868      11.28785321       8.77113320         0.00000000       0.00000000       0.00000000          1
H         9.94223355       8.79163319      11.82698533         0.00000000       0.00000000       0.00000000          1
6
pbc=[F, F, F] list_num_par=6 frozen=false iter=20000 energy=-1.26974174 Lattice="15.00000000 0.00000000 0.00000000 0.00000000 15.00000000 0.00000000 0.00000000 0.00000000 15.00000000" energy_frozen_part=0.00000000 Properties=species:S:1:pos:R:3:velocities:R:3:Z:I:1
H         9.55345349      11.54381178      11.54643877         0.00000000       0.00000000       0.00000000          1
H        10.13296048       8.53567666       9.05166805         0.00000000       0.00000000       0.00000000          1
H         7.89169765       9.75310168      10.19136266         0.00000000       0.00000000       0.00000000          1
H        11.79471325      10.32637758      10.40674687         0.00000000       0.00000000       0.00000000          1
H         9.74420123      11.28785055       8.77112334         0.00000000       0.00000000       0.00000000          1
H         9.94221169       8.79164128      11.82698965         0.00000000       0.00000000       0.00000000          1
6
pbc=[F, F, F] list_num_par=6 frozen=false iter=20000 energy=-1.26974174 Lattice="15.00000000 0.00000000 0.00000000 0.00000000 15.00000000 0.00000000 0.00000000 0.00000000 15.00000000" energy_frozen_part=0.00000000 Properties=species:S:1:pos:R:3:velocities:R:3:Z:I:1
H         9.56703427      11.58143189      11.53517247         0.00000000       0.00000000       0.00000000          1
H        10.05557677       8.51104792       9.09742358         0.00000000       0.00000000       0.00000000          1
H         7.85508018       9.77690988      10.26347910         0.00000000       0.00000000       0.00000000          1
H        11.76753094      10.31557571      10.36911506         0.00000000       0.00000000       0.00000000          1
H         9.68616636      11.25982709       8.76269205         0.00000000       0.00000000       0.00000000          1
H         9.93644264       8.83266136      11.86990590         0.00000000       0.00000000       0.00000000          1
6
pbc=[F, F, F] list_num_par=6 frozen=false iter=20000 energy=-1.26974174 Lattice="15.00000000 0.00000000 0.00000000 0.00000000 15.00000000 0.00000000 0.00000000 0.00000000 15.00000000" energy_frozen_part=0.00000000 Properties=species:S:1:pos:R:3:velocities:R:3:Z:I:1
H         9.55331665      11.54365596      11.54641511         0.00000000       0.00000000       0.00000000          1
H        10.13298680       8.53569125       9.05147647         0.00000000       0.00000000       0.00000000          1
H         7.89165294       9.75300390      10.19116260         0.00000000       0.00000000       0.00000000          1
H        11.79464778      10.32634065      10.40674009         0.00000000       0.00000000       0.00000000          1
H         9.74418031      11.28787221       8.77109169         0.00000000       0.00000000       0.00000000          1
H         9.94211998       8.79147199      11.82680493         0.00000000       0.00000000       0.00000000          1
6
pbc=[F, F, F] list_num_par=6 frozen=false iter=20000 energy=-1.26974174 Lattice="15.00000000 0.00000000 0.00000000 0.00000000 15.00000000 0.00000000 0.00000000 0.00000000 15.00000000" energy_frozen_part=0.00000000 Properties=species:S:1:pos:R:3:velocities:R:3:Z:I:1
H         9.55347707      11.54380591      11.54643409         0.00000000       0.00000000       0.00000000          1
H        10.13294671       8.53567774       9.05164847         0.00000000       0.00000000       0.00000000          1
H         7.89170131       9.75313290      10.19135035         0.00000000       0.00000000       0.00000000          1
H        11.79472418      10.32635273      10.40673997         0.00000000       0.00000000       0.00000000          1
H         9.74422517      11.28785211       8.77111451         0.00000000       0.00000000       0.00000000          1
H         9.94219886       8.79163192      11.82696976         0.00000000       0.00000000       0.00000000          1
6
pbc=[F, F, F] list_num_par=6 frozen=false iter=20000 energy=-1.26974174 Lattice="15.00000000 0.00000000 0.00000000 0.00000000 15.00000000 0.00000000 0.00000000 0.00000000 15.00000000" energy_frozen_part=0.00000000 Properties=species:S:1:pos:R:3:velocities:R:3:Z:I:1
H         9.56671918      11.57940274      11.53803855         0.00000000       0.00000000       0.00000000          1
H        10.05433589       8.51392028       9.09395311         0.00000000       0.00000000       0.00000000          1
H         7.85425085       9.77773559      10.26300580         0.00000000       0.00000000       0.00000000          1
H        11.76680227      10.31559422      10.36898597         0.00000000       0.00000000       0.00000000          1
H         9.68527258      11.26342323       8.76488167         0.00000000       0.00000000       0.00000000          1
H         9.93577951       8.82989781      11.86710531         0.00000000       0.00000000       0.00000000          1
6
pbc=[F, F, F] list_num_par=6 frozen=false iter=20000 energy=-1.26974174 Lattice="15.00000000 0.00000000 0.00000000 0.00000000 15.00000000 0.00000000 0.00000000 0.00000000 15.00000000" energy_frozen_part=0.00000000 Properties=species:S:1:pos:R:3:velocities:R:3:Z:I:1
H         9.56666252      11.57938671      11.53871024         0.00000000       0.00000000       0.00000000          1
H        10.05387455       8.51414792       9.09423326         0.00000000       0.00000000       0.00000000          1
H         7.85390774       9.77859963      10.26281635         0.00000000       0.00000000       0.00000000          1
H        11.76662548      10.31493455      10.37012467         0.00000000       0.00000000       0.00000000          1
H         9.68597158      11.26385392       8.76553876         0.00000000       0.00000000       0.00000000          1
H         9.93456378       8.82967946      11.86740748         0.00000000       0.00000000       0.00000000          1
6
pbc=[F, F, F] list_num_par=6 frozen=false iter=20000 energy=-1.26974174 Lattice="15.00000000 0.00000000 0.00000000 0.00000000 15.00000000 0.00000000 0.00000000 0.00000000 15.00000000" energy_frozen_part=0.00000000 Properties=species:S:1:pos:R:3:velocities:R:3:Z:I:1
H         9.56703842      11.58145064      11.53515684         0.00000000       0.00000000       0.00000000          1
H        10.05557226       8.51104354       9.09743054         0.00000000       0.00000000       0.00000000          1
H         7.85507683       9.77694653      10.26345066         0.00000000       0.00000000       0.00000000          1
H        11.76752927      10.31555271      10.36912809         0.00000000       0.00000000       0.00000000          1
H         9.68619712      11.25982279       8.76267423         0.00000000       0.00000000       0.00000000          1
H         9.93640287       8.83266895      11.86990887         0.00000000       0.00000000       0.00000000          1
6
pbc=[F, F, F] list_num_par=6 frozen=false iter=20000 energy=-1.26974174 Lattice="15.00000000 0.00000000 0.00000000 0.00000000 15.00000000 0.00000000 0.00000000 0.00000000 15.00000000" energy_frozen_part=0.00000000 Properties=species:S:1:pos:R:3:velocities:R:3:Z:I:1
H         9.56666396      11.57933626      11.53869485         0.00000000       0.00000000       0.00000000          1
H        10.05387910       8.51413141       9.09417244         0.00000000       0.00000000       0.00000000          1
H         7.85390923       9.77855923      10.26278610         0.00000000       0.00000000       0.00000000          1
H        11.76663258      10.31491061      10.37008021         0.00000000       0.00000000       0.00000000          1
H         9.68596484      11.26383866       8.76551465         0.00000000       0.00000000       0.00000000          1
H         9.93458391       8.82962487      11.86734912         0.00000000       0.00000000       0.00000000          1
6
pbc=[F, F, F] list_num_par=6 frozen=false iter=20000 energy=-1.26974174 Lattice="15.00000000 0.00000000 0.00000000 0.00000000 15.00000000 0.00000000 0.00000000 0.00000000 15.00000000" energy_frozen_part=0.00000000 Properties=species:S:1:pos:R:3:velocities:R:3:Z:I:1
H         9.55336098      11.54359719      11.54636267         0.00000000       0.00000000       0.00000000          1
H        10.13304270       8.53567900       9.05137099         0.00000000       0.00000000       0.00000000          1
H         7.89170620       9.75294638      10.19108383         0.00000000       0.00000000       0.00000000          1
H        11.79469376      10.32632826      10.40664783         0.00000000       0.00000000       0.00000000          1
H         9.74420967      11.28785905       8.77103053         0.00000000       0.00000000       0.00000000          1
H         9.94219263       8.79141077      11.82670418         0.00000000       0.00000000       0.00000000          1
6
pbc=[F, F, F] list_num_par=6 frozen=false iter=20000 energy=-1.26974174 Lattice="15.00000000 0.00000000 0.00000000 0.00000000 15.00000000 0.00000000 0.00000000 0.00000000 15.00000000" energy_frozen_part=0.00000000 Properties=species:S:1:pos:R:3:velocities:R:3:Z:I:1
H         9.55336073      11.54359566      11.54636823         0.00000000       0.00000000       0.00000000          1
H        10.13304716       8.53568494       9.05136884         0.00000000       0.00000000       0.00000000          1
H         7.89170391       9.75295258      10.19108509         0.00000000       0.00000000       0.00000000          1
H        11.79469790      10.32633164      10.40665116         0.00000000       0.00000000       0.00000000          1
H         9.74421232      11.28786766       8.77103621         0.00000000       0.00000000       0.00000000          1
H         9.94218941       8.79141915      11.82670019         0.00000000       0.00000000       0.00000000          1
6
pbc=[F, F, F] list_num_par=6 frozen=false iter=20000 energy=-1.26974174 Lattice="15.00000000 0.00000000 0.00000000 0.00000000 15.00000000 0.00000000 0.00000000 0.00000000 15.00000000" energy_frozen_part=0.00000000 Properties=species:S:1:pos:R:3:velocities:R:3:Z:I:1
H         9.56665939      11.57938378      11.53871193         0.00000000       0.00000000       0.00000000          1
H        10.05387511       8.51414565       9.09422929         0.00000000       0.00000000       0.00000000          1
H         7.85390654       9.77859431      10.26281946         0.00000000       0.00000000       0.00000000          1
H        11.76662723      10.31493831      10.37012574         0.00000000       0.00000000       0.00000000          1
H         9.68596593      11.26384975       8.76553524         0.00000000       0.00000000       0.00000000          1
H         9.93456588       8.82967102      11.86740009         0.00000000       0.00000000       0.00000000          1
6
pbc=[F, F, F] list_num_par=6 frozen=false iter=20000 energy=-1.26974174 Lattice="15.00000000 0.00000000 0.00000000 0.00000000 15.00000000 0.00000000 0.00000000 0.00000000 15.00000000" energy_frozen_part=0.00000000 Properties=species:S:1:pos:R:3:velocities:R:3:Z:I:1
H         9.56674142      11.57936891      11.53804502         0.00000000       0.00000000       0.00000000          1
H        10.05435296       8.51387793       9.09395802         0.00000000       0.00000000       0.00000000          1
H         7.85426620       9.77770018      10.26300583         0.00000000       0.00000000       0.00000000          1
H        11.76682477      10.31554896      10.36899554         0.00000000       0.00000000       0.00000000          1
H         9.68529646      11.26338321       8.76488924         0.00000000       0.00000000       0.00000000          1
H         9.93579285       8.82986269      11.86710884         0.00000000       0.00000000       0.00000000          1
6
pbc=[F, F, F] list_num_par=6 frozen=false iter=20000 energy=-1.26974174 Lattice="15.00000000 0.00000000 0.00000000 0.00000000 15.00000000 0.00000000 0.00000000 0.00000000 15.00000000" energy_frozen_part=0.00000000 Properties=species:S:1:pos:R:3:velocities:R:3:Z:I:1
H         9.56703080      11.58147466      11.53513670         0.00000000       0.00000000       0.00000000          1
H        10.05560337       8.51107338       9.09741003         0.00000000       0.00000000       0.00000000          1
H         7.85509284       9.77695123      10.26342353         0.00000000       0.00000000       0.00000000          1
H        11.76753677      10.31559312      10.36912191         0.00000000       0.00000000       0.00000000          1
H         9.68620901      11.25985304       8.76265712         0.00000000       0.00000000       0.00000000          1
H         9.93642156       8.83269092      11.86988784         0.00000000       0.00000000       0.00000000          1
6
pbc=[F, F, F] list_num_par=6 frozen=false iter=20000 energy=-1.26974174 Lattice="15.00000000 0.00000000 0.00000000 0.00000000 15.00000000 0.00000000 0.00000000 0.00000000 15.00000000" energy_frozen_part=0.00000000 Properties=species:S:1:pos:R:3:velocities:R:3:Z:I:1
H         9.56703472      11.58145025      11.53515257         0.00000000       0.00000000       0.00000000          1
H        10.05557957       8.51105028       9.09741335         0.00000000       0.00000000       0.00000000          1
H         7.85508697       9.77693982      10.26344080         0.00000000       0.00000000       0.00000000          1
H        11.76753419      10.31555755      10.36912779         0.00000000       0.00000000       0.00000000          1
H         9.68620544      11.25982967       8.76266982         0.00000000       0.00000000       0.00000000          1
H         9.93641549       8.83266558      11.86989684         0.00000000       0.00000000       0.00000000          1
6
pbc=[F, F, F] list_num_par=6 frozen=false iter=20000 energy=-1.26974174 Lattice="15.00000000 0.00000000 0.00000000 0.00000000 15.00000000 0.00000000 0.00000000 0.00000000 15.00000000" energy_frozen_part=0.00000000 Properties=species:S:1:pos:R:3:velocities:R:3:Z:I:1
H         9.56669106      11.57934531      11.53871241         0.00000000       0.00000000       0.00000000          1
H        10.05388742       8.51413763       9.09417448         0.00000000       0.00000000       0.00000000          1
H         7.85393044       9.77855838      10.26281477         0.00000000       0.00000000       0.00000000          1
H        11.76665128      10.31492165      10.37007140         0.00000000       0.00000000       0.00000000          1
H         9.68595866      11.26384905       8.76553451         0.00000000       0.00000000       0.00000000          1
H         9.93462277       8.82963069      11.86735392         0.00000000       0.00000000       0.00000000          1
6
pbc=[F, F, F] list_num_par=6 frozen=false iter=20000 energy=-1.26974174 Lattice="15.00000000 0.00000000 0.00000000 0.00000000 15.00000000 0.00000000 0.00000000 0.00000000 15.00000000" energy_frozen_part=0.00000000 Properties=species:S:1:pos:R:3:velocities:R:3:Z:I:1
H         9.56670911      11.57937634      11.53804393         0.00000000       0.00000000       0.00000000          1
H        10.05437232       8.51389288       9.09395616         0.00000000       0.00000000       0.00000000          1
H         7.85426661       9.77768542      10.26298994         0.00000000       0.00000000       0.00000000          1
H        11.76680897      10.31558511      10.36900197         0.00000000       0.00000000       0.00000000          1
H         9.68528709      11.26339874       8.76488697         0.00000000       0.00000000       0.00000000          1
H         9.93578957       8.82987396      11.86710751         0.00000000       0.00000000       0.00000000          1
6
pbc=[F, F, F] list_num_par=6 frozen=false iter=20000 energy=-1.26974174 Lattice="15.00000000 0.00000000 0.00000000 0.00000000 15.00000000 0.00000000 0.00000000 0.00000000 15.00000000" energy_frozen_part=0.00000000 Properties=species:S:1:pos:R:3:velocities:R:3:Z:I:1
H         9.55351392      11.54380121      11.54648503         0.00000000       0.00000000       0.00000000          1
H        10.13293708       8.53570740       9.05164050         0.00000000       0.00000000       0.00000000          1
H         7.89171312       9.75317759      10.19136793         0.00000000       0.00000000       0.00000000          1
H        11.79474106      10.32633784      10.40676200         0.00000000       0.00000000       0.00000000          1
H         9.74425567      11.28789695       8.77116051         0.00000000       0.00000000       0.00000000          1
H         9.94219781       8.79161381      11.82696724         0.00000000       0.00000000       0.00000000          1
6
pbc=[F, F, F] list_num_par=6 frozen=false iter=20000 energy=-1.26974174 Lattice="15.00000000 0.00000000 0.00000000 0.00000000 15.00000000 0.00000000 0.00000000 0.00000000 15.00000000" energy_frozen_part=0.00000000 Properties=species:S:1:pos:R:3:velocities:R:3:Z:I:1
H         9.56705803      11.58144463      11.53516794         0.00000000       0.00000000       0.00000000          1
H        10.05558003       8.51105288       9.09742787         0.00000000       0.00000000       0.00000000          1
H         7.85509266       9.77695187      10.26345758         0.00000000       0.00000000       0.00000000          1
H        11.76754651      10.31554933      10.36914087         0.00000000       0.00000000       0.00000000          1
H         9.68622438      11.25983591       8.76269018         0.00000000       0.00000000       0.00000000          1
H         9.93641576       8.83266105      11.86990904         0.00000000       0.00000000       0.00000000          1
6
pbc=[F, F, F] list_num_par=6 frozen=false iter=20000 energy=-1.26974174 Lattice="15.00000000 0.00000000 0.00000000 0.00000000 15.00000000 0.00000000 0.00000000 0.00000000 15.00000000" energy_frozen_part=0.00000000 Properties=species:S:1:pos:R:3:velocities:R:3:Z:I:1
H         9.55350312      11.54381159      11.54644402         0.00000000       0.00000000       0.00000000          1
H        10.13295041       8.53567144       9.05166474         0.00000000       0.00000000       0.00000000          1
H         7.89171413       9.75314146      10.19136247         0.00000000       0.00000000       0.00000000          1
H        11.79474188      10.32633527      10.40675035         0.00000000       0.00000000       0.00000000          1
H         9.74425283      11.28784618       8.77112628         0.00000000       0.00000000       0.00000000          1
H         9.94220664       8.79163286      11.82698200         0.00000000       0.00000000       0.00000000          1
6
pbc=[F, F, F] list_num_par=6 frozen=false iter=20000 energy=-1.26974174 Lattice="15.00000000 0.00000000 0.00000000 0.00000000 15.00000000 0.00000000 0.00000000 0.00000000 15.00000000" energy_frozen_part=0.00000000 Properties=species:S:1:pos:R:3:velocities:R:3:Z:I:1
H         9.55347741      11.54380648      11.54644603         0.00000000       0.00000000       0.00000000          1
H        10.13293882       8.53567290       9.05166514         0.00000000       0.00000000       0.00000000          1
H         7.89169551       9.75313307      10.19135367         0.00000000       0.00000000       0.00000000          1
H        11.79471887      10.32635031      10.40674888         0.00000000       0.00000000       0.00000000          1
H         9.74422413      11.28785593       8.77112657         0.00000000       0.00000000       0.00000000          1
H         9.94219184       8.79163203      11.82698140         0.00000000       0.00000000       0.00000000          1
6
pbc=[F, F, F] list_num_par=6 frozen=false iter=20000 energy=-1.26974174 Lattice="15.00000000 0.00000000 0.00000000 0.00000000 15.00000000 0.00000000 0.00000000 0.00000000 15.00000000" energy_frozen_part=0.00000000 Properties=species:S:1:pos:R:3:velocities:R:3:Z:I:1
H         9.56694172      11.58129629      11.53519920         0.00000000       0.00000000       0.00000000          1
H        10.05519562       8.51111614       9.09712470         0.00000000       0.00000000       0.00000000          1
H         7.85482383       9.77703218      10.26336142         0.00000000       0.00000000       0.00000000          1
H        11.76731384      10.31538650      10.36896153         0.00000000       0.00000000       0.00000000          1
H         9.68598961      11.25996058       8.76268282         0.00000000       0.00000000       0.00000000          1
H         9.93615252       8.83245432      11.86964276         0.00000000       0.00000000       0.00000000          1
6
pbc=[F, F, F] list_num_par=6 frozen=false iter=20000 energy=-1.26974174 Lattice="15.00000000 0.00000000 0.00000000 0.00000000 15.00000000 0.00000000 0.00000000 0.00000000 15.00000000" energy_frozen_part=0.00000000 Properties=species:S:1:pos:R:3:velocities:R:3:Z:I:1
H         9.56703993      11.58145238      11.53515210         0.00000000       0.00000000       0.00000000          1
H        10.05556500       8.51105210       9.09741484         0.00000000       0.00000000       0.00000000          1
H         7.85507791       9.77695039      10.26344532         0.00000000       0.00000000       0.00000000          1
H        11.76753025      10.31555829      10.36911791         0.00000000       0.00000000       0.00000000          1
H         9.68620426      11.25983569       8.76267076         0.00000000       0.00000000       0.00000000          1
H         9.93641399       8.83267208      11.86989594         0.00000000       0.00000000       0.00000000          1
6
pbc=[F, F, F] list_num_par=6 frozen=false iter=20000 energy=-1.26974174 Lattice="15.00000000 0.00000000 0.00000000 0.00000000 15.00000000 0.00000000 0.00000000 0.00000000 15.00000000" energy_frozen_part=0.00000000 Properties=species:S:1:pos:R:3:velocities:R:3:Z:I:1
H         9.56702889      11.58146982      11.53514072         0.00000000       0.00000000       0.00000000          1
H        10.05561121       8.51106274       9.09741874         0.00000000       0.00000000       0.00000000          1
H         7.85509742       9.77694459      10.26343123         0.00000000       0.00000000       0.00000000          1
H        11.76754407      10.31559340      10.36913155         0.00000000       0.00000000       0.00000000          1
H         9.68621194      11.25984409       8.76266467         0.00000000       0.00000000       0.00000000          1
H         9.93642718       8.83269452      11.86989732         0.00000000       0.00000000       0.00000000          1
6
pbc=[F, F, F] list_num_par=6 frozen=false iter=20000 energy=-1.26974174 Lattice="15.00000000 0.00000000 0.00000000 0.00000000 15.00000000 0.00000000 0.00000000 0.00000000 15.00000000" energy_frozen_part=0.00000000 Properties=species:S:1:pos:R:3:velocities:R:3:Z:I:1
H         9.55351782      11.54381534      11.54648238         0.00000000       0.00000000       0.00000000          1
H        10.13294194       8.53570788       9.05165713         0.00000000       0.00000000       0.00000000          1
H         7.89171456       9.75318188      10.19136469         0.00000000       0.00000000       0.00000000          1
H        11.79474367      10.32634493      10.40677362         0.00000000       0.00000000       0.00000000          1
H         9.74426667      11.28789812       8.77116242         0.00000000       0.00000000       0.00000000          1
H         9.94219279       8.79162711      11.82698098         0.00000000       0.00000000       0.00000000          1
6
pbc=[F, F, F] list_num_par=6 frozen=false iter=20000 energy=-1.26974174 Lattice="15.00000000 0.00000000 0.00000000 0.00000000 15.00000000 0.00000000 0.00000000 0.00000000 15.00000000" energy_frozen_part=0.00000000 Properties=species:S:1:pos:R:3:velocities:R:3:Z:I:1
H         9.56689198      11.58144086      11.53508329         0.00000000       0.00000000       0.00000000          1
H        10.05564200       8.51101412       9.09742641         0.00000000       0.00000000       0.00000000          1
H         7.85505328       9.77684961      10.26333699         0.00000000       0.00000000       0.00000000          1
H        11.76748382      10.31560018      10.36918209         0.00000000       0.00000000       0.00000000          1
H         9.68619091      11.25977517       8.76261598         0.00000000       0.00000000       0.00000000          1
H         9.93634820       8.83268252      11.86989963         0.00000000       0.00000000       0.00000000          1
6
pbc=[F, F, F] list_num_par=6 frozen=false iter=20000 energy=-1.26974174 Lattice="15.00000000 0.00000000 0.00000000 0.00000000 15.00000000 0.00000000 0.00000000 0.00000000 15.00000000" energy_frozen_part=0.00000000 Properties=species:S:1:pos:R:3:velocities:R:3:Z:I:1
H         9.55331124      11.54366039      11.54641533         0.00000000       0.00000000       0.00000000          1
H        10.13298998       8.53569378       9.05147724         0.00000000       0.00000000       0.00000000          1
H         7.89165155       9.75300451      10.19115706         0.00000000       0.00000000       0.00000000          1
H        11.79464781      10.32635196      10.40674219         0.00000000       0.00000000       0.00000000          1
H         9.74418155      11.28787180       8.77109067         0.00000000       0.00000000       0.00000000          1
H         9.94211293       8.79147743      11.82680224         0.00000000       0.00000000       0.00000000          1
6
pbc=[F, F, F] list_num_par=6 frozen=false iter=20000 energy=-1.26974174 Lattice="15.00000000 0.00000000 0.00000000 0.00000000 15.00000000 0.00000000 0.00000000 0.00000000 15.00000000" energy_frozen_part=0.00000000 Properties=species:S:1:pos:R:3:velocities:R:3:Z:I:1
H         9.55346496      11.54381320      11.54643076         0.00000000       0.00000000       0.00000000          1
H        10.13295348       8.53566978       9.05167325         0.00000000       0.00000000       0.00000000          1
H         7.89170310       9.75310675      10.19137083         0.00000000       0.00000000       0.00000000          1
H        11.79471911      10.32637883      10.40673840         0.00000000       0.00000000       0.00000000          1
H         9.74420208      11.28784407       8.77111523         0.00000000       0.00000000       0.00000000          1
H         9.94222138       8.79164439      11.82699159         0.00000000       0.00000000       0.00000000          1
6
pbc=[F, F, F] list_num_par=6 frozen=false iter=20000 energy=-1.26974174 Lattice="15.00000000 0.00000000 0.00000000 0.00000000 15.00000000 0.00000000 0.00000000 0.00000000 15.00000000" energy_frozen_part=0.00000000 Properties=species:S:1:pos:R:3:velocities:R:3:Z:I:1
H         9.55346758      11.54380069      11.54645313         0.00000000       0.00000000       0.00000000          1
H        10.13294160       8.53567705       9.05165893         0.00000000       0.00000000       0.00000000          1
H         7.89169889       9.75310087      10.19138951         0.00000000       0.00000000       0.00000000          1
H        11.79471191      10.32637211      10.40672603         0.00000000       0.00000000       0.00000000          1
H         9.74417712      11.28785128       8.77113263         0.00000000       0.00000000       0.00000000          1
H         9.94223110       8.79162581      11.82697992         0.00000000       0.00000000       0.00000000          1
6
pbc=[F, F, F] list_num_par=6 frozen=false iter=20000 energy=-1.26974174 Lattice="15.00000000 0.00000000 0.00000000 0.00000000 15.00000000 0.00000000 0.00000000 0.00000000 15.00000000" energy_frozen_part=0.00000000 Properties=species:S:1:pos:R:3:velocities:R:3:Z:I:1
H         9.55335914      11.54359768      11.54636175         0.00000000       0.00000000       0.00000000          1
H        10.13304345       8.53568280       9.05136997         0.00000000       0.00000000       0.00000000          1
H         7.89170602       9.75295445      10.19108372         0.00000000       0.00000000       0.00000000          1
H        11.79470118      10.32632965      10.40665268         0.00000000       0.00000000       0.00000000          1
H         9.74421881      11.28786462       8.77103146         0.00000000       0.00000000       0.00000000          1
H         9.94218971       8.79142033      11.82669949         0.00000000       0.00000000       0.00000000          1
6
pbc=[F, F, F] list_num_par=6 frozen=false iter=20000 energy=-1.26974174 Lattice="15.00000000 0.00000000 0.00000000 0.00000000 15.00000000 0.00000000 0.00000000 0.00000000 15.00000000" energy_frozen_part=0.00000000 Properties=species:S:1:pos:R:3:velocities:R:3:Z:I:1
H         9.56704974      11.58144271      11.53516996         0.00000000       0.00000000       0.00000000          1
H        10.05557749       8.51105282       9.09742557         0.00000000       0.00000000       0.00000000          1
H         7.85508708       9.77695469      10.26345164         0.00000000       0.00000000       0.00000000          1
H        11.76754472      10.31554811      10.36914265         0.00000000       0.00000000       0.00000000          1
H         9.68621701      11.25983743       8.76268876         0.00000000       0.00000000       0.00000000          1
H         9.93641072       8.83266347      11.86990843         0.00000000       0.00000000       0.00000000          1
6
pbc=[F, F, F] list_num_par=6 frozen=false iter=20000 energy=-1.26974174 Lattice="15.00000000 0.00000000 0.00000000 0.00000000 15.00000000 0.00000000 0.00000000 0.00000000 15.00000000" energy_frozen_part=0.00000000 Properties=species:S:1:pos:R:3:velocities:R:3:Z:I:1
H         9.55330357      11.54366245      11.54640959         0.00000000       0.00000000       0.00000000          1
H        10.13298799       8.53569684       9.05148094         0.00000000       0.00000000       0.00000000          1
H         7.89165379       9.75300395      10.19114663         0.00000000       0.00000000       0.00000000          1
H        11.79464315      10.32635271      10.40674221         0.00000000       0.00000000       0.00000000          1
H         9.74418748      11.28787447       8.77108471         0.00000000       0.00000000       0.00000000          1
H         9.94211398       8.79148555      11.82680527         0.00000000       0.00000000       0.00000000          1
6
pbc=[F, F, F] list_num_par=6 frozen=false iter=20000 energy=-1.26974174 Lattice="15.00000000 0.00000000 0.00000000 0.00000000 15.00000000 0.00000000 0.00000000 0.00000000 15.00000000" energy_frozen_part=0.00000000 Properties=species:S:1:pos:R:3:velocities:R:3:Z:I:1
H         9.55350014      11.54381758      11.54643226         0.00000000       0.00000000       0.00000000          1
H        10.13294256       8.53567357       9.05166769         0.00000000       0.00000000       0.00000000          1
H         7.89170520       9.75315018      10.19135907         0.00000000       0.00000000       0.00000000          1
H        11.79473915      10.32633607      10.40674838         0.00000000       0.00000000       0.00000000          1
H         9.74425153      11.28784889       8.77111958         0.00000000       0.00000000       0.00000000          1
H         9.94219787       8.79163578      11.82698216         0.00000000       0.00000000       0.00000000          1
6
pbc=[F, F, F] list_num_par=6 frozen=false iter=20000 energy=-1.26974174 Lattice="15.00000000 0.00000000 0.00000000 0.00000000 15.00000000 0.00000000 0.00000000 0.00000000 15.00000000" energy_frozen_part=0.00000000 Properties=species:S:1:pos:R:3:velocities:R:3:Z:I:1
H         9.55349145      11.54378724      11.54649225         0.00000000       0.00000000       0.00000000          1
H        10.13294342       8.53571617       9.05163270         0.00000000       0.00000000       0.00000000          1
H         7.89170067       9.75315988      10.19135417         0.00000000       0.00000000       0.00000000          1
H        11.79473188      10.32633884      10.40676848         0.00000000       0.00000000       0.00000000          1
H         9.74424610      11.28790538       8.77117042         0.00000000       0.00000000       0.00000000          1
H         9.94218565       8.79159571      11.82695663         0.00000000       0.00000000       0.00000000          1
6
pbc=[F, F, F] list_num_par=6 frozen=false iter=20000 energy=-1.26974174 Lattice="15.00000000 0.00000000 0.00000000 0.00000000 15.00000000 0.00000000 0.00000000 0.00000000 15.00000000" energy_frozen_part=0.00000000 Properties=species:S:1:pos:R:3:velocities:R:3:Z:I:1
H         9.56666646      11.57937981      11.53871625         0.00000000       0.00000000       0.00000000          1
H        10.05387434       8.51414041       9.09423294         0.00000000       0.00000000       0.00000000          1
H         7.85391050       9.77858419      10.26282476         0.00000000       0.00000000       0.00000000          1
H        11.76663253      10.31493122      10.37012830         0.00000000       0.00000000       0.00000000          1
H         9.68596655      11.26384631       8.76554660         0.00000000       0.00000000       0.00000000          1
H         9.93457174       8.82967430      11.86740553         0.00000000       0.00000000       0.00000000          1
6
pbc=[F, F, F] list_num_par=6 frozen=false iter=20000 energy=-1.26974174 Lattice="15.00000000 0.00000000 0.00000000 0.00000000 15.00000000 0.00000000 0.00000000 0.00000000 15.00000000" energy_frozen_part=0.00000000 Properties=species:S:1:pos:R:3:velocities:R:3:Z:I:1
H         9.56704892      11.58145254      11.53517337         0.00000000       0.00000000       0.00000000          1
H        10.05556206       8.51106192       9.09741381         0.00000000       0.00000000       0.00000000          1
H         7.85507859       9.77696797      10.26345318         0.00000000       0.00000000       0.00000000          1
H        11.76753435      10.31554325      10.36913900         0.00000000       0.00000000       0.00000000          1
H         9.68621214      11.25984881       8.76268767         0.00000000       0.00000000       0.00000000          1
H         9.93639632       8.83266236      11.86989906         0.00000000       0.00000000       0.00000000          1
6
pbc=[F, F, F] list_num_par=6 frozen=false iter=20000 energy=-1.26974174 Lattice="15.00000000 0.00000000 0.00000000 0.00000000 15.00000000 0.00000000 0.00000000 0.00000000 15.00000000" energy_frozen_part=0.00000000 Properties=species:S:1:pos:R:3:velocities:R:3:Z:I:1
H         9.56702419      11.58146921      11.53514310         0.00000000       0.00000000       0.00000000          1
H        10.05561878       8.51106465       9.09741592         0.00000000       0.00000000       0.00000000          1
H         7.85509912       9.77693514      10.26342895         0.00000000       0.00000000       0.00000000          1
H        11.76754003      10.31559518      10.36913565         0.00000000       0.00000000       0.00000000          1
H         9.68621368      11.25984297       8.76266384         0.00000000       0.00000000       0.00000000          1
H         9.93642728       8.83269036      11.86989754         0.00000000       0.00000000       0.00000000          1
6
pbc=[F, F, F] list_num_par=6 frozen=false iter=20000 energy=-1.26974174 Lattice="15.00000000 0.00000000 0.00000000 0.00000000 15.00000000 0.00000000 0.00000000 0.00000000 15.00000000" energy_frozen_part=0.00000000 Properties=species:S:1:pos:R:3:velocities:R:3:Z:I:1
H         9.56693563      11.58131890      11.53520028         0.00000000       0.00000000       0.00000000          1
H        10.05520275       8.51114378       9.09712759         0.00000000       0.00000000       0.00000000          1
H         7.85482152       9.77705195      10.26335907         0.00000000       0.00000000       0.00000000          1
H        11.76731642      10.31540542      10.36897096         0.00000000       0.00000000       0.00000000          1
H         9.68598987      11.25998130       8.76268280         0.00000000       0.00000000       0.00000000          1
H         9.93614034       8.83247757      11.86964366         0.00000000       0.00000000       0.00000000          1
6
pbc=[F, F, F] list_num_par=6 frozen=false iter=20000 energy=-1.26974174 Lattice="15.00000000 0.00000000 0.00000000 0.00000000 15.00000000 0.00000000 0.00000000 0.00000000 15.00000000" energy_frozen_part=0.00000000 Properties=species:S:1:pos:R:3:velocities:R:3:Z:I:1
H         9.56690522      11.58145201      11.53507374         0.00000000       0.00000000       0.00000000          1
H        10.05563134       8.51100938       9.09744056         0.00000000       0.00000000       0.00000000          1
H         7.85505125       9.77687228      10.26333201         0.00000000       0.00000000       0.00000000          1
H        11.76748593      10.31559030      10.36917425         0.00000000       0.00000000       0.00000000          1
H         9.68620347      11.25977017       8.76260506         0.00000000       0.00000000       0.00000000          1
H         9.93633346       8.83269487      11.86990470         0.00000000       0.00000000       0.00000000          1
6
pbc=[F, F, F] list_num_par=6 frozen=false iter=20000 energy=-1.26974174 Lattice="15.00000000 0.00000000 0.00000000 0.00000000 15.00000000 0.00000000 0.00000000 0.00000000 15.00000000" energy_frozen_part=0.00000000 Properties=species:S:1:pos:R:3:velocities:R:3:Z:I:1
H         9.56666501      11.57938219      11.53871756         0.00000000       0.00000000       0.00000000          1
H        10.05387098       8.51415022       9.09422585         0.00000000       0.00000000       0.00000000          1
H         7.85390686       9.77858954      10.26282317         0.00000000       0.00000000       0.00000000          1
H        11.76662725      10.31493634      10.37012422         0.00000000       0.00000000       0.00000000          1
H         9.68596214      11.26385387       8.76554340         0.00000000       0.00000000       0.00000000          1
H         9.93457409       8.82967351      11.86740144         0.00000000       0.00000000       0.00000000          1
6
pbc=[F, F, F] list_num_par=6 frozen=false iter=20000 energy=-1.26974174 Lattice="15.00000000 0.00000000 0.00000000 0.00000000 15.00000000 0.00000000 0.00000000 0.00000000 15.00000000" energy_frozen_part=0.00000000 Properties=species:S:1:pos:R:3:velocities:R:3:Z:I:1
H         9.56702326      11.58146585      11.53514217         0.00000000       0.00000000       0.00000000          1
H        10.05561095       8.51106537       9.09741796         0.00000000       0.00000000       0.00000000          1
H         7.85509443       9.77693281      10.26342921         0.00000000       0.00000000       0.00000000          1
H        11.76754397      10.31559475      10.36912902         0.00000000       0.00000000       0.00000000          1
H         9.68620632      11.25984077       8.76266851         0.00000000       0.00000000       0.00000000          1
H         9.93642772       8.83269285      11.86989530         0.00000000       0.00000000       0.00000000          1
6
pbc=[F, F, F] list_num_par=6 frozen=false iter=20000 energy=-1.26974174 Lattice="15.00000000 0.00000000 0.00000000 0.00000000 15.00000000 0.00000000 0.00000000 0.00000000 15.00000000" energy_frozen_part=0.00000000 Properties=species:S:1:pos:R:3:velocities:R:3:Z:I:1
H         9.56668515      11.57937607      11.53803081         0.00000000       0.00000000       0.00000000          1
H        10.05437079       8.51388647       9.09396240         0.00000000       0.00000000       0.00000000          1
H         7.85425686       9.77767839      10.26298068         0.00000000       0.00000000       0.00000000          1
H        11.76680018      10.31558509      10.36901759         0.00000000       0.00000000       0.00000000          1
H         9.68528695      11.26338411       8.76487929         0.00000000       0.00000000       0.00000000          1
H         9.93577190       8.82987385      11.86711320         0.00000000       0.00000000       0.00000000          1
6
pbc=[F, F, F] list_num_par=6 frozen=false iter=20000 energy=-1.26974174 Lattice="15.00000000 0.00000000 0.00000000 0.00000000 15.00000000 0.00000000 0.00000000 0.00000000 15.00000000" energy_frozen_part=0.00000000 Properties=species:S:1:pos:R:3:velocities:R:3:Z:I:1
H         9.56702325      11.58144342      11.53514984         0.00000000       0.00000000       0.00000000          1
H        10.05561470       8.51106500       9.09740199         0.00000000       0.00000000       0.00000000          1
H         7.85509267       9.77692325      10.26341720         0.00000000       0.00000000       0.00000000          1
H        11.76754194      10.31557809      10.36913298         0.00000000       0.00000000       0.00000000          1
H         9.68621142      11.25983830       8.76266798         0.00000000       0.00000000       0.00000000          1
H         9.93642155       8.83266686      11.86988241         0.00000000       0.00000000       0.00000000          1
6
pbc=[F, F, F] list_num_par=6 frozen=false iter=20000 energy=-1.26974174 Lattice="15.00000000 0.00000000 0.00000000 0.00000000 15.00000000 0.00000000 0.00000000 0.00000000 15.00000000" energy_frozen_part=0.00000000 Properties=species:S:1:pos:R:3:velocities:R:3:Z:I:1
H         9.55352220      11.54382106      11.54648014         0.00000000       0.00000000       0.00000000          1
H        10.13294528       8.53570206       9.05166481         0.00000000       0.00000000       0.00000000          1
H         7.89171819       9.75317401      10.19137699         0.00000000       0.00000000       0.00000000          1
H        11.79474584      10.32634698      10.40676606         0.00000000       0.00000000       0.00000000          1
H         9.74425731      11.28789045       8.77116036         0.00000000       0.00000000       0.00000000          1
H         9.94220532       8.79163347      11.82698582         0.00000000       0.00000000       0.00000000          1
6
pbc=[F, F, F] list_num_par=6 frozen=false iter=20000 energy=-1.26974174 Lattice="15.00000000 0.00000000 0.00000000 0.00000000 15.00000000 0.00000000 0.00000000 0.00000000 15.00000000" energy_frozen_part=0.00000000 Properties=species:S:1:pos:R:3:velocities:R:3:Z:I:1
H         9.55351973      11.54381962      11.54647333         0.00000000       0.00000000       0.00000000          1
H        10.13294451       8.53571042       9.05165956         0.00000000       0.00000000       0.00000000          1
H         7.89171770       9.75318943      10.19136575         0.00000000       0.00000000       0.00000000          1
H        11.79474877      10.32634383      10.40676760         0.00000000       0.00000000       0.00000000          1
H         9.74427465      11.28789918       8.77115324         0.00000000       0.00000000       0.00000000          1
H         9.94219664       8.79163161      11.82697678         0.00000000       0.00000000       0.00000000          1
6
pbc=[F, F, F] list_num_par=6 frozen=false iter=20000 energy=-1.26974174 Lattice="15.00000000 0.00000000 0.00000000 0.00000000 15.00000000 0.00000000 0.00000000 0.00000000 15.00000000" energy_frozen_part=0.00000000 Properties=species:S:1:pos:R:3:velocities:R:3:Z:I:1
H         9.56689827      11.58143631      11.53508701         0.00000000       0.00000000       0.00000000          1
H        10.05564637       8.51101126       9.09742663         0.00000000       0.00000000       0.00000000          1
H         7.85505501       9.77685445      10.26333383         0.00000000       0.00000000       0.00000000          1
H        11.76748661      10.31559766      10.36917427         0.00000000       0.00000000       0.00000000          1
H         9.68619248      11.25977549       8.76261780         0.00000000       0.00000000       0.00000000          1
H         9.93634861       8.83267558      11.86989556         0.00000000       0.00000000       0.00000000          1
6
pbc=[F, F, F] list_num_par=6 frozen=false iter=20000 energy=-1.26974174 Lattice="15.00000000 0.00000000 0.00000000 0.00000000 15.00000000 0.00000000 0.00000000 0.00000000 15.00000000" energy_frozen_part=0.00000000 Properties=species:S:1:pos:R:3:velocities:R:3:Z:I:1
H         9.56671325      11.57938378      11.53804422         0.00000000       0.00000000       0.00000000          1
H        10.05436129       8.51389339       9.09395821         0.00000000       0.00000000       0.00000000          1
H         7.85426141       9.77770174      10.26299739         0.00000000       0.00000000       0.00000000          1
H        11.76681453      10.31557285      10.36900809         0.00000000       0.00000000       0.00000000          1
H         9.68529679      11.26339572       8.76488871         0.00000000       0.00000000       0.00000000          1
H         9.93578144       8.82987982      11.86711121         0.00000000       0.00000000       0.00000000          1
