6
pbc=[F, F, F] list_num_par=6 frozen=false iter=20000 energy=-1.26974174 Lattice="15.00000000 0.00000000 0.00000000 0.00000000 15.00000000 0.00000000 0.00000000 0.00000000 15.00000000" energy_frozen_part=0.00000000 Properties=species:S:1:pos:R:3:velocities:R:3:Z:I:1
H         5.55893849      12.53840145       4.01223744         0.00000000       0.00000000       0.00000000          1
H         4.12647379      12.49584129       6.41026129         0.00000000       0.00000000       0.00000000          1
H         6.44471342      13.18736074       7.80733656         0.00000000       0.00000000       0.00000000          1
H         7.87718622      13.22992166       5.40932243         0.00000000       0.00000000       0.00000000          1
H         6.43661651      10.94921204       6.13554523         0.00000000       0.00000000       0.00000000          1
H         5.56704355      14.77655727       5.68402954         0.00000000       0.00000000       0.00000000          1
6
pbc=[F, F, F] list_num_par=6 frozen=false iter=20000 energy=-1.26974174 Lattice="15.00000000 0.00000000 0.00000000 0.00000000 15.00000000 0.00000000 0.00000000 0.00000000 15.00000000" energy_frozen_part=0.00000000 Properties=species:S:1:pos:R:3:velocities:R:3:Z:I:1
H         5.55819789      12.53855125       4.01216542         0.00000000       0.00000000       0.00000000          1
H         4.12612674      12.49584956       6.41042580         0.00000000       0.00000000       0.00000000          1
H         6.44461902      13.18720218       7.80717972         0.00000000       0.00000000       0.00000000          1
H         7.87668970      13.22990347       5.40891587         0.00000000       0.00000000       0.00000000          1
H         6.43618059      10.94917260       6.13521316         0.00000000       0.00000000       0.00000000          1
H         5.56663314      14.77657347       5.68413216         0.00000000       0.00000000       0.00000000          1
6
pbc=[F, F, F] list_num_par=6 frozen=false iter=20000 energy=-1.26974174 Lattice="15.00000000 0.00000000 0.00000000 0.00000000 15.00000000 0.00000000 0.00000000 0.00000000 15.00000000" energy_frozen_part=0.00000000 Properties=species:S:1:pos:R:3:velocities:R:3:Z:I:1
H         5.55827477      12.54743709       4.01342819         0.00000000       0.00000000       0.00000000          1
H         4.12483714      12.48890177       6.41052959         0.00000000       0.00000000       0.00000000          1
H         6.44115323      13.17705649       7.81246319         0.00000000       0.00000000       0.00000000          1
H         7.87459338      13.23558972       5.41535720         0.00000000       0.00000000       0.00000000          1
H         6.43801714      10.94817632       6.12830830         0.00000000       0.00000000       0.00000000          1
H         5.56141739      14.77630842       5.69757909         0.00000000       0.00000000       0.00000000          1
6
pbc=[F, F, F] list_num_par=6 frozen=false iter=20000 energy=-1.26974174 Lattice="15.00000000 0.00000000 0.00000000 0.00000000 15.00000000 0.00000000 0.00000000 0.00000000 15.00000000" energy_frozen_part=0.00000000 Properties=species:S:1:pos:R:3:velocities:R:3:Z:I:1
H         5.55825930      12.54742593       4.01342230         0.00000000       0.00000000       0.00000000          1
H         4.12482286      12.48892566       6.41053147         0.00000000       0.00000000       0.00000000          1
H         6.44115324      13.17704417       7.81246323         0.00000000       0.00000000       0.00000000          1
H         7.87458726      13.23554804       5.41534931         0.00000000       0.00000000       0.00000000          1
H         6.43797996      10.94816852       6.12831082         0.00000000       0.00000000       0.00000000          1
H         5.56143459      14.77630130       5.69757679         0.00000000       0.00000000       0.00000000          1
6
pbc=[F, F, F] list_num_par=6 frozen=false iter=20000 energy=-1.26974174 Lattice="15.00000000 0.00000000 0.00000000 0.00000000 15.00000000 0.00000000 0.00000000 0.00000000 15.00000000" energy_frozen_part=0.00000000 Properties=species:S:1:pos:R:3:velocities:R:3:Z:I:1
H         5.55890452      12.53854957       4.01220190         0.00000000       0.00000000       0.00000000          1
H         4.12643402      12.49587013       6.41022319         0.00000000       0.00000000       0.00000000          1
H         6.44467041      13.18731120       7.80733614         0.00000000       0.00000000       0.00000000          1
H         7.87715062      13.22999397       5.40932337         0.00000000       0.00000000       0.00000000          1
H         6.43657224      10.94924653       6.13543205         0.00000000       0.00000000       0.00000000          1
H         5.56701010      14.77661619       5.68410849         0.00000000       0.00000000       0.00000000          1
6
pbc=[F, F, F] list_num_par=6 frozen=false iter=20000 energy=-1.26974174 Lattice="15.00000000 0.00000000 0.00000000 0.00000000 15.00000000 0.00000000 0.00000000 0.00000000 15.00000000" energy_frozen_part=0.00000000 Properties=species:S:1:pos:R:3:velocities:R:3:Z:I:1
H         5.55820755      12.53854396       4.01216577         0.00000000       0.00000000       0.00000000          1
H         4.12612873      12.49582047       6.41042214         0.00000000       0.00000000       0.00000000          1
H         6.44460517      13.18723644       7.80717235         0.00000000       0.00000000       0.00000000          1
H         7.87667665      13.22995795       5.40891353         0.00000000       0.00000000       0.00000000          1
H         6.43621852      10.94919627       6.13522250         0.00000000       0.00000000       0.00000000          1
H         5.56658433      14.77657655       5.68412259         0.00000000       0.00000000       0.00000000          1
6
pbc=[F, F, F] list_num_par=6 frozen=false iter=20000 energy=-1.26974174 Lattice="15.00000000 0.00000000 0.00000000 0.00000000 15.00000000 0.00000000 0.00000000 0.00000000 15.00000000" energy_frozen_part=0.00000000 Properties=species:S:1:pos:R:3:velocities:R:3:Z:I:1
H         5.55891190      12.53853153       4.01219445         0.00000000       0.00000000       0.00000000          1
H         4.12643390      12.49586719       6.41020877         0.00000000       0.00000000       0.00000000          1
H         6.44466805      13.18732154       7.80733367         0.00000000       0.00000000       0.00000000          1
H         7.87714101      13.22999168       5.40931261         0.00000000       0.00000000       0.00000000          1
H         6.43657370      10.94924085       6.13543509         0.00000000       0.00000000       0.00000000          1
H         5.56700224      14.77660851       5.68408835         0.00000000       0.00000000       0.00000000          1
6
pbc=[F, F, F] list_num_par=6 frozen=false iter=20000 energy=-1.26974174 Lattice="15.00000000 0.00000000 0.00000000 0.00000000 15.00000000 0.00000000 0.00000000 0.00000000 15.00000000" energy_frozen_part=0.00000000 Properties=species:S:1:pos:R:3:velocities:R:3:Z:I:1
H         5.55876482      12.53853707       4.01218797         0.00000000       0.00000000       0.00000000          1
H         4.12640003      12.49581250       6.41027370         0.00000000       0.00000000       0.00000000          1
H         6.44469408      13.18730064       7.80729008         0.00000000       0.00000000       0.00000000          1
H         7.87705667      13.23002271       5.40920851         0.00000000       0.00000000       0.00000000          1
H         6.43656252      10.94924922       6.13536912         0.00000000       0.00000000       0.00000000          1
H         5.56688962      14.77659194       5.68411568         0.00000000       0.00000000       0.00000000          1
6
pbc=[F, F, F] list_num_par=6 frozen=false iter=20000 energy=-1.26974174 Lattice="15.00000000 0.00000000 0.00000000 0.00000000 15.00000000 0.00000000 0.00000000 0.00000000 15.00000000" energy_frozen_part=0.00000000 Properties=species:S:1:pos:R:3:velocities:R:3:Z:I:1
H         5.55821295      12.53854104       4.01216466         0.00000000       0.00000000       0.00000000          1
H         4.12612148      12.49583774       6.41041012         0.00000000       0.00000000       0.00000000          1
H         6.44460205      13.18720186       7.80717940         0.00000000       0.00000000       0.00000000          1
H         7.87669066      13.22991382       5.40892681         0.00000000       0.00000000       0.00000000          1
H         6.43618902      10.94917790       6.13522255         0.00000000       0.00000000       0.00000000          1
H         5.56662640      14.77657027       5.68413317         0.00000000       0.00000000       0.00000000          1
6
pbc=[F, F, F] list_num_par=6 frozen=false iter=20000 energy=-1.26974174 Lattice="15.00000000 0.00000000 0.00000000 0.00000000 15.00000000 0.00000000 0.00000000 0.00000000 15.00000000" energy_frozen_part=0.00000000 Properties=species:S:1:pos:R:3:velocities:R:3:Z:I:1
H         5.55874483      12.53856374       4.01221519         0.00000000       0.00000000       0.00000000          1
H         4.12637370      12.49582970       6.41028758         0.00000000       0.00000000       0.00000000          1
H         6.44466759      13.18730894       7.80731631         0.00000000       0.00000000       0.00000000          1
H         7.87703220      13.23004205       5.40923937         0.00000000       0.00000000       0.00000000          1
H         6.43653940      10.94925679       6.13538839         0.00000000       0.00000000       0.00000000          1
H         5.56686648      14.77661418       5.68414382         0.00000000       0.00000000       0.00000000          1
6
pbc=[F, F, F] list_num_par=6 frozen=false iter=20000 energy=-1.26974174 Lattice="15.00000000 0.00000000 0.00000000 0.00000000 15.00000000 0.00000000 0.00000000 0.00000000 15.00000000" energy_frozen_part=0.00000000 Properties=species:S:1:pos:R:3:velocities:R:3:Z:I:1
H         5.55821648      12.53867361       4.01218564         0.00000000       0.00000000       0.00000000          1
H         4.12616572      12.49606166       6.41045119         0.00000000       0.00000000       0.00000000          1
H         6.44466755      13.18747615       7.80716682         0.00000000       0.00000000       0.00000000          1
H         7.87671462      13.23009284       5.40889338         0.00000000       0.00000000       0.00000000          1
H         6.43622666      10.94938470       6.13529272         0.00000000       0.00000000       0.00000000          1
H         5.56665889      14.77676646       5.68406456         0.00000000       0.00000000       0.00000000          1
6
pbc=[F, F, F] list_num_par=6 frozen=false iter=20000 energy=-1.26974174 Lattice="15.00000000 0.00000000 0.00000000 0.00000000 15.00000000 0.00000000 0.00000000 0.00000000 15.00000000" energy_frozen_part=0.00000000 Properties=species:S:1:pos:R:3:velocities:R:3:Z:I:1
H         5.55871181      12.53856023       4.01222012         0.00000000       0.00000000       0.00000000          1
H         4.12637310      12.49584847       6.41031561         0.00000000       0.00000000       0.00000000          1
H         6.44468243      13.18731513       7.80730773         0.00000000       0.00000000       0.00000000          1
H         7.87702316      13.23001864       5.40920991         0.00000000       0.00000000       0.00000000          1
H         6.43651520      10.94925341       6.13538615         0.00000000       0.00000000       0.00000000          1
H         5.56687491      14.77661473       5.68414052         0.00000000       0.00000000       0.00000000          1
6
pbc=[F, F, F] list_num_par=6 frozen=false iter=20000 energy=-1.26974174 Lattice="15.00000000 0.00000000 0.00000000 0.00000000 15.00000000 0.00000000 0.00000000 0.00000000 15.00000000" energy_frozen_part=0.00000000 Properties=species:S:1:pos:R:3:velocities:R:3:Z:I:1
H         5.55886823      12.53847074       4.01219509         0.00000000       0.00000000       0.00000000          1
H         4.12643715      12.49582737       6.41023970         0.00000000       0.00000000       0.00000000          1
H         6.44469478      13.18731426       7.80731167         0.00000000       0.00000000       0.00000000          1
H         7.87712451      13.22995689       5.40926836         0.00000000       0.00000000       0.00000000          1
H         6.43658862      10.94921724       6.13544175         0.00000000       0.00000000       0.00000000          1
H         5.56698583      14.77657225       5.68405984         0.00000000       0.00000000       0.00000000          1
6
pbc=[F, F, F] list_num_par=6 frozen=false iter=20000 energy=-1.26974174 Lattice="15.00000000 0.00000000 0.00000000 0.00000000 15.00000000 0.00000000 0.00000000 0.00000000 15.00000000" energy_frozen_part=0.00000000 Properties=species:S:1:pos:R:3:velocities:R:3:Z:I:1
H         5.30681411      12.54828451       3.98403643         0.00000000       0.00000000       0.00000000          1
H         4.00920784      12.74544317       6.45013174         0.00000000       0.00000000       0.00000000          1
H         6.44921641      13.30723298       7.68910140         0.00000000       0.00000000       0.00000000          1
H         7.74682256      13.11006776       5.22300816         0.00000000       0.00000000       0.00000000          1
H         6.16685199      10.99775002       6.14284597         0.00000000       0.00000000       0.00000000          1
H         5.58917508      14.85776099       5.53028804         0.00000000       0.00000000       0.00000000          1
6
pbc=[F, F, F] list_num_par=6 frozen=false iter=20000 energy=-1.26974174 Lattice="15.00000000 0.00000000 0.00000000 0.00000000 15.00000000 0.00000000 0.00000000 0.00000000 15.00000000" energy_frozen_part=0.00000000 Properties=species:S:1:pos:R:3:velocities:R:3:Z:I:1
H         5.30679244      12.54831253       3.98403038         0.00000000       0.00000000       0.00000000          1
H         4.00920377      12.74545932       6.45013661         0.00000000       0.00000000       0.00000000          1
H         6.44921580      13.30722494       7.68909144         0.00000000       0.00000000       0.00000000          1
H         7.74681202      13.11006722       5.22298590         0.00000000       0.00000000       0.00000000          1
H         6.16684054      10.99776007       6.14283291         0.00000000       0.00000000       0.00000000          1
H         5.58917941      14.85777591       5.53029198         0.00000000       0.00000000       0.00000000          1
6
pbc=[F, F, F] list_num_par=6 frozen=false iter=20000 energy=-1.26974174 Lattice="15.00000000 0.00000000 0.00000000 0.00000000 15.00000000 0.00000000 0.00000000 0.00000000 15.00000000" energy_frozen_part=0.00000000 Properties=species:S:1:pos:R:3:velocities:R:3:Z:I:1
H         5.55873951      12.53856859       4.01220791         0.00000000       0.00000000       0.00000000          1
H         4.12638112      12.49583504       6.41029744         0.00000000       0.00000000       0.00000000          1
H         6.44467069      13.18730257       7.80732430         0.00000000       0.00000000       0.00000000          1
H         7.87703435      13.23003297       5.40924315         0.00000000       0.00000000       0.00000000          1
H         6.43652441      10.94925657       6.13538553         0.00000000       0.00000000       0.00000000          1
H         5.56688119      14.77661062       5.68414426         0.00000000       0.00000000       0.00000000          1
6
pbc=[F, F, F] list_num_par=6 frozen=false iter=20000 energy=-1.26974174 Lattice="15.00000000 0.00000000 0.00000000 0.00000000 15.00000000 0.00000000 0.00000000 0.00000000 15.00000000" energy_frozen_part=0.00000000 Properties=species:S:1:pos:R:3:velocities:R:3:Z:I:1
H         5.55827253      12.53878848       4.01200292         0.00000000       0.00000000       0.00000000          1
H         4.12609979      12.49605439       6.41020339         0.00000000       0.00000000       0.00000000          1
H         6.44456977      13.18720175       7.80708570         0.00000000       0.00000000       0.00000000          1
H         7.87674393      13.22993297       5.40889048         0.00000000       0.00000000       0.00000000          1
H         6.43606806      10.94925698       6.13501167         0.00000000       0.00000000       0.00000000          1
H         5.56677873      14.77673280       5.68408502         0.00000000       0.00000000       0.00000000          1
6
pbc=[F, F, F] list_num_par=6 frozen=false iter=20000 energy=-1.26974174 Lattice="15.00000000 0.00000000 0.00000000 0.00000000 15.00000000 0.00000000 0.00000000 0.00000000 15.00000000" energy_frozen_part=0.00000000 Properties=species:S:1:pos:R:3:velocities:R:3:Z:I:1
H         5.55821350      12.53854775       4.01216521         0.00000000       0.00000000       0.00000000          1
H         4.12612389      12.49584893       6.41041053         0.00000000       0.00000000       0.00000000          1
H         6.44461695      13.18719691       7.80717739         0.00000000       0.00000000       0.00000000          1
H         7.87669774      13.22989995       5.40892681         0.00000000       0.00000000       0.00000000          1
H         6.43618310      10.94917595       6.13521318         0.00000000       0.00000000       0.00000000          1
H         5.56663979      14.77657150       5.68413559         0.00000000       0.00000000       0.00000000          1
6
pbc=[F, F, F] list_num_par=6 frozen=false iter=20000 energy=-1.26974174 Lattice="15.00000000 0.00000000 0.00000000 0.00000000 15.00000000 0.00000000 0.00000000 0.00000000 15.00000000" energy_frozen_part=0.00000000 Properties=species:S:1:pos:R:3:velocities:R:3:Z:I:1
H         5.55818903      12.53854964       4.01215669         0.00000000       0.00000000       0.00000000          1
H         4.12613513      12.49582882       6.41042780         0.00000000       0.00000000       0.00000000          1
H         6.44462310      13.18723577       7.80715587         0.00000000       0.00000000       0.00000000          1
H         7.87667578      13.22996270       5.40889346         0.00000000       0.00000000       0.00000000          1
H         6.43621524      10.94920380       6.13520274         0.00000000       0.00000000       0.00000000          1
H         5.56659413      14.77658659       5.68410778         0.00000000       0.00000000       0.00000000          1
6
pbc=[F, F, F] list_num_par=6 frozen=false iter=20000 energy=-1.26974174 Lattice="15.00000000 0.00000000 0.00000000 0.00000000 15.00000000 0.00000000 0.00000000 0.00000000 15.00000000" energy_frozen_part=0.00000000 Properties=species:S:1:pos:R:3:velocities:R:3:Z:I:1
H         5.55873842      12.53854550       4.01219171         0.00000000       0.00000000       0.00000000          1
H         4.12637655      12.49585978       6.41028289         0.00000000       0.00000000       0.00000000          1
H         6.44467934      13.18730289       7.80729776         0.00000000       0.00000000       0.00000000          1
H         7.87704006      13.22999034       5.40922036         0.00000000       0.00000000       0.00000000          1
H         6.43650342      10.94923828       6.13538408         0.00000000       0.00000000       0.00000000          1
H         5.56691037      14.77660413       5.68410901         0.00000000       0.00000000       0.00000000          1
6
pbc=[F, F, F] list_num_par=6 frozen=false iter=20000 energy=-1.26974174 Lattice="15.00000000 0.00000000 0.00000000 0.00000000 15.00000000 0.00000000 0.00000000 0.00000000 15.00000000" energy_frozen_part=0.00000000 Properties=species:S:1:pos:R:3:velocities:R:3:Z:I:1
H         5.55815020      12.53866331       4.01248758         0.00000000       0.00000000       0.00000000          1
H         4.12630623      12.49616502       6.41088228         0.00000000       0.00000000       0.00000000          1
H         6.44497814      13.18743314       7.80737491         0.00000000       0.00000000       0.00000000          1
H         7.87682648      13.22992719       5.40897709         0.00000000       0.00000000       0.00000000          1
H         6.43623519      10.94933396       6.13552175         0.00000000       0.00000000       0.00000000          1
H         5.56689656      14.77675777       5.68434315         0.00000000       0.00000000       0.00000000          1
6
pbc=[F, F, F] list_num_par=6 frozen=false iter=20000 energy=-1.26974174 Lattice="15.00000000 0.00000000 0.00000000 0.00000000 15.00000000 0.00000000 0.00000000 0.00000000 15.00000000" energy_frozen_part=0.00000000 Properties=species:S:1:pos:R:3:velocities:R:3:Z:I:1
H         5.55827043      12.54741756       4.01342833         0.00000000       0.00000000       0.00000000          1
H         4.12482564      12.48891547       6.41052915         0.00000000       0.00000000       0.00000000          1
H         6.44114132      13.17705383       7.81246073         0.00000000       0.00000000       0.00000000          1
H         7.87458640      13.23556020       5.41536418         0.00000000       0.00000000       0.00000000          1
H         6.43798648      10.94816048       6.12831787         0.00000000       0.00000000       0.00000000          1
H         5.56142254      14.77630352       5.69757199         0.00000000       0.00000000       0.00000000          1
6
pbc=[F, F, F] list_num_par=6 frozen=false iter=20000 energy=-1.26974174 Lattice="15.00000000 0.00000000 0.00000000 0.00000000 15.00000000 0.00000000 0.00000000 0.00000000 15.00000000" energy_frozen_part=0.00000000 Properties=species:S:1:pos:R:3:velocities:R:3:Z:I:1
H         5.55875476      12.53848666       4.01219624         0.00000000       0.00000000       0.00000000          1
H         4.12638359      12.49577345       6.41027414         0.00000000       0.00000000       0.00000000          1
H         6.44465716      13.18727746       7.80730078         0.00000000       0.00000000       0.00000000          1
H         7.87703471      13.22999477       5.40922376         0.00000000       0.00000000       0.00000000          1
H         6.43654788      10.94920734       6.13538704         0.00000000       0.00000000       0.00000000          1
H         5.56687272      14.77655327       5.68410437         0.00000000       0.00000000       0.00000000          1
6
pbc=[F, F, F] list_num_par=6 frozen=false iter=20000 energy=-1.26974174 Lattice="15.00000000 0.00000000 0.00000000 0.00000000 15.00000000 0.00000000 0.00000000 0.00000000 15.00000000" energy_frozen_part=0.00000000 Properties=species:S:1:pos:R:3:velocities:R:3:Z:I:1
H         5.55873149      12.53851569       4.01218498         0.00000000       0.00000000       0.00000000          1
H         4.12640001      12.49580951       6.41028559         0.00000000       0.00000000       0.00000000          1
H         6.44470343      13.18730538       7.80727823         0.00000000       0.00000000       0.00000000          1
H         7.87703967      13.23001072       5.40917498         0.00000000       0.00000000       0.00000000          1
H         6.43654775      10.94923746       6.13536629         0.00000000       0.00000000       0.00000000          1
H         5.56688874      14.77658807       5.68409361         0.00000000       0.00000000       0.00000000          1
6
pbc=[F, F, F] list_num_par=6 frozen=false iter=20000 energy=-1.26974174 Lattice="15.00000000 0.00000000 0.00000000 0.00000000 15.00000000 0.00000000 0.00000000 0.00000000 15.00000000" energy_frozen_part=0.00000000 Properties=species:S:1:pos:R:3:velocities:R:3:Z:I:1
H         5.55820882      12.53854368       4.01215948         0.00000000       0.00000000       0.00000000          1
H         4.12611857      12.49581744       6.41040891         0.00000000       0.00000000       0.00000000          1
H         6.44459539      13.18720287       7.80717961         0.00000000       0.00000000       0.00000000          1
H         7.87668098      13.22992805       5.40892574         0.00000000       0.00000000       0.00000000          1
H         6.43619669      10.94918075       6.13521409         0.00000000       0.00000000       0.00000000          1
H         5.56660472      14.77656111       5.68412226         0.00000000       0.00000000       0.00000000          1
6
pbc=[F, F, F] list_num_par=6 frozen=false iter=20000 energy=-1.26974174 Lattice="15.00000000 0.00000000 0.00000000 0.00000000 15.00000000 0.00000000 0.00000000 0.00000000 15.00000000" energy_frozen_part=0.00000000 Properties=species:S:1:pos:R:3:velocities:R:3:Z:I:1
H         5.55820097      12.53853217       4.01216203         0.00000000       0.00000000       0.00000000          1
H         4.12611668      12.49582246       6.41040469         0.00000000       0.00000000       0.00000000          1
H         6.44459306      13.18719901       7.80717434         0.00000000       0.00000000       0.00000000          1
H         7.87667851      13.22989824       5.40892814         0.00000000       0.00000000       0.00000000          1
H         6.43617996      10.94917184       6.13521674         0.00000000       0.00000000       0.00000000          1
H         5.56661285      14.77656191       5.68412289         0.00000000       0.00000000       0.00000000          1
6
pbc=[F, F, F] list_num_par=6 frozen=false iter=20000 energy=-1.26974174 Lattice="15.00000000 0.00000000 0.00000000 0.00000000 15.00000000 0.00000000 0.00000000 0.00000000 15.00000000" energy_frozen_part=0.00000000 Properties=species:S:1:pos:R:3:velocities:R:3:Z:I:1
H         5.55872203      12.53853611       4.01219262         0.00000000       0.00000000       0.00000000          1
H         4.12640220      12.49582595       6.41030027         0.00000000       0.00000000       0.00000000          1
H         6.44471366      13.18730146       7.80728336         0.00000000       0.00000000       0.00000000          1
H         7.87704525      13.23000640       5.40918081         0.00000000       0.00000000       0.00000000          1
H         6.43654930      10.94924172       6.13536419         0.00000000       0.00000000       0.00000000          1
H         5.56689749      14.77659553       5.68410376         0.00000000       0.00000000       0.00000000          1
6
pbc=[F, F, F] list_num_par=6 frozen=false iter=20000 energy=-1.26974174 Lattice="15.00000000 0.00000000 0.00000000 0.00000000 15.00000000 0.00000000 0.00000000 0.00000000 15.00000000" energy_frozen_part=0.00000000 Properties=species:S:1:pos:R:3:velocities:R:3:Z:I:1
H         5.55876052      12.53855833       4.01218773         0.00000000       0.00000000       0.00000000          1
H         4.12637077      12.49583926       6.41025708         0.00000000       0.00000000       0.00000000          1
H         6.44465684      13.18730480       7.80730849         0.00000000       0.00000000       0.00000000          1
H         7.87703572      13.23002760       5.40924343         0.00000000       0.00000000       0.00000000          1
H         6.43652144      10.94925446       6.13537677         0.00000000       0.00000000       0.00000000          1
H         5.56688165      14.77660847       5.68412196         0.00000000       0.00000000       0.00000000          1
6
pbc=[F, F, F] list_num_par=6 frozen=false iter=20000 energy=-1.26974174 Lattice="15.00000000 0.00000000 0.00000000 0.00000000 15.00000000 0.00000000 0.00000000 0.00000000 15.00000000" energy_frozen_part=0.00000000 Properties=species:S:1:pos:R:3:velocities:R:3:Z:I:1
H         5.55894524      12.53839587       4.01223412         0.00000000       0.00000000       0.00000000          1
H         4.12648499      12.49584398       6.41026563         0.00000000       0.00000000       0.00000000          1
H         6.44473443      13.18735989       7.80734005         0.00000000       0.00000000       0.00000000          1
H         7.87718774      13.22993112       5.40931140         0.00000000       0.00000000       0.00000000          1
H         6.43662414      10.94921224       6.13554392         0.00000000       0.00000000       0.00000000          1
H         5.56704578      14.77655030       5.68403326         0.00000000       0.00000000       0.00000000          1
6
pbc=[F, F, F] list_num_par=6 frozen=false iter=20000 energy=-1.26974174 Lattice="15.00000000 0.00000000 0.00000000 0.00000000 15.00000000 0.00000000 0.00000000 0.00000000 15.00000000" energy_frozen_part=0.00000000 Properties=species:S:1:pos:R:3:velocities:R:3:Z:I:1
H         5.55874572      12.53854110       4.01219181         0.00000000       0.00000000       0.00000000          1
H         4.12637536      12.49585205       6.41027100         0.00000000       0.00000000       0.00000000          1
H         6.44467159      13.18730210       7.80730530         0.00000000       0.00000000       0.00000000          1
H         7.87703958      13.23000138       5.40922008         0.00000000       0.00000000       0.00000000          1
H         6.43651385      10.94924165       6.13538217         0.00000000       0.00000000       0.00000000          1
H         5.56690157      14.77660390       5.68411217         0.00000000       0.00000000       0.00000000          1
6
pbc=[F, F, F] list_num_par=6 frozen=false iter=20000 energy=-1.26974174 Lattice="15.00000000 0.00000000 0.00000000 0.00000000 15.00000000 0.00000000 0.00000000 0.00000000 15.00000000" energy_frozen_part=0.00000000 Properties=species:S:1:pos:R:3:velocities:R:3:Z:I:1
H         5.55827329      12.53883449       4.01202416         0.00000000       0.00000000       0.00000000          1
H         4.12612601      12.49611018       6.41023703         0.00000000       0.00000000       0.00000000          1
H         6.44461359      13.18728463       7.80707657         0.00000000       0.00000000       0.00000000          1
H         7.87676386      13.23000613       5.40886951         0.00000000       0.00000000       0.00000000          1
H         6.43611270      10.94932933       6.13503383         0.00000000       0.00000000       0.00000000          1
H         5.56677880      14.77679308       5.68407462         0.00000000       0.00000000       0.00000000          1
6
pbc=[F, F, F] list_num_par=6 frozen=false iter=20000 energy=-1.26974174 Lattice="15.00000000 0.00000000 0.00000000 0.00000000 15.00000000 0.00000000 0.00000000 0.00000000 15.00000000" energy_frozen_part=0.00000000 Properties=species:S:1:pos:R:3:velocities:R:3:Z:I:1
H         5.30680833      12.54831050       3.98403510         0.00000000       0.00000000       0.00000000          1
H         4.00920079      12.74546842       6.45013017         0.00000000       0.00000000       0.00000000          1
H         6.44921040      13.30723161       7.68909932         0.00000000       0.00000000       0.00000000          1
H         7.74682319      13.11007933       5.22300330         0.00000000       0.00000000       0.00000000          1
H         6.16683338      10.99776646       6.14283508         0.00000000       0.00000000       0.00000000          1
H         5.58918349      14.85777473       5.53028859         0.00000000       0.00000000       0.00000000          1
6
pbc=[F, F, F] list_num_par=6 frozen=false iter=20000 energy=-1.26974174 Lattice="15.00000000 0.00000000 0.00000000 0.00000000 15.00000000 0.00000000 0.00000000 0.00000000 15.00000000" energy_frozen_part=0.00000000 Properties=species:S:1:pos:R:3:velocities:R:3:Z:I:1
H         5.30680038      12.54831904       3.98399524         0.00000000       0.00000000       0.00000000          1
H         4.00919501      12.74545240       6.45008897         0.00000000       0.00000000       0.00000000          1
H         6.44920174      13.30722261       7.68906907         0.00000000       0.00000000       0.00000000          1
H         7.74681126      13.11009516       5.22297346         0.00000000       0.00000000       0.00000000          1
H         6.16684665      10.99777200       6.14278727         0.00000000       0.00000000       0.00000000          1
H         5.58915940      14.85778007       5.53027546         0.00000000       0.00000000       0.00000000          1
6
pbc=[F, F, F] list_num_par=6 frozen=false iter=20000 energy=-1.26974174 Lattice="15.00000000 0.00000000 0.00000000 0.00000000 15.00000000 0.00000000 0.00000000 0.00000000 15.00000000" energy_frozen_part=0.00000000 Properties=species:S:1:pos:R:3:velocities:R:3:Z:I:1
H         5.55875221      12.53850089       4.01219794         0.00000000       0.00000000       0.00000000          1
H         4.12637799      12.49577543       6.41027579         0.00000000       0.00000000       0.00000000          1
H         6.44466952      13.18727991       7.80729655         0.00000000       0.00000000       0.00000000          1
H         7.87703132      13.23000422       5.40922020         0.00000000       0.00000000       0.00000000          1
H         6.43655070      10.94921912       6.13538392         0.00000000       0.00000000       0.00000000          1
H         5.56686337      14.77656006       5.68411676         0.00000000       0.00000000       0.00000000          1
6
pbc=[F, F, F] list_num_par=6 frozen=false iter=20000 energy=-1.26974174 Lattice="15.00000000 0.00000000 0.00000000 0.00000000 15.00000000 0.00000000 0.00000000 0.00000000 15.00000000" energy_frozen_part=0.00000000 Properties=species:S:1:pos:R:3:velocities:R:3:Z:I:1
H         5.30680303      12.54832098       3.98400064         0.00000000       0.00000000       0.00000000          1
H         4.00918600      12.74544588       6.45008737         0.00000000       0.00000000       0.00000000          1
H         6.44919426      13.30724242       7.68906539         0.00000000       0.00000000       0.00000000          1
H         7.74681126      13.11011448       5.22297058         0.00000000       0.00000000       0.00000000          1
H         6.16685690      10.99778044       6.14279664         0.00000000       0.00000000       0.00000000          1
H         5.58914416      14.85777981       5.53026767         0.00000000       0.00000000       0.00000000          1
6
pbc=[F, F, F] list_num_par=6 frozen=false iter=20000 energy=-1.26974174 Lattice="15.00000000 0.00000000 0.00000000 0.00000000 15.00000000 0.00000000 0.00000000 0.00000000 15.00000000" energy_frozen_part=0.00000000 Properties=species:S:1:pos:R:3:velocities:R:3:Z:I:1
H         5.55816076      12.53864511       4.01247684         0.00000000       0.00000000       0.00000000          1
H         4.12631508      12.49617376       6.41086752         0.00000000       0.00000000       0.00000000          1
H         6.44497723      13.18743443       7.80737613         0.00000000       0.00000000       0.00000000          1
H         7.87682762      13.22991037       5.40898241         0.00000000       0.00000000       0.00000000          1
H         6.43623249      10.94931882       6.13552457         0.00000000       0.00000000       0.00000000          1
H         5.56691061      14.77675874       5.68432533         0.00000000       0.00000000       0.00000000          1
6
pbc=[F, F, F] list_num_par=6 frozen=false iter=20000 energy=-1.26974174 Lattice="15.00000000 0.00000000 0.00000000 0.00000000 15.00000000 0.00000000 0.00000000 0.00000000 15.00000000" energy_frozen_part=0.00000000 Properties=species:S:1:pos:R:3:velocities:R:3:Z:I:1
H         5.55817827      12.53863751       4.01246415         0.00000000       0.00000000       0.00000000          1
H         4.12630608      12.49616567       6.41083913         0.00000000       0.00000000       0.00000000          1
H         6.44495628      13.18741218       7.80737703         0.00000000       0.00000000       0.00000000          1
H         7.87683295      13.22988828       5.40899635         0.00000000       0.00000000       0.00000000          1
H         6.43621564      10.94930239       6.13552160         0.00000000       0.00000000       0.00000000          1
H         5.56692558      14.77674690       5.68431836         0.00000000       0.00000000       0.00000000          1
6
pbc=[F, F, F] list_num_par=6 frozen=false iter=20000 energy=-1.26974174 Lattice="15.00000000 0.00000000 0.00000000 0.00000000 15.00000000 0.00000000 0.00000000 0.00000000 15.00000000" energy_frozen_part=0.00000000 Properties=species:S:1:pos:R:3:velocities:R:3:Z:I:1
H         5.55822525      12.53856028       4.01216813         0.00000000       0.00000000       0.00000000          1
H         4.12613165      12.49584390       6.41040626         0.00000000       0.00000000       0.00000000          1
H         6.44461093      13.18717707       7.80718592         0.00000000       0.00000000       0.00000000          1
H         7.87670884      13.22990278       5.40894719         0.00000000       0.00000000       0.00000000          1
H         6.43618688      10.94917018       6.13519892         0.00000000       0.00000000       0.00000000          1
H         5.56665740      14.77657141       5.68414372         0.00000000       0.00000000       0.00000000          1
6
pbc=[F, F, F] list_num_par=6 frozen=false iter=20000 energy=-1.26974174 Lattice="15.00000000 0.00000000 0.00000000 0.00000000 15.00000000 0.00000000 0.00000000 0.00000000 15.00000000" energy_frozen_part=0.00000000 Properties=species:S:1:pos:R:3:velocities:R:3:Z:I:1
H         5.55875143      12.53855759       4.01219173         0.00000000       0.00000000       0.00000000          1
H         4.12637369      12.49585578       6.41027338         0.00000000       0.00000000       0.00000000          1
H         6.44467102      13.18732336       7.80729648         0.00000000       0.00000000       0.00000000          1
H         7.87704123      13.23001688       5.40922710         0.00000000       0.00000000       0.00000000          1
H         6.43651588      10.94926025       6.13538571         0.00000000       0.00000000       0.00000000          1
H         5.56689752      14.77661572       5.68410974         0.00000000       0.00000000       0.00000000          1
6
pbc=[F, F, F] list_num_par=6 frozen=false iter=20000 energy=-1.26974174 Lattice="15.00000000 0.00000000 0.00000000 0.00000000 15.00000000 0.00000000 0.00000000 0.00000000 15.00000000" energy_frozen_part=0.00000000 Properties=species:S:1:pos:R:3:velocities:R:3:Z:I:1
H         5.55870232      12.53856349       4.01221265         0.00000000       0.00000000       0.00000000          1
H         4.12637675      12.49584194       6.41031612         0.00000000       0.00000000       0.00000000          1
H         6.44469298      13.18730385       7.80730781         0.00000000       0.00000000       0.00000000          1
H         7.87701803      13.23001392       5.40920885         0.00000000       0.00000000       0.00000000          1
H         6.43651393      10.94925017       6.13538582         0.00000000       0.00000000       0.00000000          1
H         5.56688466      14.77661079       5.68414355         0.00000000       0.00000000       0.00000000          1
6
pbc=[F, F, F] list_num_par=6 frozen=false iter=20000 energy=-1.26974174 Lattice="15.00000000 0.00000000 0.00000000 0.00000000 15.00000000 0.00000000 0.00000000 0.00000000 15.00000000" energy_frozen_part=0.00000000 Properties=species:S:1:pos:R:3:velocities:R:3:Z:I:1
H         5.55821048      12.53854373       4.01217453         0.00000000       0.00000000       0.00000000          1
H         4.12613454      12.49582907       6.41042757         0.00000000       0.00000000       0.00000000          1
H         6.44461703      13.18719128       7.80718660         0.00000000       0.00000000       0.00000000          1
H         7.87669676      13.22991475       5.40893293         0.00000000       0.00000000       0.00000000          1
H         6.43619788      10.94917646       6.13521922         0.00000000       0.00000000       0.00000000          1
H         5.56662832      14.77656570       5.68415085         0.00000000       0.00000000       0.00000000          1
6
pbc=[F, F, F] list_num_par=6 frozen=false iter=20000 energy=-1.26974174 Lattice="15.00000000 0.00000000 0.00000000 0.00000000 15.00000000 0.00000000 0.00000000 0.00000000 15.00000000" energy_frozen_part=0.00000000 Properties=species:S:1:pos:R:3:velocities:R:3:Z:I:1
H         5.55827474      12.54742478       4.01342267         0.00000000       0.00000000       0.00000000          1
H         4.12482859      12.48889573       6.41052339         0.00000000       0.00000000       0.00000000          1
H         6.44114360      13.17703455       7.81245540         0.00000000       0.00000000       0.00000000          1
H         7.87459079      13.23556736       5.41536349         0.00000000       0.00000000       0.00000000          1
H         6.43800162      10.94815652       6.12830000         0.00000000       0.00000000       0.00000000          1
H         5.56141079      14.77630397       5.69758261         0.00000000       0.00000000       0.00000000          1
6
pbc=[F, F, F] list_num_par=6 frozen=false iter=20000 energy=-1.26974174 Lattice="15.00000000 0.00000000 0.00000000 0.00000000 15.00000000 0.00000000 0.00000000 0.00000000 15.00000000" energy_frozen_part=0.00000000 Properties=species:S:1:pos:R:3:velocities:R:3:Z:I:1
H         5.55820489      12.53853977       4.01216998         0.00000000       0.00000000       0.00000000          1
H         4.12611425      12.49584093       6.41041882         0.00000000       0.00000000       0.00000000          1
H         6.44459247      13.18720280       7.80718471         0.00000000       0.00000000       0.00000000          1
H         7.87668854      13.22989642       5.40893589         0.00000000       0.00000000       0.00000000          1
H         6.43617750      10.94917410       6.13523329         0.00000000       0.00000000       0.00000000          1
H         5.56662459      14.77656520       5.68412836         0.00000000       0.00000000       0.00000000          1
6
pbc=[F, F, F] list_num_par=6 frozen=false iter=20000 energy=-1.26974174 Lattice="15.00000000 0.00000000 0.00000000 0.00000000 15.00000000 0.00000000 0.00000000 0.00000000 15.00000000" energy_frozen_part=0.00000000 Properties=species:S:1:pos:R:3:velocities:R:3:Z:I:1
H         5.55825161      12.53853822       4.01217996         0.00000000       0.00000000       0.00000000          1
H         4.12614458      12.49582292       6.41041909         0.00000000       0.00000000       0.00000000          1
H         6.44460811      13.18719929       7.80720703         0.00000000       0.00000000       0.00000000          1
H         7.87670702      13.22992561       5.40897268         0.00000000       0.00000000       0.00000000          1
H         6.43622033      10.94917585       6.13523842         0.00000000       0.00000000       0.00000000          1
H         5.56663189      14.77656095       5.68414448         0.00000000       0.00000000       0.00000000          1
6
pbc=[F, F, F] list_num_par=6 frozen=false iter=20000 energy=-1.26974174 Lattice="15.00000000 0.00000000 0.00000000 0.00000000 15.00000000 0.00000000 0.00000000 0.00000000 15.00000000" energy_frozen_part=0.00000000 Properties=species:S:1:pos:R:3:velocities:R:3:Z:I:1
H         5.55828418      12.53882050       4.01201549         0.00000000       0.00000000       0.00000000          1
H         4.12613134      12.49612125       6.41022023         0.00000000       0.00000000       0.00000000          1
H         6.44460411      13.18731692       7.80708104         0.00000000       0.00000000       0.00000000          1
H         7.87675658      13.23000671       5.40887176         0.00000000       0.00000000       0.00000000          1
H         6.43610911      10.94933631       6.13505006         0.00000000       0.00000000       0.00000000          1
H         5.56677594      14.77679620       5.68404866         0.00000000       0.00000000       0.00000000          1
6
pbc=[F, F, F] list_num_par=6 frozen=false iter=20000 energy=-1.26974174 Lattice="15.00000000 0.00000000 0.00000000 0.00000000 15.00000000 0.00000000 0.00000000 0.00000000 15.00000000" energy_frozen_part=0.00000000 Properties=species:S:1:pos:R:3:velocities:R:3:Z:I:1
H         5.55826372      12.54742283       4.01342546         0.00000000       0.00000000       0.00000000          1
H         4.12482857      12.48892186       6.41052564         0.00000000       0.00000000       0.00000000          1
H         6.44115087      13.17704291       7.81245771         0.00000000       0.00000000       0.00000000          1
H         7.87458588      13.23555207       5.41534627         0.00000000       0.00000000       0.00000000          1
H         6.43798848      10.94816417       6.12830566         0.00000000       0.00000000       0.00000000          1
H         5.56142916      14.77630936       5.69757093         0.00000000       0.00000000       0.00000000          1
6
pbc=[F, F, F] list_num_par=6 frozen=false iter=20000 energy=-1.26974174 Lattice="15.00000000 0.00000000 0.00000000 0.00000000 15.00000000 0.00000000 0.00000000 0.00000000 15.00000000" energy_frozen_part=0.00000000 Properties=species:S:1:pos:R:3:velocities:R:3:Z:I:1
H         5.55822037      12.53855119       4.01217468         0.00000000       0.00000000       0.00000000          1
H         4.12614414      12.49581708       6.41042719         0.00000000       0.00000000       0.00000000          1
H         6.44462561      13.18718943       7.80719125         0.00000000       0.00000000       0.00000000          1
H         7.87670100      13.22991569       5.40893578         0.00000000       0.00000000       0.00000000          1
H         6.43620885      10.94917452       6.13521928         0.00000000       0.00000000       0.00000000          1
H         5.56662584      14.77656299       5.68414671         0.00000000       0.00000000       0.00000000          1
6
pbc=[F, F, F] list_num_par=6 frozen=false iter=20000 energy=-1.26974174 Lattice="15.00000000 0.00000000 0.00000000 0.00000000 15.00000000 0.00000000 0.00000000 0.00000000 15.00000000" energy_frozen_part=0.00000000 Properties=species:S:1:pos:R:3:velocities:R:3:Z:I:1
H         5.55878600      12.53875075       4.01224824         0.00000000       0.00000000       0.00000000          1
H         4.12628242      12.49572655       6.41023148         0.00000000       0.00000000       0.00000000          1
H         6.44445039      13.18719277       7.80746426         0.00000000       0.00000000       0.00000000          1
H         7.87695483      13.23023111       5.40947083         0.00000000       0.00000000       0.00000000          1
H         6.43654045      10.94930311       6.13532513         0.00000000       0.00000000       0.00000000          1
H         5.56670071      14.77665360       5.68438250         0.00000000       0.00000000       0.00000000          1
6
pbc=[F, F, F] list_num_par=6 frozen=false iter=20000 energy=-1.26974174 Lattice="15.00000000 0.00000000 0.00000000 0.00000000 15.00000000 0.00000000 0.00000000 0.00000000 15.00000000" energy_frozen_part=0.00000000 Properties=species:S:1:pos:R:3:velocities:R:3:Z:I:1
H         5.55878696      12.53872398       4.01230676         0.00000000       0.00000000       0.00000000          1
H         4.12634943      12.49577993       6.41034014         0.00000000       0.00000000       0.00000000          1
H         6.44456864      13.18724462       7.80748265         0.00000000       0.00000000       0.00000000          1
H         7.87701122      13.23019653       5.40945224         0.00000000       0.00000000       0.00000000          1
H         6.43657959      10.94931248       6.13540235         0.00000000       0.00000000       0.00000000          1
H         5.56678477      14.77666175       5.68439486         0.00000000       0.00000000       0.00000000          1
6
pbc=[F, F, F] list_num_par=6 frozen=false iter=20000 energy=-1.26974174 Lattice="15.00000000 0.00000000 0.00000000 0.00000000 15.00000000 0.00000000 0.00000000 0.00000000 15.00000000" energy_frozen_part=0.00000000 Properties=species:S:1:pos:R:3:velocities:R:3:Z:I:1
H         5.55893417      12.53840234       4.01223778         0.00000000       0.00000000       0.00000000          1
H         4.12648538      12.49584356       6.41026949         0.00000000       0.00000000       0.00000000          1
H         6.44473885      13.18736897       7.80732944         0.00000000       0.00000000       0.00000000          1
H         7.87719257      13.22993145       5.40930287         0.00000000       0.00000000       0.00000000          1
H         6.43663107      10.94922045       6.13554241         0.00000000       0.00000000       0.00000000          1
H         5.56704306      14.77655509       5.68402399         0.00000000       0.00000000       0.00000000          1
6
pbc=[F, F, F] list_num_par=6 frozen=false iter=20000 energy=-1.26974174 Lattice="15.00000000 0.00000000 0.00000000 0.00000000 15.00000000 0.00000000 0.00000000 0.00000000 15.00000000" energy_frozen_part=0.00000000 Properties=species:S:1:pos:R:3:velocities:R:3:Z:I:1
H         5.55890984      12.53855026       4.01219365         0.00000000       0.00000000       0.00000000          1
H         4.12643225      12.49587416       6.41021211         0.00000000       0.00000000       0.00000000          1
H         6.44466510      13.18732887       7.80734125         0.00000000       0.00000000       0.00000000          1
H         7.87714273      13.23000313       5.40932144         0.00000000       0.00000000       0.00000000          1
H         6.43657711      10.94925541       6.13543341         0.00000000       0.00000000       0.00000000          1
H         5.56699919      14.77661546       5.68409616         0.00000000       0.00000000       0.00000000          1
6
pbc=[F, F, F] list_num_par=6 frozen=false iter=20000 energy=-1.26974174 Lattice="15.00000000 0.00000000 0.00000000 0.00000000 15.00000000 0.00000000 0.00000000 0.00000000 15.00000000" energy_frozen_part=0.00000000 Properties=species:S:1:pos:R:3:velocities:R:3:Z:I:1
H         5.55890501      12.53841917       4.01224369         0.00000000       0.00000000       0.00000000          1
H         4.12644937      12.49583463       6.41027745         0.00000000       0.00000000       0.00000000          1
H         6.44469359      13.18734626       7.80735333         0.00000000       0.00000000       0.00000000          1
H         7.87715289      13.22993545       5.40932369         0.00000000       0.00000000       0.00000000          1
H         6.43659580      10.94921703       6.13553940         0.00000000       0.00000000       0.00000000          1
H         5.56700400      14.77655142       5.68406587         0.00000000       0.00000000       0.00000000          1
6
pbc=[F, F, F] list_num_par=6 frozen=false iter=20000 energy=-1.26974174 Lattice="15.00000000 0.00000000 0.00000000 0.00000000 15.00000000 0.00000000 0.00000000 0.00000000 15.00000000" energy_frozen_part=0.00000000 Properties=species:S:1:pos:R:3:velocities:R:3:Z:I:1
H         5.55822913      12.53853668       4.01217667         0.00000000       0.00000000       0.00000000          1
H         4.12612563      12.49583733       6.41042122         0.00000000       0.00000000       0.00000000          1
H         6.44460498      13.18723224       7.80718615         0.00000000       0.00000000       0.00000000          1
H         7.87669578      13.22992776       5.40894519         0.00000000       0.00000000       0.00000000          1
H         6.43620265      10.94919243       6.13524937         0.00000000       0.00000000       0.00000000          1
H         5.56661760      14.77657522       5.68412321         0.00000000       0.00000000       0.00000000          1
6
pbc=[F, F, F] list_num_par=6 frozen=false iter=20000 energy=-1.26974174 Lattice="15.00000000 0.00000000 0.00000000 0.00000000 15.00000000 0.00000000 0.00000000 0.00000000 15.00000000" energy_frozen_part=0.00000000 Properties=species:S:1:pos:R:3:velocities:R:3:Z:I:1
H         5.55878364      12.53874584       4.01224251         0.00000000       0.00000000       0.00000000          1
H         4.12628122      12.49572529       6.41024079         0.00000000       0.00000000       0.00000000          1
H         6.44444603      13.18719544       7.80746280         0.00000000       0.00000000       0.00000000          1
H         7.87695185      13.23022129       5.40947024         0.00000000       0.00000000       0.00000000          1
H         6.43653304      10.94930053       6.13533400         0.00000000       0.00000000       0.00000000          1
H         5.56669720      14.77664286       5.68437375         0.00000000       0.00000000       0.00000000          1
6
pbc=[F, F, F] list_num_par=6 frozen=false iter=20000 energy=-1.26974174 Lattice="15.00000000 0.00000000 0.00000000 0.00000000 15.00000000 0.00000000 0.00000000 0.00000000 15.00000000" energy_frozen_part=0.00000000 Properties=species:S:1:pos:R:3:velocities:R:3:Z:I:1
H         5.55874216      12.53854632       4.01219408         0.00000000       0.00000000       0.00000000          1
H         4.12637865      12.49583921       6.41027544         0.00000000       0.00000000       0.00000000          1
H         6.44467001      13.18729676       7.80729929         0.00000000       0.00000000       0.00000000          1
H         7.87703377      13.22999885       5.40922367         0.00000000       0.00000000       0.00000000          1
H         6.43651342      10.94923713       6.13537973         0.00000000       0.00000000       0.00000000          1
H         5.56690137      14.77660035       5.68410923         0.00000000       0.00000000       0.00000000          1
6
pbc=[F, F, F] list_num_par=6 frozen=false iter=20000 energy=-1.26974174 Lattice="15.00000000 0.00000000 0.00000000 0.00000000 15.00000000 0.00000000 0.00000000 0.00000000 15.00000000" energy_frozen_part=0.00000000 Properties=species:S:1:pos:R:3:velocities:R:3:Z:I:1
H         5.55879498      12.53872537       4.01231373         0.00000000       0.00000000       0.00000000          1
H         4.12637652      12.49575455       6.41035968         0.00000000       0.00000000       0.00000000          1
H         6.44460399      13.18723752       7.80749175         0.00000000       0.00000000       0.00000000          1
H         7.87702014      13.23020309       5.40944146         0.00000000       0.00000000       0.00000000          1
H         6.43660191      10.94930426       6.13539635         0.00000000       0.00000000       0.00000000          1
H         5.56678872      14.77665615       5.68440852         0.00000000       0.00000000       0.00000000          1
6
pbc=[F, F, F] list_num_par=6 frozen=false iter=20000 energy=-1.26974174 Lattice="15.00000000 0.00000000 0.00000000 0.00000000 15.00000000 0.00000000 0.00000000 0.00000000 15.00000000" energy_frozen_part=0.00000000 Properties=species:S:1:pos:R:3:velocities:R:3:Z:I:1
H         5.55830354      12.53879081       4.01201246         0.00000000       0.00000000       0.00000000          1
H         4.12613860      12.49612095       6.41021305         0.00000000       0.00000000       0.00000000          1
H         6.44461147      13.18733778       7.80706189         0.00000000       0.00000000       0.00000000          1
H         7.87677597      13.22999444       5.40886265         0.00000000       0.00000000       0.00000000          1
H         6.43612393      10.94933537       6.13506368         0.00000000       0.00000000       0.00000000          1
H         5.56679321      14.77678301       5.68401306         0.00000000       0.00000000       0.00000000          1
6
pbc=[F, F, F] list_num_par=6 frozen=false iter=20000 energy=-1.26974174 Lattice="15.00000000 0.00000000 0.00000000 0.00000000 15.00000000 0.00000000 0.00000000 0.00000000 15.00000000" energy_frozen_part=0.00000000 Properties=species:S:1:pos:R:3:velocities:R:3:Z:I:1
H         5.30681597      12.54832370       3.98403366         0.00000000       0.00000000       0.00000000          1
H         4.00920648      12.74547595       6.45013592         0.00000000       0.00000000       0.00000000          1
H         6.44922415      13.30723636       7.68910414         0.00000000       0.00000000       0.00000000          1
H         7.74682426      13.11008637       5.22300186         0.00000000       0.00000000       0.00000000          1
H         6.16684615      10.99777862       6.14284569         0.00000000       0.00000000       0.00000000          1
H         5.58918761      14.85778383       5.53030179         0.00000000       0.00000000       0.00000000          1
6
pbc=[F, F, F] list_num_par=6 frozen=false iter=20000 energy=-1.26974174 Lattice="15.00000000 0.00000000 0.00000000 0.00000000 15.00000000 0.00000000 0.00000000 0.00000000 15.00000000" energy_frozen_part=0.00000000 Properties=species:S:1:pos:R:3:velocities:R:3:Z:I:1
H         5.55876031      12.53854589       4.01218060         0.00000000       0.00000000       0.00000000          1
H         4.12639251      12.49581387       6.41025915         0.00000000       0.00000000       0.00000000          1
H         6.44468434      13.18730992       7.80728781         0.00000000       0.00000000       0.00000000          1
H         7.87704643      13.23002935       5.40920522         0.00000000       0.00000000       0.00000000          1
H         6.43655151      10.94924955       6.13536234         0.00000000       0.00000000       0.00000000          1
H         5.56688710      14.77659725       5.68410650         0.00000000       0.00000000       0.00000000          1
6
pbc=[F, F, F] list_num_par=6 frozen=false iter=20000 energy=-1.26974174 Lattice="15.00000000 0.00000000 0.00000000 0.00000000 15.00000000 0.00000000 0.00000000 0.00000000 15.00000000" energy_frozen_part=0.00000000 Properties=species:S:1:pos:R:3:velocities:R:3:Z:I:1
H         5.55895907      12.53845646       4.01220596         0.00000000       0.00000000       0.00000000          1
H         4.12647236      12.49584759       6.41021077         0.00000000       0.00000000       0.00000000          1
H         6.44469675      13.18732942       7.80734133         0.00000000       0.00000000       0.00000000          1
H         7.87718800      13.22994811       5.40933548         0.00000000       0.00000000       0.00000000          1
H         6.43661243      10.94921925       6.13549233         0.00000000       0.00000000       0.00000000          1
H         5.56704215      14.77657179       5.68405493         0.00000000       0.00000000       0.00000000          1
6
pbc=[F, F, F] list_num_par=6 frozen=false iter=20000 energy=-1.26974174 Lattice="15.00000000 0.00000000 0.00000000 0.00000000 15.00000000 0.00000000 0.00000000 0.00000000 15.00000000" energy_frozen_part=0.00000000 Properties=species:S:1:pos:R:3:velocities:R:3:Z:I:1
H         5.55820374      12.53853392       4.01215953         0.00000000       0.00000000       0.00000000          1
H         4.12611949      12.49583426       6.41040187         0.00000000       0.00000000       0.00000000          1
H         6.44459914      13.18719979       7.80717279         0.00000000       0.00000000       0.00000000          1
H         7.87667866      13.22990053       5.40892025         0.00000000       0.00000000       0.00000000          1
H         6.43617720      10.94917065       6.13521939         0.00000000       0.00000000       0.00000000          1
H         5.56661845      14.77656604       5.68411223         0.00000000       0.00000000       0.00000000          1
6
pbc=[F, F, F] list_num_par=6 frozen=false iter=20000 energy=-1.26974174 Lattice="15.00000000 0.00000000 0.00000000 0.00000000 15.00000000 0.00000000 0.00000000 0.00000000 15.00000000" energy_frozen_part=0.00000000 Properties=species:S:1:pos:R:3:velocities:R:3:Z:I:1
H         5.55826345      12.53881374       4.01200640         0.00000000       0.00000000       0.00000000          1
H         4.12611329      12.49606492       6.41020833         0.00000000       0.00000000       0.00000000          1
H         6.44458420      13.18725424       7.80707018         0.00000000       0.00000000       0.00000000          1
H         7.87673951      13.22999330       5.40886631         0.00000000       0.00000000       0.00000000          1
H         6.43610309      10.94929887       6.13500437         0.00000000       0.00000000       0.00000000          1
H         5.56674964      14.77676255       5.68406012         0.00000000       0.00000000       0.00000000          1
6
pbc=[F, F, F] list_num_par=6 frozen=false iter=20000 energy=-1.26974174 Lattice="15.00000000 0.00000000 0.00000000 0.00000000 15.00000000 0.00000000 0.00000000 0.00000000 15.00000000" energy_frozen_part=0.00000000 Properties=species:S:1:pos:R:3:velocities:R:3:Z:I:1
H         5.55823051      12.53867161       4.01217504         0.00000000       0.00000000       0.00000000          1
H         4.12617261      12.49607555       6.41044166         0.00000000       0.00000000       0.00000000          1
H         6.44467515      13.18749111       7.80714712         0.00000000       0.00000000       0.00000000          1
H         7.87673344      13.23007913       5.40888163         0.00000000       0.00000000       0.00000000          1
H         6.43622836      10.94938656       6.13528560         0.00000000       0.00000000       0.00000000          1
H         5.56668421      14.77676700       5.68404325         0.00000000       0.00000000       0.00000000          1
6
pbc=[F, F, F] list_num_par=6 frozen=false iter=20000 energy=-1.26974174 Lattice="15.00000000 0.00000000 0.00000000 0.00000000 15.00000000 0.00000000 0.00000000 0.00000000 15.00000000" energy_frozen_part=0.00000000 Properties=species:S:1:pos:R:3:velocities:R:3:Z:I:1
H         5.55818121      12.53863555       4.01247048         0.00000000       0.00000000       0.00000000          1
H         4.12629575      12.49616078       6.41083798         0.00000000       0.00000000       0.00000000          1
H         6.44495065      13.18741021       7.80736773         0.00000000       0.00000000       0.00000000          1
H         7.87683502      13.22988753       5.40899611         0.00000000       0.00000000       0.00000000          1
H         6.43622169      10.94930302       6.13552562         0.00000000       0.00000000       0.00000000          1
H         5.56692004      14.77674589       5.68432143         0.00000000       0.00000000       0.00000000          1
6
pbc=[F, F, F] list_num_par=6 frozen=false iter=20000 energy=-1.26974174 Lattice="15.00000000 0.00000000 0.00000000 0.00000000 15.00000000 0.00000000 0.00000000 0.00000000 15.00000000" energy_frozen_part=0.00000000 Properties=species:S:1:pos:R:3:velocities:R:3:Z:I:1
H         5.55877827      12.53874296       4.01225482         0.00000000       0.00000000       0.00000000          1
H         4.12628615      12.49573719       6.41024968         0.00000000       0.00000000       0.00000000          1
H         6.44446196      13.18720492       7.80746977         0.00000000       0.00000000       0.00000000          1
H         7.87695524      13.23021032       5.40946597         0.00000000       0.00000000       0.00000000          1
H         6.43652768      10.94929480       6.13533973         0.00000000       0.00000000       0.00000000          1
H         5.56671718      14.77665203       5.68437965         0.00000000       0.00000000       0.00000000          1
6
pbc=[F, F, F] list_num_par=6 frozen=false iter=20000 energy=-1.26974174 Lattice="15.00000000 0.00000000 0.00000000 0.00000000 15.00000000 0.00000000 0.00000000 0.00000000 15.00000000" energy_frozen_part=0.00000000 Properties=species:S:1:pos:R:3:velocities:R:3:Z:I:1
H         5.55879156      12.53872441       4.01229558         0.00000000       0.00000000       0.00000000          1
H         4.12636117      12.49575864       6.41032966         0.00000000       0.00000000       0.00000000          1
H         6.44456603      13.18724961       7.80747807         0.00000000       0.00000000       0.00000000          1
H         7.87700592      13.23020642       5.40944438         0.00000000       0.00000000       0.00000000          1
H         6.43659724      10.94931601       6.13539040         0.00000000       0.00000000       0.00000000          1
H         5.56677334      14.77665873       5.68437720         0.00000000       0.00000000       0.00000000          1
6
pbc=[F, F, F] list_num_par=6 frozen=false iter=20000 energy=-1.26974174 Lattice="15.00000000 0.00000000 0.00000000 0.00000000 15.00000000 0.00000000 0.00000000 0.00000000 15.00000000" energy_frozen_part=0.00000000 Properties=species:S:1:pos:R:3:velocities:R:3:Z:I:1
H         5.55878917      12.53872011       4.01231851         0.00000000       0.00000000       0.00000000          1
H         4.12635361      12.49576048       6.41035073         0.00000000       0.00000000       0.00000000          1
H         6.44457486      13.18722774       7.80749432         0.00000000       0.00000000       0.00000000          1
H         7.87700913      13.23018240       5.40946153         0.00000000       0.00000000       0.00000000          1
H         6.43657823      10.94929485       6.13540010         0.00000000       0.00000000       0.00000000          1
H         5.56679240      14.77665440       5.68440584         0.00000000       0.00000000       0.00000000          1
6
pbc=[F, F, F] list_num_par=6 frozen=false iter=20000 energy=-1.26974174 Lattice="15.00000000 0.00000000 0.00000000 0.00000000 15.00000000 0.00000000 0.00000000 0.00000000 15.00000000" energy_frozen_part=0.00000000 Properties=species:S:1:pos:R:3:velocities:R:3:Z:I:1
H         5.55876205      12.53855963       4.01218584         0.00000000       0.00000000       0.00000000          1
H         4.12637450      12.49585139       6.41025108         0.00000000       0.00000000       0.00000000          1
H         6.44465219      13.18732052       7.80730115         0.00000000       0.00000000       0.00000000          1
H         7.87703975      13.23002983       5.40923600         0.00000000       0.00000000       0.00000000          1
H         6.43652230      10.94926042       6.13538132         0.00000000       0.00000000       0.00000000          1
H         5.56689733      14.77661366       5.68410885         0.00000000       0.00000000       0.00000000          1
6
pbc=[F, F, F] list_num_par=6 frozen=false iter=20000 energy=-1.26974174 Lattice="15.00000000 0.00000000 0.00000000 0.00000000 15.00000000 0.00000000 0.00000000 0.00000000 15.00000000" energy_frozen_part=0.00000000 Properties=species:S:1:pos:R:3:velocities:R:3:Z:I:1
H         5.55818977      12.53857690       4.01216842         0.00000000       0.00000000       0.00000000          1
H         4.12612976      12.49586587       6.41043692         0.00000000       0.00000000       0.00000000          1
H         6.44462009      13.18721096       7.80718537         0.00000000       0.00000000       0.00000000          1
H         7.87668343      13.22992181       5.40892343         0.00000000       0.00000000       0.00000000          1
H         6.43617830      10.94919065       6.13520869         0.00000000       0.00000000       0.00000000          1
H         5.56663249      14.77659028       5.68414605         0.00000000       0.00000000       0.00000000          1
6
pbc=[F, F, F] list_num_par=6 frozen=false iter=20000 energy=-1.26974174 Lattice="15.00000000 0.00000000 0.00000000 0.00000000 15.00000000 0.00000000 0.00000000 0.00000000 15.00000000" energy_frozen_part=0.00000000 Properties=species:S:1:pos:R:3:velocities:R:3:Z:I:1
H         5.55822286      12.53867709       4.01218410         0.00000000       0.00000000       0.00000000          1
H         4.12617571      12.49607364       6.41045460         0.00000000       0.00000000       0.00000000          1
H         6.44469029      13.18747246       7.80714988         0.00000000       0.00000000       0.00000000          1
H         7.87673534      13.23007953       5.40887614         0.00000000       0.00000000       0.00000000          1
H         6.43621778      10.94938261       6.13528085         0.00000000       0.00000000       0.00000000          1
H         5.56668360      14.77676966       5.68405686         0.00000000       0.00000000       0.00000000          1
6
pbc=[F, F, F] list_num_par=6 frozen=false iter=20000 energy=-1.26974174 Lattice="15.00000000 0.00000000 0.00000000 0.00000000 15.00000000 0.00000000 0.00000000 0.00000000 15.00000000" energy_frozen_part=0.00000000 Properties=species:S:1:pos:R:3:velocities:R:3:Z:I:1
H         5.55874427      12.53855189       4.01218532         0.00000000       0.00000000       0.00000000          1
H         4.12637486      12.49584554       6.41026513         0.00000000       0.00000000       0.00000000          1
H         6.44467105      13.18730307       7.80728929         0.00000000       0.00000000       0.00000000          1
H         7.87703871      13.23000540       5.40921603         0.00000000       0.00000000       0.00000000          1
H         6.43652176      10.94924335       6.13537297         0.00000000       0.00000000       0.00000000          1
H         5.56689923      14.77660589       5.68410548         0.00000000       0.00000000       0.00000000          1
6
pbc=[F, F, F] list_num_par=6 frozen=false iter=20000 energy=-1.26974174 Lattice="15.00000000 0.00000000 0.00000000 0.00000000 15.00000000 0.00000000 0.00000000 0.00000000 15.00000000" energy_frozen_part=0.00000000 Properties=species:S:1:pos:R:3:velocities:R:3:Z:I:1
H         5.55822858      12.53857585       4.01216512         0.00000000       0.00000000       0.00000000          1
H         4.12612904      12.49584025       6.41041059         0.00000000       0.00000000       0.00000000          1
H         6.44461253      13.18717384       7.80718722         0.00000000       0.00000000       0.00000000          1
H         7.87670306      13.22990401       5.40894865         0.00000000       0.00000000       0.00000000          1
H         6.43617983      10.94916758       6.13519427         0.00000000       0.00000000       0.00000000          1
H         5.56664413      14.77657778       5.68415468         0.00000000       0.00000000       0.00000000          1
6
pbc=[F, F, F] list_num_par=6 frozen=false iter=20000 energy=-1.26974174 Lattice="15.00000000 0.00000000 0.00000000 0.00000000 15.00000000 0.00000000 0.00000000 0.00000000 15.00000000" energy_frozen_part=0.00000000 Properties=species:S:1:pos:R:3:velocities:R:3:Z:I:1
H         5.55877919      12.53872994       4.01230488         0.00000000       0.00000000       0.00000000          1
H         4.12634341      12.49577806       6.41033790         0.00000000       0.00000000       0.00000000          1
H         6.44456395      13.18723906       7.80748056         0.00000000       0.00000000       0.00000000          1
H         7.87700871      13.23019108       5.40944496         0.00000000       0.00000000       0.00000000          1
H         6.43656496      10.94930532       6.13538973         0.00000000       0.00000000       0.00000000          1
H         5.56678627      14.77665931       5.68438940         0.00000000       0.00000000       0.00000000          1
6
pbc=[F, F, F] list_num_par=6 frozen=false iter=20000 energy=-1.26974174 Lattice="15.00000000 0.00000000 0.00000000 0.00000000 15.00000000 0.00000000 0.00000000 0.00000000 15.00000000" energy_frozen_part=0.00000000 Properties=species:S:1:pos:R:3:velocities:R:3:Z:I:1
H         5.30681340      12.54831887       3.98403105         0.00000000       0.00000000       0.00000000          1
H         4.00921328      12.74548063       6.45012995         0.00000000       0.00000000       0.00000000          1
H         6.44922579      13.30725842       7.68910017         0.00000000       0.00000000       0.00000000          1
H         7.74682747      13.11009274       5.22300487         0.00000000       0.00000000       0.00000000          1
H         6.16685015      10.99778902       6.14284440         0.00000000       0.00000000       0.00000000          1
H         5.58918515      14.85778957       5.53029055         0.00000000       0.00000000       0.00000000          1
6
pbc=[F, F, F] list_num_par=6 frozen=false iter=20000 energy=-1.26974174 Lattice="15.00000000 0.00000000 0.00000000 0.00000000 15.00000000 0.00000000 0.00000000 0.00000000 15.00000000" energy_frozen_part=0.00000000 Properties=species:S:1:pos:R:3:velocities:R:3:Z:I:1
H         5.55895024      12.53846611       4.01220384         0.00000000       0.00000000       0.00000000          1
H         4.12646321      12.49584976       6.41021549         0.00000000       0.00000000       0.00000000          1
H         6.44469765      13.18733302       7.80733366         0.00000000       0.00000000       0.00000000          1
H         7.87717631      13.22995766       5.40932817         0.00000000       0.00000000       0.00000000          1
H         6.43660801      10.94922501       6.13548673         0.00000000       0.00000000       0.00000000          1
H         5.56703599      14.77658018       5.68405534         0.00000000       0.00000000       0.00000000          1
6
pbc=[F, F, F] list_num_par=6 frozen=false iter=20000 energy=-1.26974174 Lattice="15.00000000 0.00000000 0.00000000 0.00000000 15.00000000 0.00000000 0.00000000 0.00000000 15.00000000" energy_frozen_part=0.00000000 Properties=species:S:1:pos:R:3:velocities:R:3:Z:I:1
H         5.55822192      12.53854866       4.01217754         0.00000000       0.00000000       0.00000000          1
H         4.12613340      12.49583449       6.41042641         0.00000000       0.00000000       0.00000000          1
H         6.44460102      13.18723095       7.80718882         0.00000000       0.00000000       0.00000000          1
H         7.87669194      13.22993278       5.40894436         0.00000000       0.00000000       0.00000000          1
H         6.43621120      10.94919620       6.13523940         0.00000000       0.00000000       0.00000000          1
H         5.56660916      14.77658094       5.68412940         0.00000000       0.00000000       0.00000000          1
6
pbc=[F, F, F] list_num_par=6 frozen=false iter=20000 energy=-1.26974174 Lattice="15.00000000 0.00000000 0.00000000 0.00000000 15.00000000 0.00000000 0.00000000 0.00000000 15.00000000" energy_frozen_part=0.00000000 Properties=species:S:1:pos:R:3:velocities:R:3:Z:I:1
H         5.55815597      12.53865247       4.01248407         0.00000000       0.00000000       0.00000000          1
H         4.12631569      12.49617116       6.41088924         0.00000000       0.00000000       0.00000000          1
H         6.44499394      13.18743174       7.80737344         0.00000000       0.00000000       0.00000000          1
H         7.87683363      13.22991547       5.40897568         0.00000000       0.00000000       0.00000000          1
H         6.43623581      10.94933013       6.13551880         0.00000000       0.00000000       0.00000000          1
H         5.56691494      14.77675977       5.68433130         0.00000000       0.00000000       0.00000000          1
6
pbc=[F, F, F] list_num_par=6 frozen=false iter=20000 energy=-1.26974174 Lattice="15.00000000 0.00000000 0.00000000 0.00000000 15.00000000 0.00000000 0.00000000 0.00000000 15.00000000" energy_frozen_part=0.00000000 Properties=species:S:1:pos:R:3:velocities:R:3:Z:I:1
H         5.55827070      12.54742515       4.01343175         0.00000000       0.00000000       0.00000000          1
H         4.12482778      12.48891666       6.41053368         0.00000000       0.00000000       0.00000000          1
H         6.44115159      13.17703748       7.81246361         0.00000000       0.00000000       0.00000000          1
H         7.87458996      13.23555184       5.41535714         0.00000000       0.00000000       0.00000000          1
H         6.43799413      10.94816168       6.12831162         0.00000000       0.00000000       0.00000000          1
H         5.56143349      14.77630320       5.69758169         0.00000000       0.00000000       0.00000000          1
6
pbc=[F, F, F] list_num_par=6 frozen=false iter=20000 energy=-1.26974174 Lattice="15.00000000 0.00000000 0.00000000 0.00000000 15.00000000 0.00000000 0.00000000 0.00000000 15.00000000" energy_frozen_part=0.00000000 Properties=species:S:1:pos:R:3:velocities:R:3:Z:I:1
H         5.55876289      12.53850297       4.01218885         0.00000000       0.00000000       0.00000000          1
H         4.12640028      12.49578902       6.41026375         0.00000000       0.00000000       0.00000000          1
H         6.44468637      13.18729212       7.80728551         0.00000000       0.00000000       0.00000000          1
H         7.87705202      13.23000911       5.40920812         0.00000000       0.00000000       0.00000000          1
H         6.43657216      10.94922763       6.13538249         0.00000000       0.00000000       0.00000000          1
H         5.56688623      14.77656969       5.68408980         0.00000000       0.00000000       0.00000000          1
6
pbc=[F, F, F] list_num_par=6 frozen=false iter=20000 energy=-1.26974174 Lattice="15.00000000 0.00000000 0.00000000 0.00000000 15.00000000 0.00000000 0.00000000 0.00000000 15.00000000" energy_frozen_part=0.00000000 Properties=species:S:1:pos:R:3:velocities:R:3:Z:I:1
H         5.55820192      12.53854187       4.01217653         0.00000000       0.00000000       0.00000000          1
H         4.12613105      12.49582161       6.41043469         0.00000000       0.00000000       0.00000000          1
H         6.44462179      13.18718440       7.80718385         0.00000000       0.00000000       0.00000000          1
H         7.87668935      13.22989942       5.40893288         0.00000000       0.00000000       0.00000000          1
H         6.43619379      10.94916568       6.13521860         0.00000000       0.00000000       0.00000000          1
H         5.56662716      14.77656510       5.68414368         0.00000000       0.00000000       0.00000000          1
6
pbc=[F, F, F] list_num_par=6 frozen=false iter=20000 energy=-1.26974174 Lattice="15.00000000 0.00000000 0.00000000 0.00000000 15.00000000 0.00000000 0.00000000 0.00000000 15.00000000" energy_frozen_part=0.00000000 Properties=species:S:1:pos:R:3:velocities:R:3:Z:I:1
H         5.55874165      12.53851618       4.01219139         0.00000000       0.00000000       0.00000000          1
H         4.12640193      12.49578955       6.41028740         0.00000000       0.00000000       0.00000000          1
H         6.44470497      13.18728356       7.80728481         0.00000000       0.00000000       0.00000000          1
H         7.87703893      13.23002620       5.40918998         0.00000000       0.00000000       0.00000000          1
H         6.43656833      10.94923441       6.13535839         0.00000000       0.00000000       0.00000000          1
H         5.56687120      14.77657551       5.68411228         0.00000000       0.00000000       0.00000000          1
6
pbc=[F, F, F] list_num_par=6 frozen=false iter=20000 energy=-1.26974174 Lattice="15.00000000 0.00000000 0.00000000 0.00000000 15.00000000 0.00000000 0.00000000 0.00000000 15.00000000" energy_frozen_part=0.00000000 Properties=species:S:1:pos:R:3:velocities:R:3:Z:I:1
H         5.55820520      12.53855152       4.01217551         0.00000000       0.00000000       0.00000000          1
H         4.12612949      12.49582802       6.41042203         0.00000000       0.00000000       0.00000000          1
H         6.44461320      13.18717754       7.80718460         0.00000000       0.00000000       0.00000000          1
H         7.87669075      13.22990425       5.40893057         0.00000000       0.00000000       0.00000000          1
H         6.43619270      10.94916250       6.13521051         0.00000000       0.00000000       0.00000000          1
H         5.56663622      14.77657043       5.68415504         0.00000000       0.00000000       0.00000000          1
6
pbc=[F, F, F] list_num_par=6 frozen=false iter=20000 energy=-1.26974174 Lattice="15.00000000 0.00000000 0.00000000 0.00000000 15.00000000 0.00000000 0.00000000 0.00000000 15.00000000" energy_frozen_part=0.00000000 Properties=species:S:1:pos:R:3:velocities:R:3:Z:I:1
H         5.55819959      12.53858955       4.01216213         0.00000000       0.00000000       0.00000000          1
H         4.12611877      12.49586281       6.41041645         0.00000000       0.00000000       0.00000000          1
H         6.44460749      13.18720211       7.80718521         0.00000000       0.00000000       0.00000000          1
H         7.87668032      13.22992158       5.40892865         0.00000000       0.00000000       0.00000000          1
H         6.43616932      10.94918804       6.13519900         0.00000000       0.00000000       0.00000000          1
H         5.56663220      14.77659589       5.68414940         0.00000000       0.00000000       0.00000000          1
6
pbc=[F, F, F] list_num_par=6 frozen=false iter=20000 energy=-1.26974174 Lattice="15.00000000 0.00000000 0.00000000 0.00000000 15.00000000 0.00000000 0.00000000 0.00000000 15.00000000" energy_frozen_part=0.00000000 Properties=species:S:1:pos:R:3:velocities:R:3:Z:I:1
H         5.55820408      12.53854620       4.01217963         0.00000000       0.00000000       0.00000000          1
H         4.12612690      12.49581970       6.41043191         0.00000000       0.00000000       0.00000000          1
H         6.44460525      13.18719417       7.80718970         0.00000000       0.00000000       0.00000000          1
H         7.87669031      13.22991078       5.40893654         0.00000000       0.00000000       0.00000000          1
H         6.43619397      10.94917412       6.13522375         0.00000000       0.00000000       0.00000000          1
H         5.56662333      14.77656487       5.68414140         0.00000000       0.00000000       0.00000000          1
6
pbc=[F, F, F] list_num_par=6 frozen=false iter=20000 energy=-1.26974174 Lattice="15.00000000 0.00000000 0.00000000 0.00000000 15.00000000 0.00000000 0.00000000 0.00000000 15.00000000" energy_frozen_part=0.00000000 Properties=species:S:1:pos:R:3:velocities:R:3:Z:I:1
H         5.55872910      12.53855647       4.01220497         0.00000000       0.00000000       0.00000000          1
H         4.12638643      12.49584439       6.41029669         0.00000000       0.00000000       0.00000000          1
H         6.44469010      13.18729963       7.80731004         0.00000000       0.00000000       0.00000000          1
H         7.87703361      13.23002264       5.40921593         0.00000000       0.00000000       0.00000000          1
H         6.43652912      10.94924827       6.13537473         0.00000000       0.00000000       0.00000000          1
H         5.56689226      14.77660670       5.68413826         0.00000000       0.00000000       0.00000000          1
6
pbc=[F, F, F] list_num_par=6 frozen=false iter=20000 energy=-1.26974174 Lattice="15.00000000 0.00000000 0.00000000 0.00000000 15.00000000 0.00000000 0.00000000 0.00000000 15.00000000" energy_frozen_part=0.00000000 Properties=species:S:1:pos:R:3:velocities:R:3:Z:I:1
H         5.55875619      12.53855998       4.01219584         0.00000000       0.00000000       0.00000000          1
H         4.12638665      12.49586126       6.41027501         0.00000000       0.00000000       0.00000000          1
H         6.44467918      13.18731896       7.80729743         0.00000000       0.00000000       0.00000000          1
H         7.87704654      13.23001875       5.40922153         0.00000000       0.00000000       0.00000000          1
H         6.43652540      10.94926214       6.13538095         0.00000000       0.00000000       0.00000000          1
H         5.56690367      14.77662393       5.68410755         0.00000000       0.00000000       0.00000000          1
6
pbc=[F, F, F] list_num_par=6 frozen=false iter=20000 energy=-1.26974174 Lattice="15.00000000 0.00000000 0.00000000 0.00000000 15.00000000 0.00000000 0.00000000 0.00000000 15.00000000" energy_frozen_part=0.00000000 Properties=species:S:1:pos:R:3:velocities:R:3:Z:I:1
H         5.55822694      12.53868469       4.01218081         0.00000000       0.00000000       0.00000000          1
H         4.12618549      12.49607080       6.41045637         0.00000000       0.00000000       0.00000000          1
H         6.44469203      13.18747050       7.80715587         0.00000000       0.00000000       0.00000000          1
H         7.87673191      13.23009004       5.40888304         0.00000000       0.00000000       0.00000000          1
H         6.43623699      10.94938200       6.13527386         0.00000000       0.00000000       0.00000000          1
H         5.56667972      14.77676663       5.68406510         0.00000000       0.00000000       0.00000000          1
6
pbc=[F, F, F] list_num_par=6 frozen=false iter=20000 energy=-1.26974174 Lattice="15.00000000 0.00000000 0.00000000 0.00000000 15.00000000 0.00000000 0.00000000 0.00000000 15.00000000" energy_frozen_part=0.00000000 Properties=species:S:1:pos:R:3:velocities:R:3:Z:I:1
H         5.55877508      12.53873448       4.01224582         0.00000000       0.00000000       0.00000000          1
H         4.12628070      12.49573753       6.41023966         0.00000000       0.00000000       0.00000000          1
H         6.44445845      13.18720065       7.80745706         0.00000000       0.00000000       0.00000000          1
H         7.87695773      13.23020229       5.40945925         0.00000000       0.00000000       0.00000000          1
H         6.43652922      10.94929665       6.13532974         0.00000000       0.00000000       0.00000000          1
H         5.56671237      14.77664662       5.68436626         0.00000000       0.00000000       0.00000000          1
6
pbc=[F, F, F] list_num_par=6 frozen=false iter=20000 energy=-1.26974174 Lattice="15.00000000 0.00000000 0.00000000 0.00000000 15.00000000 0.00000000 0.00000000 0.00000000 15.00000000" energy_frozen_part=0.00000000 Properties=species:S:1:pos:R:3:velocities:R:3:Z:I:1
H         5.30679366      12.54831872       3.98401419         0.00000000       0.00000000       0.00000000          1
H         4.00919135      12.74546099       6.45011110         0.00000000       0.00000000       0.00000000          1
H         6.44920278      13.30725099       7.68907882         0.00000000       0.00000000       0.00000000          1
H         7.74680332      13.11010893       5.22297806         0.00000000       0.00000000       0.00000000          1
H         6.16685491      10.99778642       6.14282019         0.00000000       0.00000000       0.00000000          1
H         5.58915201      14.85778552       5.53026990         0.00000000       0.00000000       0.00000000          1
6
pbc=[F, F, F] list_num_par=6 frozen=false iter=20000 energy=-1.26974174 Lattice="15.00000000 0.00000000 0.00000000 0.00000000 15.00000000 0.00000000 0.00000000 0.00000000 15.00000000" energy_frozen_part=0.00000000 Properties=species:S:1:pos:R:3:velocities:R:3:Z:I:1
H         5.55818031      12.53864234       4.01248041         0.00000000       0.00000000       0.00000000          1
H         4.12630549      12.49616738       6.41085453         0.00000000       0.00000000       0.00000000          1
H         6.44495814      13.18742766       7.80737580         0.00000000       0.00000000       0.00000000          1
H         7.87684147      13.22989391       5.40900655         0.00000000       0.00000000       0.00000000          1
H         6.43621930      10.94931283       6.13553454         0.00000000       0.00000000       0.00000000          1
H         5.56692049      14.77675434       5.68431525         0.00000000       0.00000000       0.00000000          1
6
pbc=[F, F, F] list_num_par=6 frozen=false iter=20000 energy=-1.26974174 Lattice="15.00000000 0.00000000 0.00000000 0.00000000 15.00000000 0.00000000 0.00000000 0.00000000 15.00000000" energy_frozen_part=0.00000000 Properties=species:S:1:pos:R:3:velocities:R:3:Z:I:1
H         5.55874298      12.53853402       4.01219155         0.00000000       0.00000000       0.00000000          1
H         4.12637476      12.49583622       6.41027573         0.00000000       0.00000000       0.00000000          1
H         6.44466586      13.18730257       7.80730115         0.00000000       0.00000000       0.00000000          1
H         7.87703281      13.22999607       5.40921769         0.00000000       0.00000000       0.00000000          1
H         6.43651632      10.94923645       6.13538243         0.00000000       0.00000000       0.00000000          1
H         5.56689640      14.77659327       5.68411041         0.00000000       0.00000000       0.00000000          1
6
pbc=[F, F, F] list_num_par=6 frozen=false iter=20000 energy=-1.26974174 Lattice="15.00000000 0.00000000 0.00000000 0.00000000 15.00000000 0.00000000 0.00000000 0.00000000 15.00000000" energy_frozen_part=0.00000000 Properties=species:S:1:pos:R:3:velocities:R:3:Z:I:1
H         5.55877741      12.53874103       4.01224683         0.00000000       0.00000000       0.00000000          1
H         4.12628012      12.49574367       6.41024481         0.00000000       0.00000000       0.00000000          1
H         6.44445576      13.18720155       7.80746126         0.00000000       0.00000000       0.00000000          1
H         7.87695145      13.23020941       5.40946027         0.00000000       0.00000000       0.00000000          1
H         6.43652354      10.94929359       6.13533778         0.00000000       0.00000000       0.00000000          1
H         5.56671034      14.77664774       5.68437307         0.00000000       0.00000000       0.00000000          1
6
pbc=[F, F, F] list_num_par=6 frozen=false iter=20000 energy=-1.26974174 Lattice="15.00000000 0.00000000 0.00000000 0.00000000 15.00000000 0.00000000 0.00000000 0.00000000 15.00000000" energy_frozen_part=0.00000000 Properties=species:S:1:pos:R:3:velocities:R:3:Z:I:1
H         5.55820296      12.53862119       4.01217688         0.00000000       0.00000000       0.00000000          1
H         4.12612497      12.49587687       6.41042649         0.00000000       0.00000000       0.00000000          1
H         6.44461534      13.18716665       7.80719933         0.00000000       0.00000000       0.00000000          1
H         7.87669358      13.22991883       5.40895678         0.00000000       0.00000000       0.00000000          1
H         6.43616191      10.94918347       6.13518423         0.00000000       0.00000000       0.00000000          1
H         5.56665363      14.77661036       5.68418983         0.00000000       0.00000000       0.00000000          1
6
pbc=[F, F, F] list_num_par=6 frozen=false iter=20000 energy=-1.26974174 Lattice="15.00000000 0.00000000 0.00000000 0.00000000 15.00000000 0.00000000 0.00000000 0.00000000 15.00000000" energy_frozen_part=0.00000000 Properties=species:S:1:pos:R:3:velocities:R:3:Z:I:1
H         5.55819838      12.53856004       4.01216235         0.00000000       0.00000000       0.00000000          1
H         4.12611743      12.49582653       6.41041437         0.00000000       0.00000000       0.00000000          1
H         6.44459545      13.18720782       7.80717528         0.00000000       0.00000000       0.00000000          1
H         7.87668228      13.22994022       5.40892909         0.00000000       0.00000000       0.00000000          1
H         6.43619341      10.94919190       6.13520219         0.00000000       0.00000000       0.00000000          1
H         5.56660199      14.77657301       5.68413249         0.00000000       0.00000000       0.00000000          1
6
pbc=[F, F, F] list_num_par=6 frozen=false iter=20000 energy=-1.26974174 Lattice="15.00000000 0.00000000 0.00000000 0.00000000 15.00000000 0.00000000 0.00000000 0.00000000 15.00000000" energy_frozen_part=0.00000000 Properties=species:S:1:pos:R:3:velocities:R:3:Z:I:1
H         5.55818746      12.53861250       4.01248305         0.00000000       0.00000000       0.00000000          1
H         4.12630260      12.49617287       6.41085212         0.00000000       0.00000000       0.00000000          1
H         6.44494808      13.18743902       7.80738293         0.00000000       0.00000000       0.00000000          1
H         7.87683510      13.22988014       5.40901214         0.00000000       0.00000000       0.00000000          1
H         6.43621351      10.94930929       6.13555659         0.00000000       0.00000000       0.00000000          1
H         5.56692584      14.77674547       5.68429992         0.00000000       0.00000000       0.00000000          1
6
pbc=[F, F, F] list_num_par=6 frozen=false iter=20000 energy=-1.26974174 Lattice="15.00000000 0.00000000 0.00000000 0.00000000 15.00000000 0.00000000 0.00000000 0.00000000 15.00000000" energy_frozen_part=0.00000000 Properties=species:S:1:pos:R:3:velocities:R:3:Z:I:1
H         5.30679729      12.54832960       3.98400624         0.00000000       0.00000000       0.00000000          1
H         4.00919920      12.74545860       6.45010865         0.00000000       0.00000000       0.00000000          1
H         6.44921196      13.30724037       7.68907934         0.00000000       0.00000000       0.00000000          1
H         7.74681247      13.11011063       5.22297983         0.00000000       0.00000000       0.00000000          1
H         6.16684915      10.99778196       6.14280427         0.00000000       0.00000000       0.00000000          1
H         5.58915459      14.85778678       5.53028443         0.00000000       0.00000000       0.00000000          1
6
pbc=[F, F, F] list_num_par=6 frozen=false iter=20000 energy=-1.26974174 Lattice="15.00000000 0.00000000 0.00000000 0.00000000 15.00000000 0.00000000 0.00000000 0.00000000 15.00000000" energy_frozen_part=0.00000000 Properties=species:S:1:pos:R:3:velocities:R:3:Z:I:1
H         5.55818030      12.53863698       4.01247923         0.00000000       0.00000000       0.00000000          1
H         4.12630203      12.49616385       6.41084677         0.00000000       0.00000000       0.00000000          1
H         6.44495625      13.18742486       7.80737757         0.00000000       0.00000000       0.00000000          1
H         7.87683472      13.22989560       5.40900773         0.00000000       0.00000000       0.00000000          1
H         6.43622286      10.94931005       6.13553995         0.00000000       0.00000000       0.00000000          1
H         5.56692083      14.77675227       5.68431931         0.00000000       0.00000000       0.00000000          1
6
pbc=[F, F, F] list_num_par=6 frozen=false iter=20000 energy=-1.26974174 Lattice="15.00000000 0.00000000 0.00000000 0.00000000 15.00000000 0.00000000 0.00000000 0.00000000 15.00000000" energy_frozen_part=0.00000000 Properties=species:S:1:pos:R:3:velocities:R:3:Z:I:1
H         5.55827241      12.53882384       4.01203063         0.00000000       0.00000000       0.00000000          1
H         4.12612717      12.49611362       6.41023560         0.00000000       0.00000000       0.00000000          1
H         6.44461360      13.18729618       7.80708992         0.00000000       0.00000000       0.00000000          1
H         7.87676067      13.23000455       5.40887503         0.00000000       0.00000000       0.00000000          1
H         6.43611219      10.94932939       6.13504723         0.00000000       0.00000000       0.00000000          1
H         5.56677928      14.77678666       5.68407299         0.00000000       0.00000000       0.00000000          1
6
pbc=[F, F, F] list_num_par=6 frozen=false iter=20000 energy=-1.26974174 Lattice="15.00000000 0.00000000 0.00000000 0.00000000 15.00000000 0.00000000 0.00000000 0.00000000 15.00000000" energy_frozen_part=0.00000000 Properties=species:S:1:pos:R:3:velocities:R:3:Z:I:1
H         5.55872842      12.53856059       4.01221595         0.00000000       0.00000000       0.00000000          1
H         4.12637331      12.49583739       6.41029697         0.00000000       0.00000000       0.00000000          1
H         6.44467051      13.18730852       7.80731890         0.00000000       0.00000000       0.00000000          1
H         7.87702357      13.23002891       5.40923057         0.00000000       0.00000000       0.00000000          1
H         6.43652412      10.94924974       6.13539118         0.00000000       0.00000000       0.00000000          1
H         5.56687379      14.77661439       5.68414124         0.00000000       0.00000000       0.00000000          1
6
pbc=[F, F, F] list_num_par=6 frozen=false iter=20000 energy=-1.26974174 Lattice="15.00000000 0.00000000 0.00000000 0.00000000 15.00000000 0.00000000 0.00000000 0.00000000 15.00000000" energy_frozen_part=0.00000000 Properties=species:S:1:pos:R:3:velocities:R:3:Z:I:1
H         5.55874949      12.53856284       4.01220066         0.00000000       0.00000000       0.00000000          1
H         4.12638266      12.49582933       6.41028444         0.00000000       0.00000000       0.00000000          1
H         6.44466866      13.18730277       7.80731213         0.00000000       0.00000000       0.00000000          1
H         7.87703158      13.23003928       5.40923722         0.00000000       0.00000000       0.00000000          1
H         6.43653817      10.94925625       6.13537991         0.00000000       0.00000000       0.00000000          1
H         5.56687118      14.77660755       5.68413958         0.00000000       0.00000000       0.00000000          1
6
pbc=[F, F, F] list_num_par=6 frozen=false iter=20000 energy=-1.26974174 Lattice="15.00000000 0.00000000 0.00000000 0.00000000 15.00000000 0.00000000 0.00000000 0.00000000 15.00000000" energy_frozen_part=0.00000000 Properties=species:S:1:pos:R:3:velocities:R:3:Z:I:1
H         5.55889024      12.53854987       4.01220976         0.00000000       0.00000000       0.00000000          1
H         4.12643546      12.49586401       6.41023515         0.00000000       0.00000000       0.00000000          1
H         6.44467477      13.18732661       7.80734495         0.00000000       0.00000000       0.00000000          1
H         7.87713962      13.23000393       5.40931961         0.00000000       0.00000000       0.00000000          1
H         6.43657484      10.94925553       6.13543911         0.00000000       0.00000000       0.00000000          1
H         5.56699247      14.77661917       5.68411892         0.00000000       0.00000000       0.00000000          1
6
pbc=[F, F, F] list_num_par=6 frozen=false iter=20000 energy=-1.26974174 Lattice="15.00000000 0.00000000 0.00000000 0.00000000 15.00000000 0.00000000 0.00000000 0.00000000 15.00000000" energy_frozen_part=0.00000000 Properties=species:S:1:pos:R:3:velocities:R:3:Z:I:1
H         5.55825926      12.53880526       4.01202020         0.00000000       0.00000000       0.00000000          1
H         4.12612050      12.49613546       6.41023659         0.00000000       0.00000000       0.00000000          1
H         6.44461028      13.18732226       7.80706683         0.00000000       0.00000000       0.00000000          1
H         7.87675199      13.22999857       5.40885497         0.00000000       0.00000000       0.00000000          1
H         6.43609802      10.94933331       6.13505420         0.00000000       0.00000000       0.00000000          1
H         5.56677430      14.77679378       5.68403588         0.00000000       0.00000000       0.00000000          1
6
pbc=[F, F, F] list_num_par=6 frozen=false iter=20000 energy=-1.26974174 Lattice="15.00000000 0.00000000 0.00000000 0.00000000 15.00000000 0.00000000 0.00000000 0.00000000 15.00000000" energy_frozen_part=0.00000000 Properties=species:S:1:pos:R:3:velocities:R:3:Z:I:1
H         5.55889942      12.53855658       4.01219560         0.00000000       0.00000000       0.00000000          1
H         4.12643492      12.49585656       6.41021353         0.00000000       0.00000000       0.00000000          1
H         6.44467560      13.18729667       7.80733715         0.00000000       0.00000000       0.00000000          1
H         7.87714403      13.22999117       5.40931976         0.00000000       0.00000000       0.00000000          1
H         6.43657667      10.94923817       6.13540974         0.00000000       0.00000000       0.00000000          1
H         5.56700660      14.77661570       5.68411953         0.00000000       0.00000000       0.00000000          1
6
pbc=[F, F, F] list_num_par=6 frozen=false iter=20000 energy=-1.26974174 Lattice="15.00000000 0.00000000 0.00000000 0.00000000 15.00000000 0.00000000 0.00000000 0.00000000 15.00000000" energy_frozen_part=0.00000000 Properties=species:S:1:pos:R:3:velocities:R:3:Z:I:1
H         5.55818174      12.53862671       4.01249292         0.00000000       0.00000000       0.00000000          1
H         4.12629601      12.49617215       6.41086619         0.00000000       0.00000000       0.00000000          1
H         6.44495293      13.18741418       7.80739110         0.00000000       0.00000000       0.00000000          1
H         7.87683922      13.22987587       5.40902055         0.00000000       0.00000000       0.00000000          1
H         6.43620378      10.94930474       6.13555328         0.00000000       0.00000000       0.00000000          1
H         5.56692752      14.77674033       5.68432731         0.00000000       0.00000000       0.00000000          1
6
pbc=[F, F, F] list_num_par=6 frozen=false iter=20000 energy=-1.26974174 Lattice="15.00000000 0.00000000 0.00000000 0.00000000 15.00000000 0.00000000 0.00000000 0.00000000 15.00000000" energy_frozen_part=0.00000000 Properties=species:S:1:pos:R:3:velocities:R:3:Z:I:1
H         5.55878045      12.53872059       4.01230129         0.00000000       0.00000000       0.00000000          1
H         4.12635417      12.49577192       6.41033601         0.00000000       0.00000000       0.00000000          1
H         6.44457255      13.18724123       7.80747871         0.00000000       0.00000000       0.00000000          1
H         7.87699920      13.23020048       5.40943778         0.00000000       0.00000000       0.00000000          1
H         6.43658186      10.94930577       6.13539096         0.00000000       0.00000000       0.00000000          1
H         5.56677162      14.77665775       5.68438746         0.00000000       0.00000000       0.00000000          1
6
pbc=[F, F, F] list_num_par=6 frozen=false iter=20000 energy=-1.26974174 Lattice="15.00000000 0.00000000 0.00000000 0.00000000 15.00000000 0.00000000 0.00000000 0.00000000 15.00000000" energy_frozen_part=0.00000000 Properties=species:S:1:pos:R:3:velocities:R:3:Z:I:1
H         5.55815591      12.53864797       4.01248238         0.00000000       0.00000000       0.00000000          1
H         4.12631944      12.49617315       6.41087765         0.00000000       0.00000000       0.00000000          1
H         6.44499635      13.18742594       7.80737070         0.00000000       0.00000000       0.00000000          1
H         7.87682886      13.22990276       5.40896906         0.00000000       0.00000000       0.00000000          1
H         6.43623051      10.94931384       6.13552467         0.00000000       0.00000000       0.00000000          1
H         5.56692134      14.77676049       5.68433492         0.00000000       0.00000000       0.00000000          1
6
pbc=[F, F, F] list_num_par=6 frozen=false iter=20000 energy=-1.26974174 Lattice="15.00000000 0.00000000 0.00000000 0.00000000 15.00000000 0.00000000 0.00000000 0.00000000 15.00000000" energy_frozen_part=0.00000000 Properties=species:S:1:pos:R:3:velocities:R:3:Z:I:1
H         5.30680799      12.54829947       3.98404004         0.00000000       0.00000000       0.00000000          1
H         4.00919503      12.74547889       6.45013327         0.00000000       0.00000000       0.00000000          1
H         6.44921216      13.30724596       7.68910099         0.00000000       0.00000000       0.00000000          1
H         7.74681874      13.11006576       5.22301057         0.00000000       0.00000000       0.00000000          1
H         6.16682958      10.99776486       6.14285706         0.00000000       0.00000000       0.00000000          1
H         5.58918763      14.85777606       5.53027972         0.00000000       0.00000000       0.00000000          1
6
pbc=[F, F, F] list_num_par=6 frozen=false iter=20000 energy=-1.26974174 Lattice="15.00000000 0.00000000 0.00000000 0.00000000 15.00000000 0.00000000 0.00000000 0.00000000 15.00000000" energy_frozen_part=0.00000000 Properties=species:S:1:pos:R:3:velocities:R:3:Z:I:1
H         5.55873521      12.53856335       4.01222095         0.00000000       0.00000000       0.00000000          1
H         4.12637264      12.49584633       6.41030555         0.00000000       0.00000000       0.00000000          1
H         6.44467508      13.18730843       7.80732165         0.00000000       0.00000000       0.00000000          1
H         7.87703360      13.23002855       5.40923896         0.00000000       0.00000000       0.00000000          1
H         6.43652054      10.94925269       6.13539463         0.00000000       0.00000000       0.00000000          1
H         5.56688855      14.77661716       5.68414953         0.00000000       0.00000000       0.00000000          1
6
pbc=[F, F, F] list_num_par=6 frozen=false iter=20000 energy=-1.26974174 Lattice="15.00000000 0.00000000 0.00000000 0.00000000 15.00000000 0.00000000 0.00000000 0.00000000 15.00000000" energy_frozen_part=0.00000000 Properties=species:S:1:pos:R:3:velocities:R:3:Z:I:1
H         5.55819072      12.53858104       4.01216714         0.00000000       0.00000000       0.00000000          1
H         4.12612960      12.49587076       6.41042783         0.00000000       0.00000000       0.00000000          1
H         6.44462800      13.18720497       7.80718275         0.00000000       0.00000000       0.00000000          1
H         7.87668674      13.22991578       5.40892147         0.00000000       0.00000000       0.00000000          1
H         6.43617152      10.94919014       6.13520591         0.00000000       0.00000000       0.00000000          1
H         5.56664482      14.77659880       5.68414416         0.00000000       0.00000000       0.00000000          1
6
pbc=[F, F, F] list_num_par=6 frozen=false iter=20000 energy=-1.26974174 Lattice="15.00000000 0.00000000 0.00000000 0.00000000 15.00000000 0.00000000 0.00000000 0.00000000 15.00000000" energy_frozen_part=0.00000000 Properties=species:S:1:pos:R:3:velocities:R:3:Z:I:1
H         5.55874660      12.53855111       4.01218823         0.00000000       0.00000000       0.00000000          1
H         4.12638063      12.49585419       6.41027018         0.00000000       0.00000000       0.00000000          1
H         6.44467769      13.18730772       7.80728877         0.00000000       0.00000000       0.00000000          1
H         7.87705061      13.23000916       5.40920756         0.00000000       0.00000000       0.00000000          1
H         6.43651672      10.94925247       6.13537083         0.00000000       0.00000000       0.00000000          1
H         5.56691028      14.77661074       5.68410241         0.00000000       0.00000000       0.00000000          1
6
pbc=[F, F, F] list_num_par=6 frozen=false iter=20000 energy=-1.26974174 Lattice="15.00000000 0.00000000 0.00000000 0.00000000 15.00000000 0.00000000 0.00000000 0.00000000 15.00000000" energy_frozen_part=0.00000000 Properties=species:S:1:pos:R:3:velocities:R:3:Z:I:1
H         5.55830606      12.53878537       4.01200648         0.00000000       0.00000000       0.00000000          1
H         4.12613583      12.49611279       6.41020494         0.00000000       0.00000000       0.00000000          1
H         6.44460874      13.18732780       7.80705609         0.00000000       0.00000000       0.00000000          1
H         7.87677706      13.22998973       5.40885943         0.00000000       0.00000000       0.00000000          1
H         6.43612308      10.94933223       6.13505806         0.00000000       0.00000000       0.00000000          1
H         5.56678994      14.77678027       5.68400711         0.00000000       0.00000000       0.00000000          1
6
pbc=[F, F, F] list_num_par=6 frozen=false iter=20000 energy=-1.26974174 Lattice="15.00000000 0.00000000 0.00000000 0.00000000 15.00000000 0.00000000 0.00000000 0.00000000 15.00000000" energy_frozen_part=0.00000000 Properties=species:S:1:pos:R:3:velocities:R:3:Z:I:1
H         5.55827488      12.53879893       4.01201586         0.00000000       0.00000000       0.00000000          1
H         4.12612919      12.49611350       6.41021940         0.00000000       0.00000000       0.00000000          1
H         6.44460982      13.18731910       7.80706316         0.00000000       0.00000000       0.00000000          1
H         7.87676022      13.22999658       5.40885161         0.00000000       0.00000000       0.00000000          1
H         6.43611270      10.94933180       6.13505282         0.00000000       0.00000000       0.00000000          1
H         5.56678174      14.77678644       5.68402501         0.00000000       0.00000000       0.00000000          1
6
pbc=[F, F, F] list_num_par=6 frozen=false iter=20000 energy=-1.26974174 Lattice="15.00000000 0.00000000 0.00000000 0.00000000 15.00000000 0.00000000 0.00000000 0.00000000 15.00000000" energy_frozen_part=0.00000000 Properties=species:S:1:pos:R:3:velocities:R:3:Z:I:1
H         5.55826749      12.54751421       4.01342154         0.00000000       0.00000000       0.00000000          1
H         4.12480436      12.48901590       6.41051417         0.00000000       0.00000000       0.00000000          1
H         6.44113710      13.17705010       7.81247624         0.00000000       0.00000000       0.00000000          1
H         7.87460239      13.23554821       5.41538289         0.00000000       0.00000000       0.00000000          1
H         6.43791679      10.94819062       6.12829304         0.00000000       0.00000000       0.00000000          1
H         5.56148261      14.77637111       5.69760203         0.00000000       0.00000000       0.00000000          1
6
pbc=[F, F, F] list_num_par=6 frozen=false iter=20000 energy=-1.26974174 Lattice="15.00000000 0.00000000 0.00000000 0.00000000 15.00000000 0.00000000 0.00000000 0.00000000 15.00000000" energy_frozen_part=0.00000000 Properties=species:S:1:pos:R:3:velocities:R:3:Z:I:1
H         5.55824277      12.53853871       4.01218225         0.00000000       0.00000000       0.00000000          1
H         4.12614269      12.49582217       6.41042001         0.00000000       0.00000000       0.00000000          1
H         6.44460956      13.18720666       7.80719611         0.00000000       0.00000000       0.00000000          1
H         7.87670931      13.22991618       5.40896130         0.00000000       0.00000000       0.00000000          1
H         6.43621316      10.94917813       6.13524009         0.00000000       0.00000000       0.00000000          1
H         5.56662999      14.77656763       5.68414189         0.00000000       0.00000000       0.00000000          1
6
pbc=[F, F, F] list_num_par=6 frozen=false iter=20000 energy=-1.26974174 Lattice="15.00000000 0.00000000 0.00000000 0.00000000 15.00000000 0.00000000 0.00000000 0.00000000 15.00000000" energy_frozen_part=0.00000000 Properties=species:S:1:pos:R:3:velocities:R:3:Z:I:1
H         5.55878426      12.53872559       4.01231751         0.00000000       0.00000000       0.00000000          1
H         4.12636281      12.49576978       6.41035846         0.00000000       0.00000000       0.00000000          1
H         6.44458443      13.18722802       7.80749662         0.00000000       0.00000000       0.00000000          1
H         7.87701438      13.23018278       5.40945922         0.00000000       0.00000000       0.00000000          1
H         6.43658534      10.94930078       6.13540145         0.00000000       0.00000000       0.00000000          1
H         5.56679537      14.77665581       5.68440754         0.00000000       0.00000000       0.00000000          1
6
pbc=[F, F, F] list_num_par=6 frozen=false iter=20000 energy=-1.26974174 Lattice="15.00000000 0.00000000 0.00000000 0.00000000 15.00000000 0.00000000 0.00000000 0.00000000 15.00000000" energy_frozen_part=0.00000000 Properties=species:S:1:pos:R:3:velocities:R:3:Z:I:1
H         5.55827975      12.54741884       4.01342402         0.00000000       0.00000000       0.00000000          1
H         4.12483686      12.48890871       6.41052831         0.00000000       0.00000000       0.00000000          1
H         6.44116305      13.17703663       7.81245675         0.00000000       0.00000000       0.00000000          1
H         7.87460178      13.23554703       5.41535861         0.00000000       0.00000000       0.00000000          1
H         6.43800021      10.94815865       6.12830854         0.00000000       0.00000000       0.00000000          1
H         5.56144114      14.77630250       5.69757671         0.00000000       0.00000000       0.00000000          1
6
pbc=[F, F, F] list_num_par=6 frozen=false iter=20000 energy=-1.26974174 Lattice="15.00000000 0.00000000 0.00000000 0.00000000 15.00000000 0.00000000 0.00000000 0.00000000 15.00000000" energy_frozen_part=0.00000000 Properties=species:S:1:pos:R:3:velocities:R:3:Z:I:1
H         5.55820787      12.53856447       4.01216408         0.00000000       0.00000000       0.00000000          1
H         4.12612456      12.49583672       6.41040879         0.00000000       0.00000000       0.00000000          1
H         6.44459774      13.18719727       7.80718023         0.00000000       0.00000000       0.00000000          1
H         7.87668660      13.22991800       5.40893674         0.00000000       0.00000000       0.00000000          1
H         6.43619000      10.94917649       6.13520438         0.00000000       0.00000000       0.00000000          1
H         5.56662227      14.77658110       5.68413728         0.00000000       0.00000000       0.00000000          1
6
pbc=[F, F, F] list_num_par=6 frozen=false iter=20000 energy=-1.26974174 Lattice="15.00000000 0.00000000 0.00000000 0.00000000 15.00000000 0.00000000 0.00000000 0.00000000 15.00000000" energy_frozen_part=0.00000000 Properties=species:S:1:pos:R:3:velocities:R:3:Z:I:1
H         5.55819767      12.53854193       4.01216505         0.00000000       0.00000000       0.00000000          1
H         4.12613260      12.49581685       6.41042913         0.00000000       0.00000000       0.00000000          1
H         6.44461547      13.18722956       7.80716873         0.00000000       0.00000000       0.00000000          1
H         7.87667324      13.22995508       5.40890308         0.00000000       0.00000000       0.00000000          1
H         6.43621905      10.94919710       6.13521449         0.00000000       0.00000000       0.00000000          1
H         5.56658830      14.77657491       5.68412302         0.00000000       0.00000000       0.00000000          1
6
pbc=[F, F, F] list_num_par=6 frozen=false iter=20000 energy=-1.26974174 Lattice="15.00000000 0.00000000 0.00000000 0.00000000 15.00000000 0.00000000 0.00000000 0.00000000 15.00000000" energy_frozen_part=0.00000000 Properties=species:S:1:pos:R:3:velocities:R:3:Z:I:1
H         5.55878940      12.53873086       4.01223297         0.00000000       0.00000000       0.00000000          1
H         4.12628005      12.49572959       6.41022221         0.00000000       0.00000000       0.00000000          1
H         6.44445007      13.18720558       7.80744937         0.00000000       0.00000000       0.00000000          1
H         7.87695797      13.23020848       5.40945719         0.00000000       0.00000000       0.00000000          1
H         6.43653445      10.94929728       6.13533273         0.00000000       0.00000000       0.00000000          1
H         5.56670674      14.77664505       5.68435619         0.00000000       0.00000000       0.00000000          1
6
pbc=[F, F, F] list_num_par=6 frozen=false iter=20000 energy=-1.26974174 Lattice="15.00000000 0.00000000 0.00000000 0.00000000 15.00000000 0.00000000 0.00000000 0.00000000 15.00000000" energy_frozen_part=0.00000000 Properties=species:S:1:pos:R:3:velocities:R:3:Z:I:1
H         5.30678967      12.54835225       3.98400739         0.00000000       0.00000000       0.00000000          1
H         4.00919890      12.74546944       6.45011654         0.00000000       0.00000000       0.00000000          1
H         6.44921343      13.30722829       7.68908012         0.00000000       0.00000000       0.00000000          1
H         7.74681024      13.11011281       5.22298095         0.00000000       0.00000000       0.00000000          1
H         6.16684033      10.99778401       6.14279032         0.00000000       0.00000000       0.00000000          1
H         5.58915804      14.85779846       5.53029850         0.00000000       0.00000000       0.00000000          1
