6
pbc=[F, F, F] list_num_par=6 frozen=false iter=20000 energy=-1.26974174 Lattice="15.00000000 0.00000000 0.00000000 0.00000000 15.00000000 0.00000000 0.00000000 0.00000000 15.00000000" energy_frozen_part=0.00000000 Properties=species:S:1:pos:R:3:velocities:R:3:Z:I:1
H         7.20954644       1.95892436       5.14575739         0.00000000       0.00000000       0.00000000          1
H         4.81347509       3.39247251       5.05612918         0.00000000       0.00000000       0.00000000          1
H         6.19597709       5.64694146       4.15594662         0.00000000       0.00000000       0.00000000          1
H         6.97824879       4.38024067       6.51979963         0.00000000       0.00000000       0.00000000          1
H         6.42727735       3.22562036       2.78190127         0.00000000       0.00000000       0.00000000          1
H         8.59205322       4.21339259       4.24557342         0.00000000       0.00000000       0.00000000          1
6
pbc=[F, F, F] list_num_par=6 frozen=false iter=20000 energy=-1.26974174 Lattice="15.00000000 0.00000000 0.00000000 0.00000000 15.00000000 0.00000000 0.00000000 0.00000000 15.00000000" energy_frozen_part=0.00000000 Properties=species:S:1:pos:R:3:velocities:R:3:Z:I:1
H         7.20955412       1.95890315       5.14578256         0.00000000       0.00000000       0.00000000          1
H         4.81348435       3.39246967       5.05614854         0.00000000       0.00000000       0.00000000          1
H         6.19598943       5.64692683       4.15594627         0.00000000       0.00000000       0.00000000          1
H         6.97826774       4.38023862       6.51980288         0.00000000       0.00000000       0.00000000          1
H         6.42727823       3.22559446       2.78192663         0.00000000       0.00000000       0.00000000          1
H         8.59206629       4.21336581       4.24557858         0.00000000       0.00000000       0.00000000          1
6
pbc=[F, F, F] list_num_par=6 frozen=false iter=20000 energy=-1.26974174 Lattice="15.00000000 0.00000000 0.00000000 0.00000000 15.00000000 0.00000000 0.00000000 0.00000000 15.00000000" energy_frozen_part=0.00000000 Properties=species:S:1:pos:R:3:velocities:R:3:Z:I:1
H         7.89094640       2.52533511       6.25895950         0.00000000       0.00000000       0.00000000          1
H         5.38996163       3.74798927       6.02552642         0.00000000       0.00000000       0.00000000          1
H         6.24880318       5.06376066       3.71567492         0.00000000       0.00000000       0.00000000          1
H         7.70696378       5.30751352       6.08604172         0.00000000       0.00000000       0.00000000          1
H         6.43279067       2.28158413       3.88859466         0.00000000       0.00000000       0.00000000          1
H         8.74978689       3.84111615       3.94911433         0.00000000       0.00000000       0.00000000          1
6
pbc=[F, F, F] list_num_par=6 frozen=false iter=20000 energy=-1.26974174 Lattice="15.00000000 0.00000000 0.00000000 0.00000000 15.00000000 0.00000000 0.00000000 0.00000000 15.00000000" energy_frozen_part=0.00000000 Properties=species:S:1:pos:R:3:velocities:R:3:Z:I:1
H         7.21000085       1.95912033       5.14524066         0.00000000       0.00000000       0.00000000          1
H         4.81430514       3.39337620       5.05667446         0.00000000       0.00000000       0.00000000          1
H         6.19713724       5.64759519       4.15635217         0.00000000       0.00000000       0.00000000          1
H         6.97988337       4.38029635       6.51973164         0.00000000       0.00000000       0.00000000          1
H         6.42726148       3.22641860       2.78186072         0.00000000       0.00000000       0.00000000          1
H         8.59283774       4.21333850       4.24492203         0.00000000       0.00000000       0.00000000          1
6
pbc=[F, F, F] list_num_par=6 frozen=false iter=20000 energy=-1.26974174 Lattice="15.00000000 0.00000000 0.00000000 0.00000000 15.00000000 0.00000000 0.00000000 0.00000000 15.00000000" energy_frozen_part=0.00000000 Properties=species:S:1:pos:R:3:velocities:R:3:Z:I:1
H         7.20999500       1.95912636       5.14524609         0.00000000       0.00000000       0.00000000          1
H         4.81430759       3.39337984       5.05667464         0.00000000       0.00000000       0.00000000          1
H         6.19714349       5.64758328       4.15634844         0.00000000       0.00000000       0.00000000          1
H         6.97988314       4.38030318       6.51973619         0.00000000       0.00000000       0.00000000          1
H         6.42726235       3.22640751       2.78185960         0.00000000       0.00000000       0.00000000          1
H         8.59283957       4.21333197       4.24492531         0.00000000       0.00000000       0.00000000          1
6
pbc=[F, F, F] list_num_par=6 frozen=false iter=20000 energy=-1.26974174 Lattice="15.00000000 0.00000000 0.00000000 0.00000000 15.00000000 0.00000000 0.00000000 0.00000000 15.00000000" energy_frozen_part=0.00000000 Properties=species:S:1:pos:R:3:velocities:R:3:Z:I:1
H         7.21744162       1.96158755       5.15225903         0.00000000       0.00000000       0.00000000          1
H         4.81696875       3.38794062       5.06532042         0.00000000       0.00000000       0.00000000          1
H         6.18961520       5.64223102       4.14973229         0.00000000       0.00000000       0.00000000          1
H         6.98447273       4.38841928       6.51626549         0.00000000       0.00000000       0.00000000          1
H         6.42257937       3.21540220       2.78573476         0.00000000       0.00000000       0.00000000          1
H         8.59008597       4.21588191       4.23667792         0.00000000       0.00000000       0.00000000          1
6
pbc=[F, F, F] list_num_par=6 frozen=false iter=20000 energy=-1.26974174 Lattice="15.00000000 0.00000000 0.00000000 0.00000000 15.00000000 0.00000000 0.00000000 0.00000000 15.00000000" energy_frozen_part=0.00000000 Properties=species:S:1:pos:R:3:velocities:R:3:Z:I:1
H         7.21746413       1.96158981       5.15223053         0.00000000       0.00000000       0.00000000          1
H         4.81698563       3.38792242       5.06529595         0.00000000       0.00000000       0.00000000          1
H         6.18962140       5.64224060       4.14975392         0.00000000       0.00000000       0.00000000          1
H         6.98447519       4.38840733       6.51626430         0.00000000       0.00000000       0.00000000          1
H         6.42261350       3.21542875       2.78571733         0.00000000       0.00000000       0.00000000          1
H         8.59009886       4.21590695       4.23668900         0.00000000       0.00000000       0.00000000          1
6
pbc=[F, F, F] list_num_par=6 frozen=false iter=20000 energy=-1.26974174 Lattice="15.00000000 0.00000000 0.00000000 0.00000000 15.00000000 0.00000000 0.00000000 0.00000000 15.00000000" energy_frozen_part=0.00000000 Properties=species:S:1:pos:R:3:velocities:R:3:Z:I:1
H         7.21741664       1.96157149       5.15217766         0.00000000       0.00000000       0.00000000          1
H         4.81693512       3.38789469       5.06510996         0.00000000       0.00000000       0.00000000          1
H         6.18963440       5.64223050       4.14971346         0.00000000       0.00000000       0.00000000          1
H         6.98432430       4.38834274       6.51625714         0.00000000       0.00000000       0.00000000          1
H         6.42272292       3.21545870       2.78563596         0.00000000       0.00000000       0.00000000          1
H         8.59011702       4.21590488       4.23678350         0.00000000       0.00000000       0.00000000          1
6
pbc=[F, F, F] list_num_par=6 frozen=false iter=20000 energy=-1.26974174 Lattice="15.00000000 0.00000000 0.00000000 0.00000000 15.00000000 0.00000000 0.00000000 0.00000000 15.00000000" energy_frozen_part=0.00000000 Properties=species:S:1:pos:R:3:velocities:R:3:Z:I:1
H         7.20957758       1.95891679       5.14578538         0.00000000       0.00000000       0.00000000          1
H         4.81348063       3.39244245       5.05614843         0.00000000       0.00000000       0.00000000          1
H         6.19595997       5.64692219       4.15594023         0.00000000       0.00000000       0.00000000          1
H         6.97825531       4.38025548       6.51980051         0.00000000       0.00000000       0.00000000          1
H         6.42728394       3.22558559       2.78192308         0.00000000       0.00000000       0.00000000          1
H         8.59205173       4.21339890       4.24557620         0.00000000       0.00000000       0.00000000          1
6
pbc=[F, F, F] list_num_par=6 frozen=false iter=20000 energy=-1.26974174 Lattice="15.00000000 0.00000000 0.00000000 0.00000000 15.00000000 0.00000000 0.00000000 0.00000000 15.00000000" energy_frozen_part=0.00000000 Properties=species:S:1:pos:R:3:velocities:R:3:Z:I:1
H         7.89049618       2.51991188       6.26115236         0.00000000       0.00000000       0.00000000          1
H         5.39011281       3.74439915       6.03096290         0.00000000       0.00000000       0.00000000          1
H         6.24834589       5.06291164       3.72244028         0.00000000       0.00000000       0.00000000          1
H         7.70809103       5.30244322       6.09226189         0.00000000       0.00000000       0.00000000          1
H         6.43075340       2.28037778       3.89133936         0.00000000       0.00000000       0.00000000          1
H         8.74872991       3.83842492       3.95263409         0.00000000       0.00000000       0.00000000          1
6
pbc=[F, F, F] list_num_par=6 frozen=false iter=20000 energy=-1.26974174 Lattice="15.00000000 0.00000000 0.00000000 0.00000000 15.00000000 0.00000000 0.00000000 0.00000000 15.00000000" energy_frozen_part=0.00000000 Properties=species:S:1:pos:R:3:velocities:R:3:Z:I:1
H         7.20955449       1.95893036       5.14579197         0.00000000       0.00000000       0.00000000          1
H         4.81348256       3.39248480       5.05615263         0.00000000       0.00000000       0.00000000          1
H         6.19599210       5.64694372       4.15595450         0.00000000       0.00000000       0.00000000          1
H         6.97826997       4.38026408       6.51981606         0.00000000       0.00000000       0.00000000          1
H         6.42728616       3.22560935       2.78192752         0.00000000       0.00000000       0.00000000          1
H         8.59206501       4.21338580       4.24559293         0.00000000       0.00000000       0.00000000          1
6
pbc=[F, F, F] list_num_par=6 frozen=false iter=20000 energy=-1.26974174 Lattice="15.00000000 0.00000000 0.00000000 0.00000000 15.00000000 0.00000000 0.00000000 0.00000000 15.00000000" energy_frozen_part=0.00000000 Properties=species:S:1:pos:R:3:velocities:R:3:Z:I:1
H         7.20958234       1.95891220       5.14574589         0.00000000       0.00000000       0.00000000          1
H         4.81348669       3.39243276       5.05613187         0.00000000       0.00000000       0.00000000          1
H         6.19596170       5.64692563       4.15596696         0.00000000       0.00000000       0.00000000          1
H         6.97825944       4.38021497       6.51980563         0.00000000       0.00000000       0.00000000          1
H         6.42728953       3.22561941       2.78190588         0.00000000       0.00000000       0.00000000          1
H         8.59206087       4.21340867       4.24557138         0.00000000       0.00000000       0.00000000          1
6
pbc=[F, F, F] list_num_par=6 frozen=false iter=20000 energy=-1.26974174 Lattice="15.00000000 0.00000000 0.00000000 0.00000000 15.00000000 0.00000000 0.00000000 0.00000000 15.00000000" energy_frozen_part=0.00000000 Properties=species:S:1:pos:R:3:velocities:R:3:Z:I:1
H         7.20958636       1.95891673       5.14579257         0.00000000       0.00000000       0.00000000          1
H         4.81348677       3.39243956       5.05615835         0.00000000       0.00000000       0.00000000          1
H         6.19595667       5.64691538       4.15593666         0.00000000       0.00000000       0.00000000          1
H         6.97826434       4.38025326       6.51979959         0.00000000       0.00000000       0.00000000          1
H         6.42728096       3.22557833       2.78192963         0.00000000       0.00000000       0.00000000          1
H         8.59205850       4.21340107       4.24557407         0.00000000       0.00000000       0.00000000          1
6
pbc=[F, F, F] list_num_par=6 frozen=false iter=20000 energy=-1.26974174 Lattice="15.00000000 0.00000000 0.00000000 0.00000000 15.00000000 0.00000000 0.00000000 0.00000000 15.00000000" energy_frozen_part=0.00000000 Properties=species:S:1:pos:R:3:velocities:R:3:Z:I:1
H         7.89055491       2.51992201       6.26113497         0.00000000       0.00000000       0.00000000          1
H         5.39016606       3.74442706       6.03101499         0.00000000       0.00000000       0.00000000          1
H         6.24833293       5.06291634       3.72246101         0.00000000       0.00000000       0.00000000          1
H         7.70815528       5.30245280       6.09223455         0.00000000       0.00000000       0.00000000          1
H         6.43072452       2.28038686       3.89136159         0.00000000       0.00000000       0.00000000          1
H         8.74872073       3.83841076       3.95258181         0.00000000       0.00000000       0.00000000          1
6
pbc=[F, F, F] list_num_par=6 frozen=false iter=20000 energy=-1.26974174 Lattice="15.00000000 0.00000000 0.00000000 0.00000000 15.00000000 0.00000000 0.00000000 0.00000000 15.00000000" energy_frozen_part=0.00000000 Properties=species:S:1:pos:R:3:velocities:R:3:Z:I:1
H         7.21740655       1.96150260       5.15208104         0.00000000       0.00000000       0.00000000          1
H         4.81689788       3.38779641       5.06527200         0.00000000       0.00000000       0.00000000          1
H         6.18948655       5.64218028       4.14982553         0.00000000       0.00000000       0.00000000          1
H         6.98439635       4.38822734       6.51626058         0.00000000       0.00000000       0.00000000          1
H         6.42249466       3.21544711       2.78565408         0.00000000       0.00000000       0.00000000          1
H         8.58999224       4.21588582       4.23664378         0.00000000       0.00000000       0.00000000          1
6
pbc=[F, F, F] list_num_par=6 frozen=false iter=20000 energy=-1.26974174 Lattice="15.00000000 0.00000000 0.00000000 0.00000000 15.00000000 0.00000000 0.00000000 0.00000000 15.00000000" energy_frozen_part=0.00000000 Properties=species:S:1:pos:R:3:velocities:R:3:Z:I:1
H         7.20999294       1.95911739       5.14525789         0.00000000       0.00000000       0.00000000          1
H         4.81430738       3.39339309       5.05667083         0.00000000       0.00000000       0.00000000          1
H         6.19715710       5.64759025       4.15634710         0.00000000       0.00000000       0.00000000          1
H         6.97987916       4.38030526       6.51974126         0.00000000       0.00000000       0.00000000          1
H         6.42726507       3.22640263       2.78186531         0.00000000       0.00000000       0.00000000          1
H         8.59284105       4.21332222       4.24492856         0.00000000       0.00000000       0.00000000          1
6
pbc=[F, F, F] list_num_par=6 frozen=false iter=20000 energy=-1.26974174 Lattice="15.00000000 0.00000000 0.00000000 0.00000000 15.00000000 0.00000000 0.00000000 0.00000000 15.00000000" energy_frozen_part=0.00000000 Properties=species:S:1:pos:R:3:velocities:R:3:Z:I:1
H         7.20962642       1.95900125       5.14580326         0.00000000       0.00000000       0.00000000          1
H         4.81350120       3.39246542       5.05613092         0.00000000       0.00000000       0.00000000          1
H         6.19593232       5.64697019       4.15593762         0.00000000       0.00000000       0.00000000          1
H         6.97823269       4.38032898       6.51981111         0.00000000       0.00000000       0.00000000          1
H         6.42732790       3.22563755       2.78192298         0.00000000       0.00000000       0.00000000          1
H         8.59206155       4.21350778       4.24559966         0.00000000       0.00000000       0.00000000          1
6
pbc=[F, F, F] list_num_par=6 frozen=false iter=20000 energy=-1.26974174 Lattice="15.00000000 0.00000000 0.00000000 0.00000000 15.00000000 0.00000000 0.00000000 0.00000000 15.00000000" energy_frozen_part=0.00000000 Properties=species:S:1:pos:R:3:velocities:R:3:Z:I:1
H         7.20962389       1.95899101       5.14578124         0.00000000       0.00000000       0.00000000          1
H         4.81350699       3.39248026       5.05617282         0.00000000       0.00000000       0.00000000          1
H         6.19593722       5.64697457       4.15594614         0.00000000       0.00000000       0.00000000          1
H         6.97828736       4.38032180       6.51979795         0.00000000       0.00000000       0.00000000          1
H         6.42727570       3.22564443       2.78192146         0.00000000       0.00000000       0.00000000          1
H         8.59205163       4.21348388       4.24555173         0.00000000       0.00000000       0.00000000          1
6
pbc=[F, F, F] list_num_par=6 frozen=false iter=20000 energy=-1.26974174 Lattice="15.00000000 0.00000000 0.00000000 0.00000000 15.00000000 0.00000000 0.00000000 0.00000000 15.00000000" energy_frozen_part=0.00000000 Properties=species:S:1:pos:R:3:velocities:R:3:Z:I:1
H         7.20959161       1.95892648       5.14577696         0.00000000       0.00000000       0.00000000          1
H         4.81349852       3.39245172       5.05615231         0.00000000       0.00000000       0.00000000          1
H         6.19597426       5.64693169       4.15595557         0.00000000       0.00000000       0.00000000          1
H         6.97828075       4.38025237       6.51980593         0.00000000       0.00000000       0.00000000          1
H         6.42729183       3.22560593       2.78192490         0.00000000       0.00000000       0.00000000          1
H         8.59207049       4.21341115       4.24557975         0.00000000       0.00000000       0.00000000          1
6
pbc=[F, F, F] list_num_par=6 frozen=false iter=20000 energy=-1.26974174 Lattice="15.00000000 0.00000000 0.00000000 0.00000000 15.00000000 0.00000000 0.00000000 0.00000000 15.00000000" energy_frozen_part=0.00000000 Properties=species:S:1:pos:R:3:velocities:R:3:Z:I:1
H         7.20960946       1.95899536       5.14580056         0.00000000       0.00000000       0.00000000          1
H         4.81350910       3.39250684       5.05615244         0.00000000       0.00000000       0.00000000          1
H         6.19598017       5.64698265       4.15594336         0.00000000       0.00000000       0.00000000          1
H         6.97827789       4.38032766       6.51980992         0.00000000       0.00000000       0.00000000          1
H         6.42731405       3.22564725       2.78193479         0.00000000       0.00000000       0.00000000          1
H         8.59208021       4.21347843       4.24558485         0.00000000       0.00000000       0.00000000          1
6
pbc=[F, F, F] list_num_par=6 frozen=false iter=20000 energy=-1.26974174 Lattice="15.00000000 0.00000000 0.00000000 0.00000000 15.00000000 0.00000000 0.00000000 0.00000000 15.00000000" energy_frozen_part=0.00000000 Properties=species:S:1:pos:R:3:velocities:R:3:Z:I:1
H         7.89090164       2.52528187       6.25892763         0.00000000       0.00000000       0.00000000          1
H         5.38992625       3.74795238       6.02550193         0.00000000       0.00000000       0.00000000          1
H         6.24878015       5.06376644       3.71567528         0.00000000       0.00000000       0.00000000          1
H         7.70693152       5.30746800       6.08605361         0.00000000       0.00000000       0.00000000          1
H         6.43274440       2.28158120       3.88854991         0.00000000       0.00000000       0.00000000          1
H         8.74975856       3.84108853       3.94910217         0.00000000       0.00000000       0.00000000          1
6
pbc=[F, F, F] list_num_par=6 frozen=false iter=20000 energy=-1.26974174 Lattice="15.00000000 0.00000000 0.00000000 0.00000000 15.00000000 0.00000000 0.00000000 0.00000000 15.00000000" energy_frozen_part=0.00000000 Properties=species:S:1:pos:R:3:velocities:R:3:Z:I:1
H         7.20961023       1.95898570       5.14579505         0.00000000       0.00000000       0.00000000          1
H         4.81350714       3.39247668       5.05617280         0.00000000       0.00000000       0.00000000          1
H         6.19594243       5.64697384       4.15595425         0.00000000       0.00000000       0.00000000          1
H         6.97827553       4.38031939       6.51981061         0.00000000       0.00000000       0.00000000          1
H         6.42728008       3.22564379       2.78193110         0.00000000       0.00000000       0.00000000          1
H         8.59205173       4.21347686       4.24556848         0.00000000       0.00000000       0.00000000          1
6
pbc=[F, F, F] list_num_par=6 frozen=false iter=20000 energy=-1.26974174 Lattice="15.00000000 0.00000000 0.00000000 0.00000000 15.00000000 0.00000000 0.00000000 0.00000000 15.00000000" energy_frozen_part=0.00000000 Properties=species:S:1:pos:R:3:velocities:R:3:Z:I:1
H         7.21746076       1.96144898       5.15209053         0.00000000       0.00000000       0.00000000          1
H         4.81704721       3.38790394       5.06530449         0.00000000       0.00000000       0.00000000          1
H         6.18976742       5.64220572       4.14985915         0.00000000       0.00000000       0.00000000          1
H         6.98462370       4.38818622       6.51627973         0.00000000       0.00000000       0.00000000          1
H         6.42260812       3.21546266       2.78567134         0.00000000       0.00000000       0.00000000          1
H         8.59018538       4.21575147       4.23663962         0.00000000       0.00000000       0.00000000          1
6
pbc=[F, F, F] list_num_par=6 frozen=false iter=20000 energy=-1.26974174 Lattice="15.00000000 0.00000000 0.00000000 0.00000000 15.00000000 0.00000000 0.00000000 0.00000000 15.00000000" energy_frozen_part=0.00000000 Properties=species:S:1:pos:R:3:velocities:R:3:Z:I:1
H         7.89062204       2.51998247       6.26120095         0.00000000       0.00000000       0.00000000          1
H         5.39022376       3.74446112       6.03115253         0.00000000       0.00000000       0.00000000          1
H         6.24826695       5.06285148       3.72249782         0.00000000       0.00000000       0.00000000          1
H         7.70821254       5.30250504       6.09218111         0.00000000       0.00000000       0.00000000          1
H         6.43068118       2.28032511       3.89151490         0.00000000       0.00000000       0.00000000          1
H         8.74866464       3.83837519       3.95253908         0.00000000       0.00000000       0.00000000          1
6
pbc=[F, F, F] list_num_par=6 frozen=false iter=20000 energy=-1.26974174 Lattice="15.00000000 0.00000000 0.00000000 0.00000000 15.00000000 0.00000000 0.00000000 0.00000000 15.00000000" energy_frozen_part=0.00000000 Properties=species:S:1:pos:R:3:velocities:R:3:Z:I:1
H         7.89064348       2.51998020       6.26121288         0.00000000       0.00000000       0.00000000          1
H         5.39023276       3.74445963       6.03120437         0.00000000       0.00000000       0.00000000          1
H         6.24823154       5.06284591       3.72252891         0.00000000       0.00000000       0.00000000          1
H         7.70821586       5.30250774       6.09219048         0.00000000       0.00000000       0.00000000          1
H         6.43065341       2.28032427       3.89155299         0.00000000       0.00000000       0.00000000          1
H         8.74864342       3.83836816       3.95254580         0.00000000       0.00000000       0.00000000          1
6
pbc=[F, F, F] list_num_par=6 frozen=false iter=20000 energy=-1.26974174 Lattice="15.00000000 0.00000000 0.00000000 0.00000000 15.00000000 0.00000000 0.00000000 0.00000000 15.00000000" energy_frozen_part=0.00000000 Properties=species:S:1:pos:R:3:velocities:R:3:Z:I:1
H         7.89087850       2.52528087       6.25894246         0.00000000       0.00000000       0.00000000          1
H         5.38991280       3.74796349       6.02548785         0.00000000       0.00000000       0.00000000          1
H         6.24880379       5.06377241       3.71567505         0.00000000       0.00000000       0.00000000          1
H         7.70691978       5.30747246       6.08607197         0.00000000       0.00000000       0.00000000          1
H         6.43274978       2.28158794       3.88855046         0.00000000       0.00000000       0.00000000          1
H         8.74976655       3.84109619       3.94913321         0.00000000       0.00000000       0.00000000          1
6
pbc=[F, F, F] list_num_par=6 frozen=false iter=20000 energy=-1.26974174 Lattice="15.00000000 0.00000000 0.00000000 0.00000000 15.00000000 0.00000000 0.00000000 0.00000000 15.00000000" energy_frozen_part=0.00000000 Properties=species:S:1:pos:R:3:velocities:R:3:Z:I:1
H         7.21744016       1.96157552       5.15223191         0.00000000       0.00000000       0.00000000          1
H         4.81697388       3.38793460       5.06528031         0.00000000       0.00000000       0.00000000          1
H         6.18963666       5.64223316       4.14974664         0.00000000       0.00000000       0.00000000          1
H         6.98445786       4.38838235       6.51627328         0.00000000       0.00000000       0.00000000          1
H         6.42262240       3.21542350       2.78571217         0.00000000       0.00000000       0.00000000          1
H         8.59010366       4.21588193       4.23670706         0.00000000       0.00000000       0.00000000          1
6
pbc=[F, F, F] list_num_par=6 frozen=false iter=20000 energy=-1.26974174 Lattice="15.00000000 0.00000000 0.00000000 0.00000000 15.00000000 0.00000000 0.00000000 0.00000000 15.00000000" energy_frozen_part=0.00000000 Properties=species:S:1:pos:R:3:velocities:R:3:Z:I:1
H         7.21746779       1.96157894       5.15214799         0.00000000       0.00000000       0.00000000          1
H         4.81703564       3.38800086       5.06531025         0.00000000       0.00000000       0.00000000          1
H         6.18973304       5.64226451       4.14974342         0.00000000       0.00000000       0.00000000          1
H         6.98461966       4.38837561       6.51621545         0.00000000       0.00000000       0.00000000          1
H         6.42257797       3.21546044       2.78567212         0.00000000       0.00000000       0.00000000          1
H         8.59016086       4.21584561       4.23657289         0.00000000       0.00000000       0.00000000          1
6
pbc=[F, F, F] list_num_par=6 frozen=false iter=20000 energy=-1.26974174 Lattice="15.00000000 0.00000000 0.00000000 0.00000000 15.00000000 0.00000000 0.00000000 0.00000000 15.00000000" energy_frozen_part=0.00000000 Properties=species:S:1:pos:R:3:velocities:R:3:Z:I:1
H         7.21738301       1.96149588       5.15210992         0.00000000       0.00000000       0.00000000          1
H         4.81689559       3.38782308       5.06526664         0.00000000       0.00000000       0.00000000          1
H         6.18951365       5.64217504       4.14977734         0.00000000       0.00000000       0.00000000          1
H         6.98441133       4.38825638       6.51623378         0.00000000       0.00000000       0.00000000          1
H         6.42248430       3.21541311       2.78565337         0.00000000       0.00000000       0.00000000          1
H         8.58999688       4.21583945       4.23662465         0.00000000       0.00000000       0.00000000          1
6
pbc=[F, F, F] list_num_par=6 frozen=false iter=20000 energy=-1.26974174 Lattice="15.00000000 0.00000000 0.00000000 0.00000000 15.00000000 0.00000000 0.00000000 0.00000000 15.00000000" energy_frozen_part=0.00000000 Properties=species:S:1:pos:R:3:velocities:R:3:Z:I:1
H         7.20957849       1.95891777       5.14578084         0.00000000       0.00000000       0.00000000          1
H         4.81349122       3.39244160       5.05615715         0.00000000       0.00000000       0.00000000          1
H         6.19596709       5.64691623       4.15594325         0.00000000       0.00000000       0.00000000          1
H         6.97826562       4.38024507       6.51980784         0.00000000       0.00000000       0.00000000          1
H         6.42728033       3.22559199       2.78192057         0.00000000       0.00000000       0.00000000          1
H         8.59205635       4.21339567       4.24557337         0.00000000       0.00000000       0.00000000          1
6
pbc=[F, F, F] list_num_par=6 frozen=false iter=20000 energy=-1.26974174 Lattice="15.00000000 0.00000000 0.00000000 0.00000000 15.00000000 0.00000000 0.00000000 0.00000000 15.00000000" energy_frozen_part=0.00000000 Properties=species:S:1:pos:R:3:velocities:R:3:Z:I:1
H         7.21747124       1.96145237       5.15209309         0.00000000       0.00000000       0.00000000          1
H         4.81705293       3.38789512       5.06530756         0.00000000       0.00000000       0.00000000          1
H         6.18976676       5.64220894       4.14985323         0.00000000       0.00000000       0.00000000          1
H         6.98462542       4.38819687       6.51627296         0.00000000       0.00000000       0.00000000          1
H         6.42260717       3.21546017       2.78567272         0.00000000       0.00000000       0.00000000          1
H         8.59018109       4.21575735       4.23663752         0.00000000       0.00000000       0.00000000          1
6
pbc=[F, F, F] list_num_par=6 frozen=false iter=20000 energy=-1.26974174 Lattice="15.00000000 0.00000000 0.00000000 0.00000000 15.00000000 0.00000000 0.00000000 0.00000000 15.00000000" energy_frozen_part=0.00000000 Properties=species:S:1:pos:R:3:velocities:R:3:Z:I:1
H         7.20960363       1.95897465       5.14578884         0.00000000       0.00000000       0.00000000          1
H         4.81350885       3.39248932       5.05616496         0.00000000       0.00000000       0.00000000          1
H         6.19596682       5.64696881       4.15594061         0.00000000       0.00000000       0.00000000          1
H         6.97828800       4.38030475       6.51979761         0.00000000       0.00000000       0.00000000          1
H         6.42728876       3.22563507       2.78192496         0.00000000       0.00000000       0.00000000          1
H         8.59206349       4.21345660       4.24556116         0.00000000       0.00000000       0.00000000          1
6
pbc=[F, F, F] list_num_par=6 frozen=false iter=20000 energy=-1.26974174 Lattice="15.00000000 0.00000000 0.00000000 0.00000000 15.00000000 0.00000000 0.00000000 0.00000000 15.00000000" energy_frozen_part=0.00000000 Properties=species:S:1:pos:R:3:velocities:R:3:Z:I:1
H         7.21743995       1.96158642       5.15225137         0.00000000       0.00000000       0.00000000          1
H         4.81696730       3.38793161       5.06531219         0.00000000       0.00000000       0.00000000          1
H         6.18961967       5.64222958       4.14975343         0.00000000       0.00000000       0.00000000          1
H         6.98446954       4.38840330       6.51627580         0.00000000       0.00000000       0.00000000          1
H         6.42259454       3.21540345       2.78573316         0.00000000       0.00000000       0.00000000          1
H         8.59008906       4.21588509       4.23668973         0.00000000       0.00000000       0.00000000          1
6
pbc=[F, F, F] list_num_par=6 frozen=false iter=20000 energy=-1.26974174 Lattice="15.00000000 0.00000000 0.00000000 0.00000000 15.00000000 0.00000000 0.00000000 0.00000000 15.00000000" energy_frozen_part=0.00000000 Properties=species:S:1:pos:R:3:velocities:R:3:Z:I:1
H         7.21743470       1.96158127       5.15223610         0.00000000       0.00000000       0.00000000          1
H         4.81696841       3.38793389       5.06529087         0.00000000       0.00000000       0.00000000          1
H         6.18962270       5.64223800       4.14974729         0.00000000       0.00000000       0.00000000          1
H         6.98445417       4.38839745       6.51626641         0.00000000       0.00000000       0.00000000          1
H         6.42259879       3.21542195       2.78571924         0.00000000       0.00000000       0.00000000          1
H         8.59008685       4.21588990       4.23669459         0.00000000       0.00000000       0.00000000          1
6
pbc=[F, F, F] list_num_par=6 frozen=false iter=20000 energy=-1.26974174 Lattice="15.00000000 0.00000000 0.00000000 0.00000000 15.00000000 0.00000000 0.00000000 0.00000000 15.00000000" energy_frozen_part=0.00000000 Properties=species:S:1:pos:R:3:velocities:R:3:Z:I:1
H         7.20958888       1.95892792       5.14578217         0.00000000       0.00000000       0.00000000          1
H         4.81349177       3.39244581       5.05615080         0.00000000       0.00000000       0.00000000          1
H         6.19596151       5.64693196       4.15595988         0.00000000       0.00000000       0.00000000          1
H         6.97826520       4.38025162       6.51981367         0.00000000       0.00000000       0.00000000          1
H         6.42728156       3.22560269       2.78192320         0.00000000       0.00000000       0.00000000          1
H         8.59205368       4.21340985       4.24557844         0.00000000       0.00000000       0.00000000          1
6
pbc=[F, F, F] list_num_par=6 frozen=false iter=20000 energy=-1.26974174 Lattice="15.00000000 0.00000000 0.00000000 0.00000000 15.00000000 0.00000000 0.00000000 0.00000000 15.00000000" energy_frozen_part=0.00000000 Properties=species:S:1:pos:R:3:velocities:R:3:Z:I:1
H         7.20955224       1.95891355       5.14578665         0.00000000       0.00000000       0.00000000          1
H         4.81348052       3.39247613       5.05615321         0.00000000       0.00000000       0.00000000          1
H         6.19599292       5.64693322       4.15595013         0.00000000       0.00000000       0.00000000          1
H         6.97826411       4.38024153       6.51981029         0.00000000       0.00000000       0.00000000          1
H         6.42728517       3.22560649       2.78192607         0.00000000       0.00000000       0.00000000          1
H         8.59206445       4.21337376       4.24559082         0.00000000       0.00000000       0.00000000          1
6
pbc=[F, F, F] list_num_par=6 frozen=false iter=20000 energy=-1.26974174 Lattice="15.00000000 0.00000000 0.00000000 0.00000000 15.00000000 0.00000000 0.00000000 0.00000000 15.00000000" energy_frozen_part=0.00000000 Properties=species:S:1:pos:R:3:velocities:R:3:Z:I:1
H         7.89087590       2.52528136       6.25893440         0.00000000       0.00000000       0.00000000          1
H         5.38990856       3.74795896       6.02548624         0.00000000       0.00000000       0.00000000          1
H         6.24880219       5.06377440       3.71567615         0.00000000       0.00000000       0.00000000          1
H         7.70691848       5.30747187       6.08607257         0.00000000       0.00000000       0.00000000          1
H         6.43275353       2.28158827       3.88854000         0.00000000       0.00000000       0.00000000          1
H         8.74976467       3.84110031       3.94913167         0.00000000       0.00000000       0.00000000          1
6
pbc=[F, F, F] list_num_par=6 frozen=false iter=20000 energy=-1.26974174 Lattice="15.00000000 0.00000000 0.00000000 0.00000000 15.00000000 0.00000000 0.00000000 0.00000000 15.00000000" energy_frozen_part=0.00000000 Properties=species:S:1:pos:R:3:velocities:R:3:Z:I:1
H         7.21742595       1.96157928       5.15224078         0.00000000       0.00000000       0.00000000          1
H         4.81696152       3.38792717       5.06530597         0.00000000       0.00000000       0.00000000          1
H         6.18962270       5.64222659       4.14976103         0.00000000       0.00000000       0.00000000          1
H         6.98445638       4.38839159       6.51627610         0.00000000       0.00000000       0.00000000          1
H         6.42258489       3.21541795       2.78572286         0.00000000       0.00000000       0.00000000          1
H         8.59008404       4.21587368       4.23669530         0.00000000       0.00000000       0.00000000          1
6
pbc=[F, F, F] list_num_par=6 frozen=false iter=20000 energy=-1.26974174 Lattice="15.00000000 0.00000000 0.00000000 0.00000000 15.00000000 0.00000000 0.00000000 0.00000000 15.00000000" energy_frozen_part=0.00000000 Properties=species:S:1:pos:R:3:velocities:R:3:Z:I:1
H         7.21739677       1.96149648       5.15211418         0.00000000       0.00000000       0.00000000          1
H         4.81690685       3.38781391       5.06529775         0.00000000       0.00000000       0.00000000          1
H         6.18949541       5.64217104       4.14979359         0.00000000       0.00000000       0.00000000          1
H         6.98443068       4.38826196       6.51624187         0.00000000       0.00000000       0.00000000          1
H         6.42247779       3.21541367       2.78566574         0.00000000       0.00000000       0.00000000          1
H         8.58999273       4.21585721       4.23661574         0.00000000       0.00000000       0.00000000          1
6
pbc=[F, F, F] list_num_par=6 frozen=false iter=20000 energy=-1.26974174 Lattice="15.00000000 0.00000000 0.00000000 0.00000000 15.00000000 0.00000000 0.00000000 0.00000000 15.00000000" energy_frozen_part=0.00000000 Properties=species:S:1:pos:R:3:velocities:R:3:Z:I:1
H         7.20958682       1.95893654       5.14579254         0.00000000       0.00000000       0.00000000          1
H         4.81348736       3.39245974       5.05616120         0.00000000       0.00000000       0.00000000          1
H         6.19596659       5.64693775       4.15595280         0.00000000       0.00000000       0.00000000          1
H         6.97826086       4.38026652       6.51980937         0.00000000       0.00000000       0.00000000          1
H         6.42728563       3.22560767       2.78193362         0.00000000       0.00000000       0.00000000          1
H         8.59206471       4.21341361       4.24558480         0.00000000       0.00000000       0.00000000          1
6
pbc=[F, F, F] list_num_par=6 frozen=false iter=20000 energy=-1.26974174 Lattice="15.00000000 0.00000000 0.00000000 0.00000000 15.00000000 0.00000000 0.00000000 0.00000000 15.00000000" energy_frozen_part=0.00000000 Properties=species:S:1:pos:R:3:velocities:R:3:Z:I:1
H         7.21740442       1.96151237       5.15213848         0.00000000       0.00000000       0.00000000          1
H         4.81690763       3.38782985       5.06530613         0.00000000       0.00000000       0.00000000          1
H         6.18950494       5.64218236       4.14980054         0.00000000       0.00000000       0.00000000          1
H         6.98442984       4.38827492       6.51625329         0.00000000       0.00000000       0.00000000          1
H         6.42247650       3.21541391       2.78568041         0.00000000       0.00000000       0.00000000          1
H         8.58999422       4.21587056       4.23662198         0.00000000       0.00000000       0.00000000          1
6
pbc=[F, F, F] list_num_par=6 frozen=false iter=20000 energy=-1.26974174 Lattice="15.00000000 0.00000000 0.00000000 0.00000000 15.00000000 0.00000000 0.00000000 0.00000000 15.00000000" energy_frozen_part=0.00000000 Properties=species:S:1:pos:R:3:velocities:R:3:Z:I:1
H         7.89055924       2.51992482       6.26113601         0.00000000       0.00000000       0.00000000          1
H         5.39017439       3.74442536       6.03102243         0.00000000       0.00000000       0.00000000          1
H         6.24832500       5.06291400       3.72246879         0.00000000       0.00000000       0.00000000          1
H         7.70816525       5.30245537       6.09223193         0.00000000       0.00000000       0.00000000          1
H         6.43072772       2.28038592       3.89136908         0.00000000       0.00000000       0.00000000          1
H         8.74871714       3.83842136       3.95257488         0.00000000       0.00000000       0.00000000          1
6
pbc=[F, F, F] list_num_par=6 frozen=false iter=20000 energy=-1.26974174 Lattice="15.00000000 0.00000000 0.00000000 0.00000000 15.00000000 0.00000000 0.00000000 0.00000000 15.00000000" energy_frozen_part=0.00000000 Properties=species:S:1:pos:R:3:velocities:R:3:Z:I:1
H         7.89064526       2.51997247       6.26121332         0.00000000       0.00000000       0.00000000          1
H         5.39023176       3.74444727       6.03121223         0.00000000       0.00000000       0.00000000          1
H         6.24823213       5.06283244       3.72253488         0.00000000       0.00000000       0.00000000          1
H         7.70821416       5.30249631       6.09219552         0.00000000       0.00000000       0.00000000          1
H         6.43065305       2.28031028       3.89155294         0.00000000       0.00000000       0.00000000          1
H         8.74863821       3.83835847       3.95253907         0.00000000       0.00000000       0.00000000          1
6
pbc=[F, F, F] list_num_par=6 frozen=false iter=20000 energy=-1.26974174 Lattice="15.00000000 0.00000000 0.00000000 0.00000000 15.00000000 0.00000000 0.00000000 0.00000000 15.00000000" energy_frozen_part=0.00000000 Properties=species:S:1:pos:R:3:velocities:R:3:Z:I:1
H         7.21747368       1.96158373       5.15223003         0.00000000       0.00000000       0.00000000          1
H         4.81700496       3.38793221       5.06527233         0.00000000       0.00000000       0.00000000          1
H         6.18965477       5.64223401       4.14973602         0.00000000       0.00000000       0.00000000          1
H         6.98448744       4.38839384       6.51625919         0.00000000       0.00000000       0.00000000          1
H         6.42264387       3.21541805       2.78570492         0.00000000       0.00000000       0.00000000          1
H         8.59012567       4.21589069       4.23668571         0.00000000       0.00000000       0.00000000          1
6
pbc=[F, F, F] list_num_par=6 frozen=false iter=20000 energy=-1.26974174 Lattice="15.00000000 0.00000000 0.00000000 0.00000000 15.00000000 0.00000000 0.00000000 0.00000000 15.00000000" energy_frozen_part=0.00000000 Properties=species:S:1:pos:R:3:velocities:R:3:Z:I:1
H         7.21740232       1.96148677       5.15207953         0.00000000       0.00000000       0.00000000          1
H         4.81689269       3.38779197       5.06526913         0.00000000       0.00000000       0.00000000          1
H         6.18948352       5.64217465       4.14982758         0.00000000       0.00000000       0.00000000          1
H         6.98439359       4.38822013       6.51625764         0.00000000       0.00000000       0.00000000          1
H         6.42248757       3.21544867       2.78565362         0.00000000       0.00000000       0.00000000          1
H         8.58998738       4.21587604       4.23664195         0.00000000       0.00000000       0.00000000          1
6
pbc=[F, F, F] list_num_par=6 frozen=false iter=20000 energy=-1.26974174 Lattice="15.00000000 0.00000000 0.00000000 0.00000000 15.00000000 0.00000000 0.00000000 0.00000000 15.00000000" energy_frozen_part=0.00000000 Properties=species:S:1:pos:R:3:velocities:R:3:Z:I:1
H         7.89056255       2.51992788       6.26113890         0.00000000       0.00000000       0.00000000          1
H         5.39017291       3.74442619       6.03101938         0.00000000       0.00000000       0.00000000          1
H         6.24832847       5.06292114       3.72246611         0.00000000       0.00000000       0.00000000          1
H         7.70815530       5.30246586       6.09223879         0.00000000       0.00000000       0.00000000          1
H         6.43073177       2.28038553       3.89136917         0.00000000       0.00000000       0.00000000          1
H         8.74871148       3.83843020       3.95258549         0.00000000       0.00000000       0.00000000          1
6
pbc=[F, F, F] list_num_par=6 frozen=false iter=20000 energy=-1.26974174 Lattice="15.00000000 0.00000000 0.00000000 0.00000000 15.00000000 0.00000000 0.00000000 0.00000000 15.00000000" energy_frozen_part=0.00000000 Properties=species:S:1:pos:R:3:velocities:R:3:Z:I:1
H         7.21741400       1.96156255       5.15218056         0.00000000       0.00000000       0.00000000          1
H         4.81693772       3.38789210       5.06511916         0.00000000       0.00000000       0.00000000          1
H         6.18962966       5.64223005       4.14971589         0.00000000       0.00000000       0.00000000          1
H         6.98432985       4.38834530       6.51625482         0.00000000       0.00000000       0.00000000          1
H         6.42271536       3.21545132       2.78563821         0.00000000       0.00000000       0.00000000          1
H         8.59010357       4.21590772       4.23677367         0.00000000       0.00000000       0.00000000          1
6
pbc=[F, F, F] list_num_par=6 frozen=false iter=20000 energy=-1.26974174 Lattice="15.00000000 0.00000000 0.00000000 0.00000000 15.00000000 0.00000000 0.00000000 0.00000000 15.00000000" energy_frozen_part=0.00000000 Properties=species:S:1:pos:R:3:velocities:R:3:Z:I:1
H         7.89088575       2.52527377       6.25892716         0.00000000       0.00000000       0.00000000          1
H         5.38992072       3.74795692       6.02548024         0.00000000       0.00000000       0.00000000          1
H         6.24880036       5.06377660       3.71567443         0.00000000       0.00000000       0.00000000          1
H         7.70693246       5.30746185       6.08606207         0.00000000       0.00000000       0.00000000          1
H         6.43275527       2.28158974       3.88853353         0.00000000       0.00000000       0.00000000          1
H         8.74976704       3.84110089       3.94911920         0.00000000       0.00000000       0.00000000          1
6
pbc=[F, F, F] list_num_par=6 frozen=false iter=20000 energy=-1.26974174 Lattice="15.00000000 0.00000000 0.00000000 0.00000000 15.00000000 0.00000000 0.00000000 0.00000000 15.00000000" energy_frozen_part=0.00000000 Properties=species:S:1:pos:R:3:velocities:R:3:Z:I:1
H         7.20957954       1.95890263       5.14575185         0.00000000       0.00000000       0.00000000          1
H         4.81348336       3.39242333       5.05616343         0.00000000       0.00000000       0.00000000          1
H         6.19595002       5.64691603       4.15596578         0.00000000       0.00000000       0.00000000          1
H         6.97826354       4.38021585       6.51980382         0.00000000       0.00000000       0.00000000          1
H         6.42725664       3.22560119       2.78191921         0.00000000       0.00000000       0.00000000          1
H         8.59204266       4.21339837       4.24556327         0.00000000       0.00000000       0.00000000          1
6
pbc=[F, F, F] list_num_par=6 frozen=false iter=20000 energy=-1.26974174 Lattice="15.00000000 0.00000000 0.00000000 0.00000000 15.00000000 0.00000000 0.00000000 0.00000000 15.00000000" energy_frozen_part=0.00000000 Properties=species:S:1:pos:R:3:velocities:R:3:Z:I:1
H         7.21742449       1.96156646       5.15223967         0.00000000       0.00000000       0.00000000          1
H         4.81695759       3.38792565       5.06530966         0.00000000       0.00000000       0.00000000          1
H         6.18962046       5.64221399       4.14973919         0.00000000       0.00000000       0.00000000          1
H         6.98447178       4.38838589       6.51626151         0.00000000       0.00000000       0.00000000          1
H         6.42257013       3.21538580       2.78572386         0.00000000       0.00000000       0.00000000          1
H         8.59008549       4.21585127       4.23666772         0.00000000       0.00000000       0.00000000          1
6
pbc=[F, F, F] list_num_par=6 frozen=false iter=20000 energy=-1.26974174 Lattice="15.00000000 0.00000000 0.00000000 0.00000000 15.00000000 0.00000000 0.00000000 0.00000000 15.00000000" energy_frozen_part=0.00000000 Properties=species:S:1:pos:R:3:velocities:R:3:Z:I:1
H         7.89091296       2.52529104       6.25892943         0.00000000       0.00000000       0.00000000          1
H         5.38992783       3.74794226       6.02549422         0.00000000       0.00000000       0.00000000          1
H         6.24877116       5.06376443       3.71567187         0.00000000       0.00000000       0.00000000          1
H         7.70692070       5.30747304       6.08605295         0.00000000       0.00000000       0.00000000          1
H         6.43276876       2.28158216       3.88854969         0.00000000       0.00000000       0.00000000          1
H         8.74976090       3.84111604       3.94910314         0.00000000       0.00000000       0.00000000          1
6
pbc=[F, F, F] list_num_par=6 frozen=false iter=20000 energy=-1.26974174 Lattice="15.00000000 0.00000000 0.00000000 0.00000000 15.00000000 0.00000000 0.00000000 0.00000000 15.00000000" energy_frozen_part=0.00000000 Properties=species:S:1:pos:R:3:velocities:R:3:Z:I:1
H         7.21742976       1.96157694       5.15223504         0.00000000       0.00000000       0.00000000          1
H         4.81696555       3.38793437       5.06529655         0.00000000       0.00000000       0.00000000          1
H         6.18963163       5.64223358       4.14976573         0.00000000       0.00000000       0.00000000          1
H         6.98445819       4.38838491       6.51627279         0.00000000       0.00000000       0.00000000          1
H         6.42260165       3.21542710       2.78572265         0.00000000       0.00000000       0.00000000          1
H         8.59009875       4.21587425       4.23670119         0.00000000       0.00000000       0.00000000          1
6
pbc=[F, F, F] list_num_par=6 frozen=false iter=20000 energy=-1.26974174 Lattice="15.00000000 0.00000000 0.00000000 0.00000000 15.00000000 0.00000000 0.00000000 0.00000000 15.00000000" energy_frozen_part=0.00000000 Properties=species:S:1:pos:R:3:velocities:R:3:Z:I:1
H         7.20963051       1.95898885       5.14578101         0.00000000       0.00000000       0.00000000          1
H         4.81351767       3.39247665       5.05616841         0.00000000       0.00000000       0.00000000          1
H         6.19596016       5.64697330       4.15594564         0.00000000       0.00000000       0.00000000          1
H         6.97828979       4.38031534       6.51979971         0.00000000       0.00000000       0.00000000          1
H         6.42728981       3.22564938       2.78192739         0.00000000       0.00000000       0.00000000          1
H         8.59206996       4.21347848       4.24555838         0.00000000       0.00000000       0.00000000          1
6
pbc=[F, F, F] list_num_par=6 frozen=false iter=20000 energy=-1.26974174 Lattice="15.00000000 0.00000000 0.00000000 0.00000000 15.00000000 0.00000000 0.00000000 0.00000000 15.00000000" energy_frozen_part=0.00000000 Properties=species:S:1:pos:R:3:velocities:R:3:Z:I:1
H         7.20958209       1.95889456       5.14574594         0.00000000       0.00000000       0.00000000          1
H         4.81349007       3.39241820       5.05617011         0.00000000       0.00000000       0.00000000          1
H         6.19594247       5.64691227       4.15597820         0.00000000       0.00000000       0.00000000          1
H         6.97828173       4.38020749       6.51981192         0.00000000       0.00000000       0.00000000          1
H         6.42725142       3.22560616       2.78191576         0.00000000       0.00000000       0.00000000          1
H         8.59204328       4.21339423       4.24556069         0.00000000       0.00000000       0.00000000          1
6
pbc=[F, F, F] list_num_par=6 frozen=false iter=20000 energy=-1.26974174 Lattice="15.00000000 0.00000000 0.00000000 0.00000000 15.00000000 0.00000000 0.00000000 0.00000000 15.00000000" energy_frozen_part=0.00000000 Properties=species:S:1:pos:R:3:velocities:R:3:Z:I:1
H         7.21745933       1.96144263       5.15208402         0.00000000       0.00000000       0.00000000          1
H         4.81704119       3.38788567       5.06531534         0.00000000       0.00000000       0.00000000          1
H         6.18975177       5.64219463       4.14984739         0.00000000       0.00000000       0.00000000          1
H         6.98463373       4.38818790       6.51626310         0.00000000       0.00000000       0.00000000          1
H         6.42258303       3.21544851       2.78567040         0.00000000       0.00000000       0.00000000          1
H         8.59017055       4.21574653       4.23661769         0.00000000       0.00000000       0.00000000          1
6
pbc=[F, F, F] list_num_par=6 frozen=false iter=20000 energy=-1.26974174 Lattice="15.00000000 0.00000000 0.00000000 0.00000000 15.00000000 0.00000000 0.00000000 0.00000000 15.00000000" energy_frozen_part=0.00000000 Properties=species:S:1:pos:R:3:velocities:R:3:Z:I:1
H         7.89089576       2.52528247       6.25893324         0.00000000       0.00000000       0.00000000          1
H         5.38991614       3.74794872       6.02548795         0.00000000       0.00000000       0.00000000          1
H         6.24879233       5.06376390       3.71567399         0.00000000       0.00000000       0.00000000          1
H         7.70691936       5.30746753       6.08606339         0.00000000       0.00000000       0.00000000          1
H         6.43276241       2.28157969       3.88855015         0.00000000       0.00000000       0.00000000          1
H         8.74977216       3.84109837       3.94911886         0.00000000       0.00000000       0.00000000          1
6
pbc=[F, F, F] list_num_par=6 frozen=false iter=20000 energy=-1.26974174 Lattice="15.00000000 0.00000000 0.00000000 0.00000000 15.00000000 0.00000000 0.00000000 0.00000000 15.00000000" energy_frozen_part=0.00000000 Properties=species:S:1:pos:R:3:velocities:R:3:Z:I:1
H         7.21743221       1.96157575       5.15225231         0.00000000       0.00000000       0.00000000          1
H         4.81696366       3.38793283       5.06532883         0.00000000       0.00000000       0.00000000          1
H         6.18962254       5.64221888       4.14974671         0.00000000       0.00000000       0.00000000          1
H         6.98448193       4.38840649       6.51626257         0.00000000       0.00000000       0.00000000          1
H         6.42257066       3.21539792       2.78573226         0.00000000       0.00000000       0.00000000          1
H         8.59008697       4.21586127       4.23667156         0.00000000       0.00000000       0.00000000          1
6
pbc=[F, F, F] list_num_par=6 frozen=false iter=20000 energy=-1.26974174 Lattice="15.00000000 0.00000000 0.00000000 0.00000000 15.00000000 0.00000000 0.00000000 0.00000000 15.00000000" energy_frozen_part=0.00000000 Properties=species:S:1:pos:R:3:velocities:R:3:Z:I:1
H         7.89054602       2.51991925       6.26113207         0.00000000       0.00000000       0.00000000          1
H         5.39016173       3.74442738       6.03100469         0.00000000       0.00000000       0.00000000          1
H         6.24833101       5.06292228       3.72245684         0.00000000       0.00000000       0.00000000          1
H         7.70814957       5.30245307       6.09223468         0.00000000       0.00000000       0.00000000          1
H         6.43072224       2.28038923       3.89135231         0.00000000       0.00000000       0.00000000          1
H         8.74871740       3.83841580       3.95258077         0.00000000       0.00000000       0.00000000          1
6
pbc=[F, F, F] list_num_par=6 frozen=false iter=20000 energy=-1.26974174 Lattice="15.00000000 0.00000000 0.00000000 0.00000000 15.00000000 0.00000000 0.00000000 0.00000000 15.00000000" energy_frozen_part=0.00000000 Properties=species:S:1:pos:R:3:velocities:R:3:Z:I:1
H         7.20958469       1.95892364       5.14577416         0.00000000       0.00000000       0.00000000          1
H         4.81348817       3.39244265       5.05615604         0.00000000       0.00000000       0.00000000          1
H         6.19595536       5.64692459       4.15594196         0.00000000       0.00000000       0.00000000          1
H         6.97827215       4.38025500       6.51979019         0.00000000       0.00000000       0.00000000          1
H         6.42726598       3.22559533       2.78191436         0.00000000       0.00000000       0.00000000          1
H         8.59204911       4.21339805       4.24555352         0.00000000       0.00000000       0.00000000          1
6
pbc=[F, F, F] list_num_par=6 frozen=false iter=20000 energy=-1.26974174 Lattice="15.00000000 0.00000000 0.00000000 0.00000000 15.00000000 0.00000000 0.00000000 0.00000000 15.00000000" energy_frozen_part=0.00000000 Properties=species:S:1:pos:R:3:velocities:R:3:Z:I:1
H         7.21743387       1.96157971       5.15223959         0.00000000       0.00000000       0.00000000          1
H         4.81696352       3.38792726       5.06529562         0.00000000       0.00000000       0.00000000          1
H         6.18962654       5.64222549       4.14975826         0.00000000       0.00000000       0.00000000          1
H         6.98446000       4.38838753       6.51627230         0.00000000       0.00000000       0.00000000          1
H         6.42259931       3.21541882       2.78571703         0.00000000       0.00000000       0.00000000          1
H         8.59009222       4.21587880       4.23669277         0.00000000       0.00000000       0.00000000          1
6
pbc=[F, F, F] list_num_par=6 frozen=false iter=20000 energy=-1.26974174 Lattice="15.00000000 0.00000000 0.00000000 0.00000000 15.00000000 0.00000000 0.00000000 0.00000000 15.00000000" energy_frozen_part=0.00000000 Properties=species:S:1:pos:R:3:velocities:R:3:Z:I:1
H         7.21747137       1.96145226       5.15209023         0.00000000       0.00000000       0.00000000          1
H         4.81704798       3.38789075       5.06530816         0.00000000       0.00000000       0.00000000          1
H         6.18974894       5.64219064       4.14983278         0.00000000       0.00000000       0.00000000          1
H         6.98462525       4.38820559       6.51625743         0.00000000       0.00000000       0.00000000          1
H         6.42259258       3.21544838       2.78566702         0.00000000       0.00000000       0.00000000          1
H         8.59017553       4.21575331       4.23661973         0.00000000       0.00000000       0.00000000          1
6
pbc=[F, F, F] list_num_par=6 frozen=false iter=20000 energy=-1.26974174 Lattice="15.00000000 0.00000000 0.00000000 0.00000000 15.00000000 0.00000000 0.00000000 0.00000000 15.00000000" energy_frozen_part=0.00000000 Properties=species:S:1:pos:R:3:velocities:R:3:Z:I:1
H         7.21745595       1.96158391       5.15222945         0.00000000       0.00000000       0.00000000          1
H         4.81697648       3.38791470       5.06529019         0.00000000       0.00000000       0.00000000          1
H         6.18961622       5.64222778       4.14973738         0.00000000       0.00000000       0.00000000          1
H         6.98446383       4.38840487       6.51625676         0.00000000       0.00000000       0.00000000          1
H         6.42260531       3.21541562       2.78571254         0.00000000       0.00000000       0.00000000          1
H         8.59009864       4.21589086       4.23668377         0.00000000       0.00000000       0.00000000          1
6
pbc=[F, F, F] list_num_par=6 frozen=false iter=20000 energy=-1.26974174 Lattice="15.00000000 0.00000000 0.00000000 0.00000000 15.00000000 0.00000000 0.00000000 0.00000000 15.00000000" energy_frozen_part=0.00000000 Properties=species:S:1:pos:R:3:velocities:R:3:Z:I:1
H         7.21742567       1.96157858       5.15224428         0.00000000       0.00000000       0.00000000          1
H         4.81695836       3.38793451       5.06529738         0.00000000       0.00000000       0.00000000          1
H         6.18961440       5.64223787       4.14975521         0.00000000       0.00000000       0.00000000          1
H         6.98445680       4.38839366       6.51627125         0.00000000       0.00000000       0.00000000          1
H         6.42258576       3.21542119       2.78572432         0.00000000       0.00000000       0.00000000          1
H         8.59008450       4.21587843       4.23669450         0.00000000       0.00000000       0.00000000          1
6
pbc=[F, F, F] list_num_par=6 frozen=false iter=20000 energy=-1.26974174 Lattice="15.00000000 0.00000000 0.00000000 0.00000000 15.00000000 0.00000000 0.00000000 0.00000000 15.00000000" energy_frozen_part=0.00000000 Properties=species:S:1:pos:R:3:velocities:R:3:Z:I:1
H         7.21741072       1.96157729       5.15222023         0.00000000       0.00000000       0.00000000          1
H         4.81695565       3.38794935       5.06527600         0.00000000       0.00000000       0.00000000          1
H         6.18962948       5.64224634       4.14975514         0.00000000       0.00000000       0.00000000          1
H         6.98444692       4.38838918       6.51626780         0.00000000       0.00000000       0.00000000          1
H         6.42259029       3.21544165       2.78570474         0.00000000       0.00000000       0.00000000          1
H         8.59008750       4.21587896       4.23669308         0.00000000       0.00000000       0.00000000          1
6
pbc=[F, F, F] list_num_par=6 frozen=false iter=20000 energy=-1.26974174 Lattice="15.00000000 0.00000000 0.00000000 0.00000000 15.00000000 0.00000000 0.00000000 0.00000000 15.00000000" energy_frozen_part=0.00000000 Properties=species:S:1:pos:R:3:velocities:R:3:Z:I:1
H         7.21745894       1.96158641       5.15223701         0.00000000       0.00000000       0.00000000          1
H         4.81699275       3.38794723       5.06526728         0.00000000       0.00000000       0.00000000          1
H         6.18966848       5.64224178       4.14973405         0.00000000       0.00000000       0.00000000          1
H         6.98447950       4.38840047       6.51625956         0.00000000       0.00000000       0.00000000          1
H         6.42264702       3.21541889       2.78571372         0.00000000       0.00000000       0.00000000          1
H         8.59013098       4.21588260       4.23670154         0.00000000       0.00000000       0.00000000          1
6
pbc=[F, F, F] list_num_par=6 frozen=false iter=20000 energy=-1.26974174 Lattice="15.00000000 0.00000000 0.00000000 0.00000000 15.00000000 0.00000000 0.00000000 0.00000000 15.00000000" energy_frozen_part=0.00000000 Properties=species:S:1:pos:R:3:velocities:R:3:Z:I:1
H         7.20958387       1.95893109       5.14578104         0.00000000       0.00000000       0.00000000          1
H         4.81348930       3.39245117       5.05614985         0.00000000       0.00000000       0.00000000          1
H         6.19595928       5.64693437       4.15595662         0.00000000       0.00000000       0.00000000          1
H         6.97826367       4.38025796       6.51981247         0.00000000       0.00000000       0.00000000          1
H         6.42729131       3.22561143       2.78192223         0.00000000       0.00000000       0.00000000          1
H         8.59205350       4.21342005       4.24558491         0.00000000       0.00000000       0.00000000          1
6
pbc=[F, F, F] list_num_par=6 frozen=false iter=20000 energy=-1.26974174 Lattice="15.00000000 0.00000000 0.00000000 0.00000000 15.00000000 0.00000000 0.00000000 0.00000000 15.00000000" energy_frozen_part=0.00000000 Properties=species:S:1:pos:R:3:velocities:R:3:Z:I:1
H         7.20998403       1.95910567       5.14526220         0.00000000       0.00000000       0.00000000          1
H         4.81429466       3.39337733       5.05665647         0.00000000       0.00000000       0.00000000          1
H         6.19714879       5.64757177       4.15632423         0.00000000       0.00000000       0.00000000          1
H         6.97986600       4.38030069       6.51972566         0.00000000       0.00000000       0.00000000          1
H         6.42727646       3.22637828       2.78185925         0.00000000       0.00000000       0.00000000          1
H         8.59284220       4.21330558       4.24493056         0.00000000       0.00000000       0.00000000          1
6
pbc=[F, F, F] list_num_par=6 frozen=false iter=20000 energy=-1.26974174 Lattice="15.00000000 0.00000000 0.00000000 0.00000000 15.00000000 0.00000000 0.00000000 0.00000000 15.00000000" energy_frozen_part=0.00000000 Properties=species:S:1:pos:R:3:velocities:R:3:Z:I:1
H         7.21747871       1.96144024       5.15208424         0.00000000       0.00000000       0.00000000          1
H         4.81705417       3.38787486       5.06531724         0.00000000       0.00000000       0.00000000          1
H         6.18975431       5.64218092       4.14985295         0.00000000       0.00000000       0.00000000          1
H         6.98463558       4.38818041       6.51626647         0.00000000       0.00000000       0.00000000          1
H         6.42258762       3.21543730       2.78566869         0.00000000       0.00000000       0.00000000          1
H         8.59017861       4.21574757       4.23661236         0.00000000       0.00000000       0.00000000          1
6
pbc=[F, F, F] list_num_par=6 frozen=false iter=20000 energy=-1.26974174 Lattice="15.00000000 0.00000000 0.00000000 0.00000000 15.00000000 0.00000000 0.00000000 0.00000000 15.00000000" energy_frozen_part=0.00000000 Properties=species:S:1:pos:R:3:velocities:R:3:Z:I:1
H         7.21740700       1.96154878       5.15221320         0.00000000       0.00000000       0.00000000          1
H         4.81696274       3.38793344       5.06525267         0.00000000       0.00000000       0.00000000          1
H         6.18966806       5.64221766       4.14972905         0.00000000       0.00000000       0.00000000          1
H         6.98445682       4.38835494       6.51625376         0.00000000       0.00000000       0.00000000          1
H         6.42262169       3.21540541       2.78569170         0.00000000       0.00000000       0.00000000          1
H         8.59011120       4.21582803       4.23669225         0.00000000       0.00000000       0.00000000          1
6
pbc=[F, F, F] list_num_par=6 frozen=false iter=20000 energy=-1.26974174 Lattice="15.00000000 0.00000000 0.00000000 0.00000000 15.00000000 0.00000000 0.00000000 0.00000000 15.00000000" energy_frozen_part=0.00000000 Properties=species:S:1:pos:R:3:velocities:R:3:Z:I:1
H         7.21738310       1.96149215       5.15211157         0.00000000       0.00000000       0.00000000          1
H         4.81689460       3.38781585       5.06526606         0.00000000       0.00000000       0.00000000          1
H         6.18950826       5.64216918       4.14978607         0.00000000       0.00000000       0.00000000          1
H         6.98440296       4.38825226       6.51623956         0.00000000       0.00000000       0.00000000          1
H         6.42248455       3.21541089       2.78565247         0.00000000       0.00000000       0.00000000          1
H         8.58999203       4.21584423       4.23663257         0.00000000       0.00000000       0.00000000          1
6
pbc=[F, F, F] list_num_par=6 frozen=false iter=20000 energy=-1.26974174 Lattice="15.00000000 0.00000000 0.00000000 0.00000000 15.00000000 0.00000000 0.00000000 0.00000000 15.00000000" energy_frozen_part=0.00000000 Properties=species:S:1:pos:R:3:velocities:R:3:Z:I:1
H         7.89062927       2.51998388       6.26120966         0.00000000       0.00000000       0.00000000          1
H         5.39022256       3.74445732       6.03115191         0.00000000       0.00000000       0.00000000          1
H         6.24827123       5.06285034       3.72249592         0.00000000       0.00000000       0.00000000          1
H         7.70821198       5.30250740       6.09218334         0.00000000       0.00000000       0.00000000          1
H         6.43069044       2.28032515       3.89152548         0.00000000       0.00000000       0.00000000          1
H         8.74867538       3.83837191       3.95255122         0.00000000       0.00000000       0.00000000          1
6
pbc=[F, F, F] list_num_par=6 frozen=false iter=20000 energy=-1.26974174 Lattice="15.00000000 0.00000000 0.00000000 0.00000000 15.00000000 0.00000000 0.00000000 0.00000000 15.00000000" energy_frozen_part=0.00000000 Properties=species:S:1:pos:R:3:velocities:R:3:Z:I:1
H         7.20954389       1.95891621       5.14576771         0.00000000       0.00000000       0.00000000          1
H         4.81347445       3.39247689       5.05613340         0.00000000       0.00000000       0.00000000          1
H         6.19598324       5.64694234       4.15594697         0.00000000       0.00000000       0.00000000          1
H         6.97825512       4.38024788       6.51979987         0.00000000       0.00000000       0.00000000          1
H         6.42727703       3.22561980       2.78191097         0.00000000       0.00000000       0.00000000          1
H         8.59205609       4.21338055       4.24557383         0.00000000       0.00000000       0.00000000          1
6
pbc=[F, F, F] list_num_par=6 frozen=false iter=20000 energy=-1.26974174 Lattice="15.00000000 0.00000000 0.00000000 0.00000000 15.00000000 0.00000000 0.00000000 0.00000000 15.00000000" energy_frozen_part=0.00000000 Properties=species:S:1:pos:R:3:velocities:R:3:Z:I:1
H         7.21747383       1.96159065       5.15224272         0.00000000       0.00000000       0.00000000          1
H         4.81700229       3.38793427       5.06528926         0.00000000       0.00000000       0.00000000          1
H         6.18964802       5.64223256       4.14972749         0.00000000       0.00000000       0.00000000          1
H         6.98448696       4.38841471       6.51625900         0.00000000       0.00000000       0.00000000          1
H         6.42263061       3.21540542       2.78571383         0.00000000       0.00000000       0.00000000          1
H         8.59012254       4.21588826       4.23667755         0.00000000       0.00000000       0.00000000          1
6
pbc=[F, F, F] list_num_par=6 frozen=false iter=20000 energy=-1.26974174 Lattice="15.00000000 0.00000000 0.00000000 0.00000000 15.00000000 0.00000000 0.00000000 0.00000000 15.00000000" energy_frozen_part=0.00000000 Properties=species:S:1:pos:R:3:velocities:R:3:Z:I:1
H         7.21001520       1.95912529       5.14525772         0.00000000       0.00000000       0.00000000          1
H         4.81431551       3.39337294       5.05667806         0.00000000       0.00000000       0.00000000          1
H         6.19714742       5.64757832       4.15634558         0.00000000       0.00000000       0.00000000          1
H         6.97988257       4.38030880       6.51973887         0.00000000       0.00000000       0.00000000          1
H         6.42727573       3.22640049       2.78186259         0.00000000       0.00000000       0.00000000          1
H         8.59284627       4.21333069       4.24492535         0.00000000       0.00000000       0.00000000          1
6
pbc=[F, F, F] list_num_par=6 frozen=false iter=20000 energy=-1.26974174 Lattice="15.00000000 0.00000000 0.00000000 0.00000000 15.00000000 0.00000000 0.00000000 0.00000000 15.00000000" energy_frozen_part=0.00000000 Properties=species:S:1:pos:R:3:velocities:R:3:Z:I:1
H         7.21748629       1.96158126       5.15223411         0.00000000       0.00000000       0.00000000          1
H         4.81701676       3.38793540       5.06528795         0.00000000       0.00000000       0.00000000          1
H         6.18967959       5.64223920       4.14975313         0.00000000       0.00000000       0.00000000          1
H         6.98450242       4.38839042       6.51627152         0.00000000       0.00000000       0.00000000          1
H         6.42265727       3.21542215       2.78571409         0.00000000       0.00000000       0.00000000          1
H         8.59014619       4.21588674       4.23670253         0.00000000       0.00000000       0.00000000          1
6
pbc=[F, F, F] list_num_par=6 frozen=false iter=20000 energy=-1.26974174 Lattice="15.00000000 0.00000000 0.00000000 0.00000000 15.00000000 0.00000000 0.00000000 0.00000000 15.00000000" energy_frozen_part=0.00000000 Properties=species:S:1:pos:R:3:velocities:R:3:Z:I:1
H         7.21746651       1.96145195       5.15208277         0.00000000       0.00000000       0.00000000          1
H         4.81704387       3.38788347       5.06529823         0.00000000       0.00000000       0.00000000          1
H         6.18974783       5.64219280       4.14983192         0.00000000       0.00000000       0.00000000          1
H         6.98462272       4.38819954       6.51625406         0.00000000       0.00000000       0.00000000          1
H         6.42260188       3.21544861       2.78566009         0.00000000       0.00000000       0.00000000          1
H         8.59017329       4.21576192       4.23662099         0.00000000       0.00000000       0.00000000          1
6
pbc=[F, F, F] list_num_par=6 frozen=false iter=20000 energy=-1.26974174 Lattice="15.00000000 0.00000000 0.00000000 0.00000000 15.00000000 0.00000000 0.00000000 0.00000000 15.00000000" energy_frozen_part=0.00000000 Properties=species:S:1:pos:R:3:velocities:R:3:Z:I:1
H         7.89087824       2.52528754       6.25894869         0.00000000       0.00000000       0.00000000          1
H         5.38990775       3.74796515       6.02548256         0.00000000       0.00000000       0.00000000          1
H         6.24879929       5.06376958       3.71567236         0.00000000       0.00000000       0.00000000          1
H         7.70691613       5.30747402       6.08606749         0.00000000       0.00000000       0.00000000          1
H         6.43275601       2.28158643       3.88855198         0.00000000       0.00000000       0.00000000          1
H         8.74976741       3.84109394       3.94912973         0.00000000       0.00000000       0.00000000          1
6
pbc=[F, F, F] list_num_par=6 frozen=false iter=20000 energy=-1.26974174 Lattice="15.00000000 0.00000000 0.00000000 0.00000000 15.00000000 0.00000000 0.00000000 0.00000000 15.00000000" energy_frozen_part=0.00000000 Properties=species:S:1:pos:R:3:velocities:R:3:Z:I:1
H         7.20962539       1.95899533       5.14581999         0.00000000       0.00000000       0.00000000          1
H         4.81350000       3.39246007       5.05614379         0.00000000       0.00000000       0.00000000          1
H         6.19592512       5.64696008       4.15591582         0.00000000       0.00000000       0.00000000          1
H         6.97822856       4.38034280       6.51980684         0.00000000       0.00000000       0.00000000          1
H         6.42732611       3.22561594       2.78192918         0.00000000       0.00000000       0.00000000          1
H         8.59205320       4.21349928       4.24559735         0.00000000       0.00000000       0.00000000          1
6
pbc=[F, F, F] list_num_par=6 frozen=false iter=20000 energy=-1.26974174 Lattice="15.00000000 0.00000000 0.00000000 0.00000000 15.00000000 0.00000000 0.00000000 0.00000000 15.00000000" energy_frozen_part=0.00000000 Properties=species:S:1:pos:R:3:velocities:R:3:Z:I:1
H         7.21743118       1.96156896       5.15224776         0.00000000       0.00000000       0.00000000          1
H         4.81695998       3.38791703       5.06531654         0.00000000       0.00000000       0.00000000          1
H         6.18960542       5.64220674       4.14974172         0.00000000       0.00000000       0.00000000          1
H         6.98447315       4.38838767       6.51625934         0.00000000       0.00000000       0.00000000          1
H         6.42256518       3.21538155       2.78572244         0.00000000       0.00000000       0.00000000          1
H         8.59007567       4.21586237       4.23666242         0.00000000       0.00000000       0.00000000          1
6
pbc=[F, F, F] list_num_par=6 frozen=false iter=20000 energy=-1.26974174 Lattice="15.00000000 0.00000000 0.00000000 0.00000000 15.00000000 0.00000000 0.00000000 0.00000000 15.00000000" energy_frozen_part=0.00000000 Properties=species:S:1:pos:R:3:velocities:R:3:Z:I:1
H         7.21742611       1.96158190       5.15225306         0.00000000       0.00000000       0.00000000          1
H         4.81695765       3.38792470       5.06529146         0.00000000       0.00000000       0.00000000          1
H         6.18961092       5.64223036       4.14974944         0.00000000       0.00000000       0.00000000          1
H         6.98443685       4.38840089       6.51627756         0.00000000       0.00000000       0.00000000          1
H         6.42261022       3.21540844       2.78572788         0.00000000       0.00000000       0.00000000          1
H         8.59008531       4.21588433       4.23671545         0.00000000       0.00000000       0.00000000          1
6
pbc=[F, F, F] list_num_par=6 frozen=false iter=20000 energy=-1.26974174 Lattice="15.00000000 0.00000000 0.00000000 0.00000000 15.00000000 0.00000000 0.00000000 0.00000000 15.00000000" energy_frozen_part=0.00000000 Properties=species:S:1:pos:R:3:velocities:R:3:Z:I:1
H         7.89064271       2.51997573       6.26121638         0.00000000       0.00000000       0.00000000          1
H         5.39023083       3.74444942       6.03120368         0.00000000       0.00000000       0.00000000          1
H         6.24823266       5.06284414       3.72253789         0.00000000       0.00000000       0.00000000          1
H         7.70821369       5.30250019       6.09219306         0.00000000       0.00000000       0.00000000          1
H         6.43065749       2.28031774       3.89155380         0.00000000       0.00000000       0.00000000          1
H         8.74864251       3.83836355       3.95254311         0.00000000       0.00000000       0.00000000          1
6
pbc=[F, F, F] list_num_par=6 frozen=false iter=20000 energy=-1.26974174 Lattice="15.00000000 0.00000000 0.00000000 0.00000000 15.00000000 0.00000000 0.00000000 0.00000000 15.00000000" energy_frozen_part=0.00000000 Properties=species:S:1:pos:R:3:velocities:R:3:Z:I:1
H         7.21743105       1.96143009       5.15210888         0.00000000       0.00000000       0.00000000          1
H         4.81702328       3.38789151       5.06529549         0.00000000       0.00000000       0.00000000          1
H         6.18976338       5.64217786       4.14984660         0.00000000       0.00000000       0.00000000          1
H         6.98459067       4.38817908       6.51627912         0.00000000       0.00000000       0.00000000          1
H         6.42260389       3.21543526       2.78567775         0.00000000       0.00000000       0.00000000          1
H         8.59017595       4.21571528       4.23666509         0.00000000       0.00000000       0.00000000          1
6
pbc=[F, F, F] list_num_par=6 frozen=false iter=20000 energy=-1.26974174 Lattice="15.00000000 0.00000000 0.00000000 0.00000000 15.00000000 0.00000000 0.00000000 0.00000000 15.00000000" energy_frozen_part=0.00000000 Properties=species:S:1:pos:R:3:velocities:R:3:Z:I:1
H         7.20957706       1.95890462       5.14576417         0.00000000       0.00000000       0.00000000          1
H         4.81348263       3.39243162       5.05616533         0.00000000       0.00000000       0.00000000          1
H         6.19594950       5.64692307       4.15596959         0.00000000       0.00000000       0.00000000          1
H         6.97826781       4.38021981       6.51981144         0.00000000       0.00000000       0.00000000          1
H         6.42725928       3.22560083       2.78192515         0.00000000       0.00000000       0.00000000          1
H         8.59204486       4.21339839       4.24556499         0.00000000       0.00000000       0.00000000          1
6
pbc=[F, F, F] list_num_par=6 frozen=false iter=20000 energy=-1.26974174 Lattice="15.00000000 0.00000000 0.00000000 0.00000000 15.00000000 0.00000000 0.00000000 0.00000000 15.00000000" energy_frozen_part=0.00000000 Properties=species:S:1:pos:R:3:velocities:R:3:Z:I:1
H         7.21743455       1.96157754       5.15222691         0.00000000       0.00000000       0.00000000          1
H         4.81696780       3.38793621       5.06529727         0.00000000       0.00000000       0.00000000          1
H         6.18962520       5.64224100       4.14977226         0.00000000       0.00000000       0.00000000          1
H         6.98445945       4.38838013       6.51627993         0.00000000       0.00000000       0.00000000          1
H         6.42260520       3.21543877       2.78572250         0.00000000       0.00000000       0.00000000          1
H         8.59009789       4.21588922       4.23671170         0.00000000       0.00000000       0.00000000          1
6
pbc=[F, F, F] list_num_par=6 frozen=false iter=20000 energy=-1.26974174 Lattice="15.00000000 0.00000000 0.00000000 0.00000000 15.00000000 0.00000000 0.00000000 0.00000000 15.00000000" energy_frozen_part=0.00000000 Properties=species:S:1:pos:R:3:velocities:R:3:Z:I:1
H         7.21748098       1.96157763       5.15224668         0.00000000       0.00000000       0.00000000          1
H         4.81701350       3.38793667       5.06528344         0.00000000       0.00000000       0.00000000          1
H         6.18968322       5.64222872       4.14973519         0.00000000       0.00000000       0.00000000          1
H         6.98450101       4.38840336       6.51626867         0.00000000       0.00000000       0.00000000          1
H         6.42266198       3.21540536       2.78571763         0.00000000       0.00000000       0.00000000          1
H         8.59014659       4.21587305       4.23669793         0.00000000       0.00000000       0.00000000          1
6
pbc=[F, F, F] list_num_par=6 frozen=false iter=20000 energy=-1.26974174 Lattice="15.00000000 0.00000000 0.00000000 0.00000000 15.00000000 0.00000000 0.00000000 0.00000000 15.00000000" energy_frozen_part=0.00000000 Properties=species:S:1:pos:R:3:velocities:R:3:Z:I:1
H         7.21741299       1.96154966       5.15221968         0.00000000       0.00000000       0.00000000          1
H         4.81696278       3.38793302       5.06525957         0.00000000       0.00000000       0.00000000          1
H         6.18965980       5.64222221       4.14973247         0.00000000       0.00000000       0.00000000          1
H         6.98444974       4.38836346       6.51625695         0.00000000       0.00000000       0.00000000          1
H         6.42261141       3.21540482       2.78569607         0.00000000       0.00000000       0.00000000          1
H         8.59010565       4.21583274       4.23669738         0.00000000       0.00000000       0.00000000          1
6
pbc=[F, F, F] list_num_par=6 frozen=false iter=20000 energy=-1.26974174 Lattice="15.00000000 0.00000000 0.00000000 0.00000000 15.00000000 0.00000000 0.00000000 0.00000000 15.00000000" energy_frozen_part=0.00000000 Properties=species:S:1:pos:R:3:velocities:R:3:Z:I:1
H         7.21741846       1.96156083       5.15217268         0.00000000       0.00000000       0.00000000          1
H         4.81693850       3.38788531       5.06511918         0.00000000       0.00000000       0.00000000          1
H         6.18961733       5.64222991       4.14971620         0.00000000       0.00000000       0.00000000          1
H         6.98432622       4.38833993       6.51625069         0.00000000       0.00000000       0.00000000          1
H         6.42271140       3.21544701       2.78563648         0.00000000       0.00000000       0.00000000          1
H         8.59009649       4.21590682       4.23677105         0.00000000       0.00000000       0.00000000          1
6
pbc=[F, F, F] list_num_par=6 frozen=false iter=20000 energy=-1.26974174 Lattice="15.00000000 0.00000000 0.00000000 0.00000000 15.00000000 0.00000000 0.00000000 0.00000000 15.00000000" energy_frozen_part=0.00000000 Properties=species:S:1:pos:R:3:velocities:R:3:Z:I:1
H         7.21747163       1.96143843       5.15208752         0.00000000       0.00000000       0.00000000          1
H         4.81704696       3.38786619       5.06529694         0.00000000       0.00000000       0.00000000          1
H         6.18974626       5.64218370       4.14983912         0.00000000       0.00000000       0.00000000          1
H         6.98460783       4.38818467       6.51626398         0.00000000       0.00000000       0.00000000          1
H         6.42260335       3.21543727       2.78566189         0.00000000       0.00000000       0.00000000          1
H         8.59016950       4.21574828       4.23663529         0.00000000       0.00000000       0.00000000          1
6
pbc=[F, F, F] list_num_par=6 frozen=false iter=20000 energy=-1.26974174 Lattice="15.00000000 0.00000000 0.00000000 0.00000000 15.00000000 0.00000000 0.00000000 0.00000000 15.00000000" energy_frozen_part=0.00000000 Properties=species:S:1:pos:R:3:velocities:R:3:Z:I:1
H         7.20999053       1.95912639       5.14527618         0.00000000       0.00000000       0.00000000          1
H         4.81429627       3.39336901       5.05666496         0.00000000       0.00000000       0.00000000          1
H         6.19713346       5.64757245       4.15631115         0.00000000       0.00000000       0.00000000          1
H         6.97985703       4.38032599       6.51972415         0.00000000       0.00000000       0.00000000          1
H         6.42726603       3.22637359       2.78186655         0.00000000       0.00000000       0.00000000          1
H         8.59283177       4.21332228       4.24492252         0.00000000       0.00000000       0.00000000          1
6
pbc=[F, F, F] list_num_par=6 frozen=false iter=20000 energy=-1.26974174 Lattice="15.00000000 0.00000000 0.00000000 0.00000000 15.00000000 0.00000000 0.00000000 0.00000000 15.00000000" energy_frozen_part=0.00000000 Properties=species:S:1:pos:R:3:velocities:R:3:Z:I:1
H         7.20958747       1.95892167       5.14578423         0.00000000       0.00000000       0.00000000          1
H         4.81348332       3.39243061       5.05615902         0.00000000       0.00000000       0.00000000          1
H         6.19593979       5.64691998       4.15594592         0.00000000       0.00000000       0.00000000          1
H         6.97826100       4.38024890       6.51980474         0.00000000       0.00000000       0.00000000          1
H         6.42726727       3.22558539       2.78192895         0.00000000       0.00000000       0.00000000          1
H         8.59204286       4.21340805       4.24556469         0.00000000       0.00000000       0.00000000          1
6
pbc=[F, F, F] list_num_par=6 frozen=false iter=20000 energy=-1.26974174 Lattice="15.00000000 0.00000000 0.00000000 0.00000000 15.00000000 0.00000000 0.00000000 0.00000000 15.00000000" energy_frozen_part=0.00000000 Properties=species:S:1:pos:R:3:velocities:R:3:Z:I:1
H         7.20963395       1.95898393       5.14578835         0.00000000       0.00000000       0.00000000          1
H         4.81352155       3.39247647       5.05617587         0.00000000       0.00000000       0.00000000          1
H         6.19596384       5.64697243       4.15595296         0.00000000       0.00000000       0.00000000          1
H         6.97829545       4.38031556       6.51980776         0.00000000       0.00000000       0.00000000          1
H         6.42729181       3.22563672       2.78193362         0.00000000       0.00000000       0.00000000          1
H         8.59206970       4.21347136       4.24556211         0.00000000       0.00000000       0.00000000          1
6
pbc=[F, F, F] list_num_par=6 frozen=false iter=20000 energy=-1.26974174 Lattice="15.00000000 0.00000000 0.00000000 0.00000000 15.00000000 0.00000000 0.00000000 0.00000000 15.00000000" energy_frozen_part=0.00000000 Properties=species:S:1:pos:R:3:velocities:R:3:Z:I:1
H         7.21742732       1.96157528       5.15225097         0.00000000       0.00000000       0.00000000          1
H         4.81695815       3.38791546       5.06529028         0.00000000       0.00000000       0.00000000          1
H         6.18961014       5.64222515       4.14975866         0.00000000       0.00000000       0.00000000          1
H         6.98442877       4.38838408       6.51628299         0.00000000       0.00000000       0.00000000          1
H         6.42260760       3.21541149       2.78572647         0.00000000       0.00000000       0.00000000          1
H         8.59008468       4.21588598       4.23671969         0.00000000       0.00000000       0.00000000          1
6
pbc=[F, F, F] list_num_par=6 frozen=false iter=20000 energy=-1.26974174 Lattice="15.00000000 0.00000000 0.00000000 0.00000000 15.00000000 0.00000000 0.00000000 0.00000000 15.00000000" energy_frozen_part=0.00000000 Properties=species:S:1:pos:R:3:velocities:R:3:Z:I:1
H         7.20958627       1.95892407       5.14577856         0.00000000       0.00000000       0.00000000          1
H         4.81348328       3.39243519       5.05616051         0.00000000       0.00000000       0.00000000          1
H         6.19594101       5.64692430       4.15594702         0.00000000       0.00000000       0.00000000          1
H         6.97826445       4.38024875       6.51980196         0.00000000       0.00000000       0.00000000          1
H         6.42726166       3.22559137       2.78192142         0.00000000       0.00000000       0.00000000          1
H         8.59204203       4.21341302       4.24555881         0.00000000       0.00000000       0.00000000          1
6
pbc=[F, F, F] list_num_par=6 frozen=false iter=20000 energy=-1.26974174 Lattice="15.00000000 0.00000000 0.00000000 0.00000000 15.00000000 0.00000000 0.00000000 0.00000000 15.00000000" energy_frozen_part=0.00000000 Properties=species:S:1:pos:R:3:velocities:R:3:Z:I:1
H         7.20955351       1.95891637       5.14577934         0.00000000       0.00000000       0.00000000          1
H         4.81347599       3.39246238       5.05614740         0.00000000       0.00000000       0.00000000          1
H         6.19597475       5.64693644       4.15595487         0.00000000       0.00000000       0.00000000          1
H         6.97825682       4.38024247       6.51981128         0.00000000       0.00000000       0.00000000          1
H         6.42727934       3.22561270       2.78192424         0.00000000       0.00000000       0.00000000          1
H         8.59205448       4.21338333       4.24558599         0.00000000       0.00000000       0.00000000          1
6
pbc=[F, F, F] list_num_par=6 frozen=false iter=20000 energy=-1.26974174 Lattice="15.00000000 0.00000000 0.00000000 0.00000000 15.00000000 0.00000000 0.00000000 0.00000000 15.00000000" energy_frozen_part=0.00000000 Properties=species:S:1:pos:R:3:velocities:R:3:Z:I:1
H         7.21744274       1.96158250       5.15224850         0.00000000       0.00000000       0.00000000          1
H         4.81697181       3.38792746       5.06528259         0.00000000       0.00000000       0.00000000          1
H         6.18962470       5.64222673       4.14972984         0.00000000       0.00000000       0.00000000          1
H         6.98445708       4.38840349       6.51625642         0.00000000       0.00000000       0.00000000          1
H         6.42261335       3.21540504       2.78571548         0.00000000       0.00000000       0.00000000          1
H         8.59009813       4.21587850       4.23669379         0.00000000       0.00000000       0.00000000          1
6
pbc=[F, F, F] list_num_par=6 frozen=false iter=20000 energy=-1.26974174 Lattice="15.00000000 0.00000000 0.00000000 0.00000000 15.00000000 0.00000000 0.00000000 0.00000000 15.00000000" energy_frozen_part=0.00000000 Properties=species:S:1:pos:R:3:velocities:R:3:Z:I:1
H         7.21741939       1.96158152       5.15224159         0.00000000       0.00000000       0.00000000          1
H         4.81696255       3.38795040       5.06530081         0.00000000       0.00000000       0.00000000          1
H         6.18963630       5.64225068       4.14977422         0.00000000       0.00000000       0.00000000          1
H         6.98445965       4.38839182       6.51628470         0.00000000       0.00000000       0.00000000          1
H         6.42260204       3.21543817       2.78573022         0.00000000       0.00000000       0.00000000          1
H         8.59009220       4.21588207       4.23671142         0.00000000       0.00000000       0.00000000          1
6
pbc=[F, F, F] list_num_par=6 frozen=false iter=20000 energy=-1.26974174 Lattice="15.00000000 0.00000000 0.00000000 0.00000000 15.00000000 0.00000000 0.00000000 0.00000000 15.00000000" energy_frozen_part=0.00000000 Properties=species:S:1:pos:R:3:velocities:R:3:Z:I:1
H         7.21746727       1.96158981       5.15223800         0.00000000       0.00000000       0.00000000          1
H         4.81698469       3.38790863       5.06529255         0.00000000       0.00000000       0.00000000          1
H         6.18960795       5.64222494       4.14973631         0.00000000       0.00000000       0.00000000          1
H         6.98446280       4.38841079       6.51626097         0.00000000       0.00000000       0.00000000          1
H         6.42260768       3.21540772       2.78571605         0.00000000       0.00000000       0.00000000          1
H         8.59009107       4.21590411       4.23668284         0.00000000       0.00000000       0.00000000          1
6
pbc=[F, F, F] list_num_par=6 frozen=false iter=20000 energy=-1.26974174 Lattice="15.00000000 0.00000000 0.00000000 0.00000000 15.00000000 0.00000000 0.00000000 0.00000000 15.00000000" energy_frozen_part=0.00000000 Properties=species:S:1:pos:R:3:velocities:R:3:Z:I:1
H         7.20962513       1.95899451       5.14580868         0.00000000       0.00000000       0.00000000          1
H         4.81349788       3.39246350       5.05613533         0.00000000       0.00000000       0.00000000          1
H         6.19593668       5.64696003       4.15592047         0.00000000       0.00000000       0.00000000          1
H         6.97824178       4.38033448       6.51980086         0.00000000       0.00000000       0.00000000          1
H         6.42732445       3.22562147       2.78192493         0.00000000       0.00000000       0.00000000          1
H         8.59206373       4.21349291       4.24559017         0.00000000       0.00000000       0.00000000          1
6
pbc=[F, F, F] list_num_par=6 frozen=false iter=20000 energy=-1.26974174 Lattice="15.00000000 0.00000000 0.00000000 0.00000000 15.00000000 0.00000000 0.00000000 0.00000000 15.00000000" energy_frozen_part=0.00000000 Properties=species:S:1:pos:R:3:velocities:R:3:Z:I:1
H         7.20962225       1.95899073       5.14580914         0.00000000       0.00000000       0.00000000          1
H         4.81350360       3.39247621       5.05614396         0.00000000       0.00000000       0.00000000          1
H         6.19595527       5.64696786       4.15591824         0.00000000       0.00000000       0.00000000          1
H         6.97825460       4.38033573       6.51979387         0.00000000       0.00000000       0.00000000          1
H         6.42731206       3.22562308       2.78192732         0.00000000       0.00000000       0.00000000          1
H         8.59206442       4.21347972       4.24557792         0.00000000       0.00000000       0.00000000          1
6
pbc=[F, F, F] list_num_par=6 frozen=false iter=20000 energy=-1.26974174 Lattice="15.00000000 0.00000000 0.00000000 0.00000000 15.00000000 0.00000000 0.00000000 0.00000000 15.00000000" energy_frozen_part=0.00000000 Properties=species:S:1:pos:R:3:velocities:R:3:Z:I:1
H         7.21740169       1.96149670       5.15208063         0.00000000       0.00000000       0.00000000          1
H         4.81689649       3.38779781       5.06526045         0.00000000       0.00000000       0.00000000          1
H         6.18948893       5.64218336       4.14982439         0.00000000       0.00000000       0.00000000          1
H         6.98439576       4.38822369       6.51625187         0.00000000       0.00000000       0.00000000          1
H         6.42249542       3.21545453       2.78565151         0.00000000       0.00000000       0.00000000          1
H         8.58999224       4.21588582       4.23664378         0.00000000       0.00000000       0.00000000          1
6
pbc=[F, F, F] list_num_par=6 frozen=false iter=20000 energy=-1.26974174 Lattice="15.00000000 0.00000000 0.00000000 0.00000000 15.00000000 0.00000000 0.00000000 0.00000000 15.00000000" energy_frozen_part=0.00000000 Properties=species:S:1:pos:R:3:velocities:R:3:Z:I:1
H         7.21742670       1.96158201       5.15222545         0.00000000       0.00000000       0.00000000          1
H         4.81696082       3.38794245       5.06528075         0.00000000       0.00000000       0.00000000          1
H         6.18962781       5.64224235       4.14975965         0.00000000       0.00000000       0.00000000          1
H         6.98445854       4.38838678       6.51627124         0.00000000       0.00000000       0.00000000          1
H         6.42260287       3.21543753       2.78571155         0.00000000       0.00000000       0.00000000          1
H         8.59009218       4.21588132       4.23669775         0.00000000       0.00000000       0.00000000          1
6
pbc=[F, F, F] list_num_par=6 frozen=false iter=20000 energy=-1.26974174 Lattice="15.00000000 0.00000000 0.00000000 0.00000000 15.00000000 0.00000000 0.00000000 0.00000000 15.00000000" energy_frozen_part=0.00000000 Properties=species:S:1:pos:R:3:velocities:R:3:Z:I:1
H         7.20956267       1.95891351       5.14577496         0.00000000       0.00000000       0.00000000          1
H         4.81348520       3.39246263       5.05613763         0.00000000       0.00000000       0.00000000          1
H         6.19598866       5.64693387       4.15595989         0.00000000       0.00000000       0.00000000          1
H         6.97825956       4.38024002       6.51981229         0.00000000       0.00000000       0.00000000          1
H         6.42729004       3.22561345       2.78191671         0.00000000       0.00000000       0.00000000          1
H         8.59206311       4.21338039       4.24558902         0.00000000       0.00000000       0.00000000          1
6
pbc=[F, F, F] list_num_par=6 frozen=false iter=20000 energy=-1.26974174 Lattice="15.00000000 0.00000000 0.00000000 0.00000000 15.00000000 0.00000000 0.00000000 0.00000000 15.00000000" energy_frozen_part=0.00000000 Properties=species:S:1:pos:R:3:velocities:R:3:Z:I:1
H         7.20962332       1.95898763       5.14577850         0.00000000       0.00000000       0.00000000          1
H         4.81350767       3.39247742       5.05617456         0.00000000       0.00000000       0.00000000          1
H         6.19593692       5.64697095       4.15594562         0.00000000       0.00000000       0.00000000          1
H         6.97828228       4.38031777       6.51980383         0.00000000       0.00000000       0.00000000          1
H         6.42728004       3.22564505       2.78192657         0.00000000       0.00000000       0.00000000          1
H         8.59205059       4.21349134       4.24555596         0.00000000       0.00000000       0.00000000          1
6
pbc=[F, F, F] list_num_par=6 frozen=false iter=20000 energy=-1.26974174 Lattice="15.00000000 0.00000000 0.00000000 0.00000000 15.00000000 0.00000000 0.00000000 0.00000000 15.00000000" energy_frozen_part=0.00000000 Properties=species:S:1:pos:R:3:velocities:R:3:Z:I:1
H         7.21746962       1.96145317       5.15209389         0.00000000       0.00000000       0.00000000          1
H         4.81704882       3.38788976       5.06530683         0.00000000       0.00000000       0.00000000          1
H         6.18975801       5.64219281       4.14984458         0.00000000       0.00000000       0.00000000          1
H         6.98461590       4.38819928       6.51626833         0.00000000       0.00000000       0.00000000          1
H         6.42260529       3.21544885       2.78566882         0.00000000       0.00000000       0.00000000          1
H         8.59017972       4.21575392       4.23663266         0.00000000       0.00000000       0.00000000          1
6
pbc=[F, F, F] list_num_par=6 frozen=false iter=20000 energy=-1.26974174 Lattice="15.00000000 0.00000000 0.00000000 0.00000000 15.00000000 0.00000000 0.00000000 0.00000000 15.00000000" energy_frozen_part=0.00000000 Properties=species:S:1:pos:R:3:velocities:R:3:Z:I:1
H         7.20958835       1.95891208       5.14576060         0.00000000       0.00000000       0.00000000          1
H         4.81348701       3.39243310       5.05616000         0.00000000       0.00000000       0.00000000          1
H         6.19594488       5.64691901       4.15594081         0.00000000       0.00000000       0.00000000          1
H         6.97827649       4.38024462       6.51979012         0.00000000       0.00000000       0.00000000          1
H         6.42725581       3.22559196       2.78191268         0.00000000       0.00000000       0.00000000          1
H         8.59204102       4.21340023       4.24554480         0.00000000       0.00000000       0.00000000          1
6
pbc=[F, F, F] list_num_par=6 frozen=false iter=20000 energy=-1.26974174 Lattice="15.00000000 0.00000000 0.00000000 0.00000000 15.00000000 0.00000000 0.00000000 0.00000000 15.00000000" energy_frozen_part=0.00000000 Properties=species:S:1:pos:R:3:velocities:R:3:Z:I:1
H         7.89090039       2.52528922       6.25893210         0.00000000       0.00000000       0.00000000          1
H         5.38992402       3.74794498       6.02549268         0.00000000       0.00000000       0.00000000          1
H         6.24878784       5.06376225       3.71567603         0.00000000       0.00000000       0.00000000          1
H         7.70692725       5.30747452       6.08606163         0.00000000       0.00000000       0.00000000          1
H         6.43276154       2.28157774       3.88855008         0.00000000       0.00000000       0.00000000          1
H         8.74976806       3.84110567       3.94911469         0.00000000       0.00000000       0.00000000          1
6
pbc=[F, F, F] list_num_par=6 frozen=false iter=20000 energy=-1.26974174 Lattice="15.00000000 0.00000000 0.00000000 0.00000000 15.00000000 0.00000000 0.00000000 0.00000000 15.00000000" energy_frozen_part=0.00000000 Properties=species:S:1:pos:R:3:velocities:R:3:Z:I:1
H         7.20998452       1.95912526       5.14525108         0.00000000       0.00000000       0.00000000          1
H         4.81430725       3.39340191       5.05666747         0.00000000       0.00000000       0.00000000          1
H         6.19717353       5.64759106       4.15633398         0.00000000       0.00000000       0.00000000          1
H         6.97989116       4.38031165       6.51972904         0.00000000       0.00000000       0.00000000          1
H         6.42726753       3.22639895       2.78185601         0.00000000       0.00000000       0.00000000          1
H         8.59284787       4.21331334       4.24491535         0.00000000       0.00000000       0.00000000          1
6
pbc=[F, F, F] list_num_par=6 frozen=false iter=20000 energy=-1.26974174 Lattice="15.00000000 0.00000000 0.00000000 0.00000000 15.00000000 0.00000000 0.00000000 0.00000000 15.00000000" energy_frozen_part=0.00000000 Properties=species:S:1:pos:R:3:velocities:R:3:Z:I:1
H         7.20963105       1.95897920       5.14578424         0.00000000       0.00000000       0.00000000          1
H         4.81351877       3.39247676       5.05616068         0.00000000       0.00000000       0.00000000          1
H         6.19595958       5.64697064       4.15593238         0.00000000       0.00000000       0.00000000          1
H         6.97828405       4.38031683       6.51979455         0.00000000       0.00000000       0.00000000          1
H         6.42730177       3.22563486       2.78192246         0.00000000       0.00000000       0.00000000          1
H         8.59207135       4.21347117       4.24555709         0.00000000       0.00000000       0.00000000          1
6
pbc=[F, F, F] list_num_par=6 frozen=false iter=20000 energy=-1.26974174 Lattice="15.00000000 0.00000000 0.00000000 0.00000000 15.00000000 0.00000000 0.00000000 0.00000000 15.00000000" energy_frozen_part=0.00000000 Properties=species:S:1:pos:R:3:velocities:R:3:Z:I:1
H         7.21741408       1.96155809       5.15223767         0.00000000       0.00000000       0.00000000          1
H         4.81695450       3.38792453       5.06531333         0.00000000       0.00000000       0.00000000          1
H         6.18961495       5.64221057       4.14973813         0.00000000       0.00000000       0.00000000          1
H         6.98447528       4.38838371       6.51625824         0.00000000       0.00000000       0.00000000          1
H         6.42255902       3.21538406       2.78572262         0.00000000       0.00000000       0.00000000          1
H         8.59007697       4.21584880       4.23666615         0.00000000       0.00000000       0.00000000          1
6
pbc=[F, F, F] list_num_par=6 frozen=false iter=20000 energy=-1.26974174 Lattice="15.00000000 0.00000000 0.00000000 0.00000000 15.00000000 0.00000000 0.00000000 0.00000000 15.00000000" energy_frozen_part=0.00000000 Properties=species:S:1:pos:R:3:velocities:R:3:Z:I:1
H         7.21743303       1.96158022       5.15225044         0.00000000       0.00000000       0.00000000          1
H         4.81696320       3.38792612       5.06530490         0.00000000       0.00000000       0.00000000          1
H         6.18962175       5.64222597       4.14975317         0.00000000       0.00000000       0.00000000          1
H         6.98446078       4.38839310       6.51627540         0.00000000       0.00000000       0.00000000          1
H         6.42259198       3.21540496       2.78573120         0.00000000       0.00000000       0.00000000          1
H         8.59009057       4.21587868       4.23669872         0.00000000       0.00000000       0.00000000          1
6
pbc=[F, F, F] list_num_par=6 frozen=false iter=20000 energy=-1.26974174 Lattice="15.00000000 0.00000000 0.00000000 0.00000000 15.00000000 0.00000000 0.00000000 0.00000000 15.00000000" energy_frozen_part=0.00000000 Properties=species:S:1:pos:R:3:velocities:R:3:Z:I:1
H         7.21742798       1.96158380       5.15224275         0.00000000       0.00000000       0.00000000          1
H         4.81695776       3.38793130       5.06529596         0.00000000       0.00000000       0.00000000          1
H         6.18961612       5.64222841       4.14974737         0.00000000       0.00000000       0.00000000          1
H         6.98445310       4.38840093       6.51627209         0.00000000       0.00000000       0.00000000          1
H         6.42258990       3.21541346       2.78571674         0.00000000       0.00000000       0.00000000          1
H         8.59008559       4.21588264       4.23668962         0.00000000       0.00000000       0.00000000          1
6
pbc=[F, F, F] list_num_par=6 frozen=false iter=20000 energy=-1.26974174 Lattice="15.00000000 0.00000000 0.00000000 0.00000000 15.00000000 0.00000000 0.00000000 0.00000000 15.00000000" energy_frozen_part=0.00000000 Properties=species:S:1:pos:R:3:velocities:R:3:Z:I:1
H         7.21743999       1.96157352       5.15224449         0.00000000       0.00000000       0.00000000          1
H         4.81696905       3.38792503       5.06531592         0.00000000       0.00000000       0.00000000          1
H         6.18962070       5.64222005       4.14974941         0.00000000       0.00000000       0.00000000          1
H         6.98448315       4.38839679       6.51626317         0.00000000       0.00000000       0.00000000          1
H         6.42257628       3.21539547       2.78572776         0.00000000       0.00000000       0.00000000          1
H         8.59008888       4.21587077       4.23666835         0.00000000       0.00000000       0.00000000          1
6
pbc=[F, F, F] list_num_par=6 frozen=false iter=20000 energy=-1.26974174 Lattice="15.00000000 0.00000000 0.00000000 0.00000000 15.00000000 0.00000000 0.00000000 0.00000000 15.00000000" energy_frozen_part=0.00000000 Properties=species:S:1:pos:R:3:velocities:R:3:Z:I:1
H         7.21746719       1.96145291       5.15209238         0.00000000       0.00000000       0.00000000          1
H         4.81704034       3.38789237       5.06530015         0.00000000       0.00000000       0.00000000          1
H         6.18974797       5.64219655       4.14983735         0.00000000       0.00000000       0.00000000          1
H         6.98461754       4.38819831       6.51625999         0.00000000       0.00000000       0.00000000          1
H         6.42259349       3.21544376       2.78566700         0.00000000       0.00000000       0.00000000          1
H         8.59017145       4.21575819       4.23662098         0.00000000       0.00000000       0.00000000          1
6
pbc=[F, F, F] list_num_par=6 frozen=false iter=20000 energy=-1.26974174 Lattice="15.00000000 0.00000000 0.00000000 0.00000000 15.00000000 0.00000000 0.00000000 0.00000000 15.00000000" energy_frozen_part=0.00000000 Properties=species:S:1:pos:R:3:velocities:R:3:Z:I:1
H         7.89087843       2.52528738       6.25894216         0.00000000       0.00000000       0.00000000          1
H         5.38991379       3.74796154       6.02549399         0.00000000       0.00000000       0.00000000          1
H         6.24879685       5.06378051       3.71568016         0.00000000       0.00000000       0.00000000          1
H         7.70692487       5.30747249       6.08607210         0.00000000       0.00000000       0.00000000          1
H         6.43274983       2.28159309       3.88854835         0.00000000       0.00000000       0.00000000          1
H         8.74976437       3.84109557       3.94913108         0.00000000       0.00000000       0.00000000          1
6
pbc=[F, F, F] list_num_par=6 frozen=false iter=20000 energy=-1.26974174 Lattice="15.00000000 0.00000000 0.00000000 0.00000000 15.00000000 0.00000000 0.00000000 0.00000000 15.00000000" energy_frozen_part=0.00000000 Properties=species:S:1:pos:R:3:velocities:R:3:Z:I:1
H         7.20962258       1.95897801       5.14578716         0.00000000       0.00000000       0.00000000          1
H         4.81351440       3.39247943       5.05617539         0.00000000       0.00000000       0.00000000          1
H         6.19595125       5.64697006       4.15594676         0.00000000       0.00000000       0.00000000          1
H         6.97829403       4.38031077       6.51980410         0.00000000       0.00000000       0.00000000          1
H         6.42728393       3.22563526       2.78192964         0.00000000       0.00000000       0.00000000          1
H         8.59205886       4.21347554       4.24555551         0.00000000       0.00000000       0.00000000          1
6
pbc=[F, F, F] list_num_par=6 frozen=false iter=20000 energy=-1.26974174 Lattice="15.00000000 0.00000000 0.00000000 0.00000000 15.00000000 0.00000000 0.00000000 0.00000000 15.00000000" energy_frozen_part=0.00000000 Properties=species:S:1:pos:R:3:velocities:R:3:Z:I:1
H         7.21741219       1.96158234       5.15222184         0.00000000       0.00000000       0.00000000          1
H         4.81695086       3.38794700       5.06528079         0.00000000       0.00000000       0.00000000          1
H         6.18962890       5.64224310       4.14975731         0.00000000       0.00000000       0.00000000          1
H         6.98444498       4.38838738       6.51627203         0.00000000       0.00000000       0.00000000          1
H         6.42258863       3.21543615       2.78570849         0.00000000       0.00000000       0.00000000          1
H         8.59008260       4.21587683       4.23669754         0.00000000       0.00000000       0.00000000          1
6
pbc=[F, F, F] list_num_par=6 frozen=false iter=20000 energy=-1.26974174 Lattice="15.00000000 0.00000000 0.00000000 0.00000000 15.00000000 0.00000000 0.00000000 0.00000000 15.00000000" energy_frozen_part=0.00000000 Properties=species:S:1:pos:R:3:velocities:R:3:Z:I:1
H         7.20958350       1.95892932       5.14577150         0.00000000       0.00000000       0.00000000          1
H         4.81348514       3.39243899       5.05616272         0.00000000       0.00000000       0.00000000          1
H         6.19593841       5.64692459       4.15594937         0.00000000       0.00000000       0.00000000          1
H         6.97826659       4.38025450       6.51979814         0.00000000       0.00000000       0.00000000          1
H         6.42725786       3.22560081       2.78191883         0.00000000       0.00000000       0.00000000          1
H         8.59204285       4.21341264       4.24555765         0.00000000       0.00000000       0.00000000          1
6
pbc=[F, F, F] list_num_par=6 frozen=false iter=20000 energy=-1.26974174 Lattice="15.00000000 0.00000000 0.00000000 0.00000000 15.00000000 0.00000000 0.00000000 0.00000000 15.00000000" energy_frozen_part=0.00000000 Properties=species:S:1:pos:R:3:velocities:R:3:Z:I:1
H         7.21742330       1.96158143       5.15224548         0.00000000       0.00000000       0.00000000          1
H         4.81695431       3.38793254       5.06529724         0.00000000       0.00000000       0.00000000          1
H         6.18961415       5.64223544       4.14974905         0.00000000       0.00000000       0.00000000          1
H         6.98444958       4.38839715       6.51627200         0.00000000       0.00000000       0.00000000          1
H         6.42259264       3.21541971       2.78572497         0.00000000       0.00000000       0.00000000          1
H         8.59008537       4.21588275       4.23669989         0.00000000       0.00000000       0.00000000          1
6
pbc=[F, F, F] list_num_par=6 frozen=false iter=20000 energy=-1.26974174 Lattice="15.00000000 0.00000000 0.00000000 0.00000000 15.00000000 0.00000000 0.00000000 0.00000000 15.00000000" energy_frozen_part=0.00000000 Properties=species:S:1:pos:R:3:velocities:R:3:Z:I:1
H         7.20999710       1.95912243       5.14526704         0.00000000       0.00000000       0.00000000          1
H         4.81430703       3.39338454       5.05667588         0.00000000       0.00000000       0.00000000          1
H         6.19715240       5.64758736       4.15634136         0.00000000       0.00000000       0.00000000          1
H         6.97987546       4.38031115       6.51973909         0.00000000       0.00000000       0.00000000          1
H         6.42727307       3.22639470       2.78186912         0.00000000       0.00000000       0.00000000          1
H         8.59283942       4.21332689       4.24493185         0.00000000       0.00000000       0.00000000          1
6
pbc=[F, F, F] list_num_par=6 frozen=false iter=20000 energy=-1.26974174 Lattice="15.00000000 0.00000000 0.00000000 0.00000000 15.00000000 0.00000000 0.00000000 0.00000000 15.00000000" energy_frozen_part=0.00000000 Properties=species:S:1:pos:R:3:velocities:R:3:Z:I:1
H         7.89087633       2.52528778       6.25895578         0.00000000       0.00000000       0.00000000          1
H         5.38991435       3.74796947       6.02548565         0.00000000       0.00000000       0.00000000          1
H         6.24880586       5.06377547       3.71566911         0.00000000       0.00000000       0.00000000          1
H         7.70692675       5.30747723       6.08606894         0.00000000       0.00000000       0.00000000          1
H         6.43276376       2.28158948       3.88855171         0.00000000       0.00000000       0.00000000          1
H         8.74977509       3.84109114       3.94913700         0.00000000       0.00000000       0.00000000          1
