6
pbc=[F, F, F] list_num_par=6 frozen=false iter=20000 energy=-1.26974174 Lattice="15.00000000 0.00000000 0.00000000 0.00000000 15.00000000 0.00000000 0.00000000 0.00000000 15.00000000" energy_frozen_part=0.00000000 Properties=species:S:1:pos:R:3:velocities:R:3:Z:I:1
H         6.88811256       4.03303855       3.98076701         0.00000000       0.00000000       0.00000000          1
H         7.91497906       4.21614513       6.57234986         0.00000000       0.00000000       0.00000000          1
H         9.55490830       3.36502371       4.47699545         0.00000000       0.00000000       0.00000000          1
H         8.73561981       1.54928834       6.43560060         0.00000000       0.00000000       0.00000000          1
H         7.70875541       1.36618312       3.84401971         0.00000000       0.00000000       0.00000000          1
H         6.06882801       2.21730218       5.93938232         0.00000000       0.00000000       0.00000000          1
6
pbc=[F, F, F] list_num_par=6 frozen=false iter=20000 energy=-1.26974174 Lattice="15.00000000 0.00000000 0.00000000 0.00000000 15.00000000 0.00000000 0.00000000 0.00000000 15.00000000" energy_frozen_part=0.00000000 Properties=species:S:1:pos:R:3:velocities:R:3:Z:I:1
H         6.88812502       4.03302214       3.98072414         0.00000000       0.00000000       0.00000000          1
H         7.91495232       4.21616741       6.57231299         0.00000000       0.00000000       0.00000000          1
H         9.55492069       3.36504007       4.47699622         0.00000000       0.00000000       0.00000000          1
H         8.73563173       1.54932170       6.43561971         0.00000000       0.00000000       0.00000000          1
H         7.70880580       1.36617304       3.84402068         0.00000000       0.00000000       0.00000000          1
H         6.06883332       2.21729784       5.93934014         0.00000000       0.00000000       0.00000000          1
6
pbc=[F, F, F] list_num_par=6 frozen=false iter=20000 energy=-1.26974174 Lattice="15.00000000 0.00000000 0.00000000 0.00000000 15.00000000 0.00000000 0.00000000 0.00000000 15.00000000" energy_frozen_part=0.00000000 Properties=species:S:1:pos:R:3:velocities:R:3:Z:I:1
H         6.88814573       4.03307047       3.98075816         0.00000000       0.00000000       0.00000000          1
H         7.91499133       4.21613539       6.57235189         0.00000000       0.00000000       0.00000000          1
H         9.55493140       3.36502928       4.47699451         0.00000000       0.00000000       0.00000000          1
H         8.73562246       1.54927827       6.43558047         0.00000000       0.00000000       0.00000000          1
H         7.70877219       1.36620517       3.84399068         0.00000000       0.00000000       0.00000000          1
H         6.06883004       2.21732046       5.93934257         0.00000000       0.00000000       0.00000000          1
6
pbc=[F, F, F] list_num_par=6 frozen=false iter=20000 energy=-1.26974174 Lattice="15.00000000 0.00000000 0.00000000 0.00000000 15.00000000 0.00000000 0.00000000 0.00000000 15.00000000" energy_frozen_part=0.00000000 Properties=species:S:1:pos:R:3:velocities:R:3:Z:I:1
H         6.99777075       4.81244709       6.28458516         0.00000000       0.00000000       0.00000000          1
H         9.46526702       5.29841195       7.50096304         0.00000000       0.00000000       0.00000000          1
H         9.36538124       4.33036564       4.88233886         0.00000000       0.00000000       0.00000000          1
H        10.25325471       2.67538137       6.95043471         0.00000000       0.00000000       0.00000000          1
H         7.78575748       2.18941969       5.73406120         0.00000000       0.00000000       0.00000000          1
H         7.88564005       3.15747435       8.35268381         0.00000000       0.00000000       0.00000000          1
6
pbc=[F, F, F] list_num_par=6 frozen=false iter=20000 energy=-1.26974174 Lattice="15.00000000 0.00000000 0.00000000 0.00000000 15.00000000 0.00000000 0.00000000 0.00000000 15.00000000" energy_frozen_part=0.00000000 Properties=species:S:1:pos:R:3:velocities:R:3:Z:I:1
H         6.99776349       4.81245446       6.28457119         0.00000000       0.00000000       0.00000000          1
H         9.46525374       5.29841703       7.50097269         0.00000000       0.00000000       0.00000000          1
H         9.36538542       4.33037212       4.88234804         0.00000000       0.00000000       0.00000000          1
H        10.25323782       2.67538472       6.95044374         0.00000000       0.00000000       0.00000000          1
H         7.78574887       2.18942480       5.73404449         0.00000000       0.00000000       0.00000000          1
H         7.88562290       3.15746985       8.35267300         0.00000000       0.00000000       0.00000000          1
6
pbc=[F, F, F] list_num_par=6 frozen=false iter=20000 energy=-1.26974174 Lattice="15.00000000 0.00000000 0.00000000 0.00000000 15.00000000 0.00000000 0.00000000 0.00000000 15.00000000" energy_frozen_part=0.00000000 Properties=species:S:1:pos:R:3:velocities:R:3:Z:I:1
H         6.88746915       4.03263670       3.98075025         0.00000000       0.00000000       0.00000000          1
H         7.91448502       4.21605785       6.57224632         0.00000000       0.00000000       0.00000000          1
H         9.55435804       3.36491225       4.47685842         0.00000000       0.00000000       0.00000000          1
H         8.73536756       1.54926401       6.43568138         0.00000000       0.00000000       0.00000000          1
H         7.70835070       1.36584568       3.84418198         0.00000000       0.00000000       0.00000000          1
H         6.06848136       2.21698808       5.93957332         0.00000000       0.00000000       0.00000000          1
6
pbc=[F, F, F] list_num_par=6 frozen=false iter=20000 energy=-1.26974174 Lattice="15.00000000 0.00000000 0.00000000 0.00000000 15.00000000 0.00000000 0.00000000 0.00000000 15.00000000" energy_frozen_part=0.00000000 Properties=species:S:1:pos:R:3:velocities:R:3:Z:I:1
H         6.99776341       4.81243414       6.28455911         0.00000000       0.00000000       0.00000000          1
H         9.46524834       5.29842024       7.50093885         0.00000000       0.00000000       0.00000000          1
H         9.36538156       4.33037418       4.88231541         0.00000000       0.00000000       0.00000000          1
H        10.25326419       2.67540162       6.95040801         0.00000000       0.00000000       0.00000000          1
H         7.78577605       2.18941065       5.73402396         0.00000000       0.00000000       0.00000000          1
H         7.88564807       3.15745572       8.35265206         0.00000000       0.00000000       0.00000000          1
6
pbc=[F, F, F] list_num_par=6 frozen=false iter=20000 energy=-1.26974174 Lattice="15.00000000 0.00000000 0.00000000 0.00000000 15.00000000 0.00000000 0.00000000 0.00000000 15.00000000" energy_frozen_part=0.00000000 Properties=species:S:1:pos:R:3:velocities:R:3:Z:I:1
H         6.88812419       4.03302287       3.98071928         0.00000000       0.00000000       0.00000000          1
H         7.91495005       4.21617061       6.57231780         0.00000000       0.00000000       0.00000000          1
H         9.55492122       3.36504646       4.47698859         0.00000000       0.00000000       0.00000000          1
H         8.73563494       1.54932356       6.43560619         0.00000000       0.00000000       0.00000000          1
H         7.70880426       1.36617615       3.84401204         0.00000000       0.00000000       0.00000000          1
H         6.06883927       2.21729294       5.93933637         0.00000000       0.00000000       0.00000000          1
6
pbc=[F, F, F] list_num_par=6 frozen=false iter=20000 energy=-1.26974174 Lattice="15.00000000 0.00000000 0.00000000 0.00000000 15.00000000 0.00000000 0.00000000 0.00000000 15.00000000" energy_frozen_part=0.00000000 Properties=species:S:1:pos:R:3:velocities:R:3:Z:I:1
H         6.88812384       4.03301870       3.98071911         0.00000000       0.00000000       0.00000000          1
H         7.91494441       4.21616698       6.57232096         0.00000000       0.00000000       0.00000000          1
H         9.55491856       3.36505018       4.47699477         0.00000000       0.00000000       0.00000000          1
H         8.73562977       1.54932478       6.43561240         0.00000000       0.00000000       0.00000000          1
H         7.70880601       1.36617039       3.84401827         0.00000000       0.00000000       0.00000000          1
H         6.06883351       2.21729145       5.93933774         0.00000000       0.00000000       0.00000000          1
6
pbc=[F, F, F] list_num_par=6 frozen=false iter=20000 energy=-1.26974174 Lattice="15.00000000 0.00000000 0.00000000 0.00000000 15.00000000 0.00000000 0.00000000 0.00000000 15.00000000" energy_frozen_part=0.00000000 Properties=species:S:1:pos:R:3:velocities:R:3:Z:I:1
H         6.99779843       4.81244477       6.28457274         0.00000000       0.00000000       0.00000000          1
H         9.46529790       5.29838677       7.50097092         0.00000000       0.00000000       0.00000000          1
H         9.36541648       4.33032797       4.88235060         0.00000000       0.00000000       0.00000000          1
H        10.25325578       2.67534283       6.95045681         0.00000000       0.00000000       0.00000000          1
H         7.78575504       2.18940241       5.73406355         0.00000000       0.00000000       0.00000000          1
H         7.88563691       3.15746464       8.35268041         0.00000000       0.00000000       0.00000000          1
6
pbc=[F, F, F] list_num_par=6 frozen=false iter=20000 energy=-1.26974174 Lattice="15.00000000 0.00000000 0.00000000 0.00000000 15.00000000 0.00000000 0.00000000 0.00000000 15.00000000" energy_frozen_part=0.00000000 Properties=species:S:1:pos:R:3:velocities:R:3:Z:I:1
H         6.99700190       4.81205988       6.28405631         0.00000000       0.00000000       0.00000000          1
H         9.46402881       5.29893812       7.50103471         0.00000000       0.00000000       0.00000000          1
H         9.36515211       4.32911644       4.88302794         0.00000000       0.00000000       0.00000000          1
H        10.25231552       2.67556625       6.95257088         0.00000000       0.00000000       0.00000000          1
H         7.78528932       2.18868714       5.73560575         0.00000000       0.00000000       0.00000000          1
H         7.88415941       3.15851423       8.35360616         0.00000000       0.00000000       0.00000000          1
6
pbc=[F, F, F] list_num_par=6 frozen=false iter=20000 energy=-1.26974174 Lattice="15.00000000 0.00000000 0.00000000 0.00000000 15.00000000 0.00000000 0.00000000 0.00000000 15.00000000" energy_frozen_part=0.00000000 Properties=species:S:1:pos:R:3:velocities:R:3:Z:I:1
H         6.99777349       4.81244753       6.28458302         0.00000000       0.00000000       0.00000000          1
H         9.46526818       5.29842084       7.50096766         0.00000000       0.00000000       0.00000000          1
H         9.36539423       4.33036275       4.88234805         0.00000000       0.00000000       0.00000000          1
H        10.25325358       2.67538759       6.95044374         0.00000000       0.00000000       0.00000000          1
H         7.78576409       2.18942044       5.73405930         0.00000000       0.00000000       0.00000000          1
H         7.88563625       3.15747628       8.35268408         0.00000000       0.00000000       0.00000000          1
6
pbc=[F, F, F] list_num_par=6 frozen=false iter=20000 energy=-1.26974174 Lattice="15.00000000 0.00000000 0.00000000 0.00000000 15.00000000 0.00000000 0.00000000 0.00000000 15.00000000" energy_frozen_part=0.00000000 Properties=species:S:1:pos:R:3:velocities:R:3:Z:I:1
H         6.99777320       4.81245393       6.28458772         0.00000000       0.00000000       0.00000000          1
H         9.46528171       5.29842185       7.50095372         0.00000000       0.00000000       0.00000000          1
H         9.36537883       4.33036399       4.88233043         0.00000000       0.00000000       0.00000000          1
H        10.25325679       2.67538933       6.95041701         0.00000000       0.00000000       0.00000000          1
H         7.78574854       2.18942311       5.73405859         0.00000000       0.00000000       0.00000000          1
H         7.88565933       3.15747889       8.35268076         0.00000000       0.00000000       0.00000000          1
6
pbc=[F, F, F] list_num_par=6 frozen=false iter=20000 energy=-1.26974174 Lattice="15.00000000 0.00000000 0.00000000 0.00000000 15.00000000 0.00000000 0.00000000 0.00000000 15.00000000" energy_frozen_part=0.00000000 Properties=species:S:1:pos:R:3:velocities:R:3:Z:I:1
H         6.99778986       4.81244407       6.28456991         0.00000000       0.00000000       0.00000000          1
H         9.46528490       5.29840184       7.50095595         0.00000000       0.00000000       0.00000000          1
H         9.36540049       4.33032129       4.88234358         0.00000000       0.00000000       0.00000000          1
H        10.25324985       2.67535845       6.95046016         0.00000000       0.00000000       0.00000000          1
H         7.78575398       2.18939669       5.73407481         0.00000000       0.00000000       0.00000000          1
H         7.88563338       3.15747815       8.35269118         0.00000000       0.00000000       0.00000000          1
6
pbc=[F, F, F] list_num_par=6 frozen=false iter=20000 energy=-1.26974174 Lattice="15.00000000 0.00000000 0.00000000 0.00000000 15.00000000 0.00000000 0.00000000 0.00000000 15.00000000" energy_frozen_part=0.00000000 Properties=species:S:1:pos:R:3:velocities:R:3:Z:I:1
H         6.99777625       4.81245541       6.28457919         0.00000000       0.00000000       0.00000000          1
H         9.46526894       5.29841225       7.50096524         0.00000000       0.00000000       0.00000000          1
H         9.36539542       4.33036165       4.88234464         0.00000000       0.00000000       0.00000000          1
H        10.25324804       2.67537577       6.95044851         0.00000000       0.00000000       0.00000000          1
H         7.78575316       2.18942777       5.73405514         0.00000000       0.00000000       0.00000000          1
H         7.88562819       3.15747241       8.35267772         0.00000000       0.00000000       0.00000000          1
6
pbc=[F, F, F] list_num_par=6 frozen=false iter=20000 energy=-1.26974174 Lattice="15.00000000 0.00000000 0.00000000 0.00000000 15.00000000 0.00000000 0.00000000 0.00000000 15.00000000" energy_frozen_part=0.00000000 Properties=species:S:1:pos:R:3:velocities:R:3:Z:I:1
H         6.99714082       4.81223212       6.28409153         0.00000000       0.00000000       0.00000000          1
H         9.46426760       5.29879454       7.50098240         0.00000000       0.00000000       0.00000000          1
H         9.36518617       4.32905720       4.88295551         0.00000000       0.00000000       0.00000000          1
H        10.25223549       2.67535119       6.95242298         0.00000000       0.00000000       0.00000000          1
H         7.78511027       2.18878437       5.73553650         0.00000000       0.00000000       0.00000000          1
H         7.88418256       3.15852946       8.35356021         0.00000000       0.00000000       0.00000000          1
6
pbc=[F, F, F] list_num_par=6 frozen=false iter=20000 energy=-1.26974174 Lattice="15.00000000 0.00000000 0.00000000 0.00000000 15.00000000 0.00000000 0.00000000 0.00000000 15.00000000" energy_frozen_part=0.00000000 Properties=species:S:1:pos:R:3:velocities:R:3:Z:I:1
H         6.99777479       4.81245019       6.28459320         0.00000000       0.00000000       0.00000000          1
H         9.46527787       5.29840609       7.50096472         0.00000000       0.00000000       0.00000000          1
H         9.36537604       4.33036208       4.88233937         0.00000000       0.00000000       0.00000000          1
H        10.25325446       2.67537650       6.95042432         0.00000000       0.00000000       0.00000000          1
H         7.78574959       2.18941675       5.73405445         0.00000000       0.00000000       0.00000000          1
H         7.88564803       3.15746835       8.35267559         0.00000000       0.00000000       0.00000000          1
6
pbc=[F, F, F] list_num_par=6 frozen=false iter=20000 energy=-1.26974174 Lattice="15.00000000 0.00000000 0.00000000 0.00000000 15.00000000 0.00000000 0.00000000 0.00000000 15.00000000" energy_frozen_part=0.00000000 Properties=species:S:1:pos:R:3:velocities:R:3:Z:I:1
H         6.99777711       4.81245680       6.28458675         0.00000000       0.00000000       0.00000000          1
H         9.46527661       5.29841580       7.50096106         0.00000000       0.00000000       0.00000000          1
H         9.36538815       4.33037130       4.88233671         0.00000000       0.00000000       0.00000000          1
H        10.25325929       2.67538314       6.95042002         0.00000000       0.00000000       0.00000000          1
H         7.78575852       2.18942273       5.73404944         0.00000000       0.00000000       0.00000000          1
H         7.88565273       3.15747206       8.35267390         0.00000000       0.00000000       0.00000000          1
6
pbc=[F, F, F] list_num_par=6 frozen=false iter=20000 energy=-1.26974174 Lattice="15.00000000 0.00000000 0.00000000 0.00000000 15.00000000 0.00000000 0.00000000 0.00000000 15.00000000" energy_frozen_part=0.00000000 Properties=species:S:1:pos:R:3:velocities:R:3:Z:I:1
H         6.88811749       4.03305067       3.98076171         0.00000000       0.00000000       0.00000000          1
H         7.91496635       4.21613488       6.57235148         0.00000000       0.00000000       0.00000000          1
H         9.55491136       3.36504197       4.47699371         0.00000000       0.00000000       0.00000000          1
H         8.73562340       1.54928195       6.43558451         0.00000000       0.00000000       0.00000000          1
H         7.70876749       1.36620062       3.84399620         0.00000000       0.00000000       0.00000000          1
H         6.06883160       2.21729061       5.93935639         0.00000000       0.00000000       0.00000000          1
6
pbc=[F, F, F] list_num_par=6 frozen=false iter=20000 energy=-1.26974174 Lattice="15.00000000 0.00000000 0.00000000 0.00000000 15.00000000 0.00000000 0.00000000 0.00000000 15.00000000" energy_frozen_part=0.00000000 Properties=species:S:1:pos:R:3:velocities:R:3:Z:I:1
H         6.89212796       4.03538290       3.97971877         0.00000000       0.00000000       0.00000000          1
H         7.91826247       4.21542705       6.57180151         0.00000000       0.00000000       0.00000000          1
H         9.55811170       3.36441805       4.47633811         0.00000000       0.00000000       0.00000000          1
H         8.73640682       1.54789992       6.43320351         0.00000000       0.00000000       0.00000000          1
H         7.71027075       1.36785094       3.84111658         0.00000000       0.00000000       0.00000000          1
H         6.07042254       2.21886289       5.93658526         0.00000000       0.00000000       0.00000000          1
6
pbc=[F, F, F] list_num_par=6 frozen=false iter=20000 energy=-1.26974174 Lattice="15.00000000 0.00000000 0.00000000 0.00000000 15.00000000 0.00000000 0.00000000 0.00000000 15.00000000" energy_frozen_part=0.00000000 Properties=species:S:1:pos:R:3:velocities:R:3:Z:I:1
H         6.89196978       4.03551856       3.97981705         0.00000000       0.00000000       0.00000000          1
H         7.91782074       4.21549894       6.57202429         0.00000000       0.00000000       0.00000000          1
H         9.55802401       3.36498468       4.47664261         0.00000000       0.00000000       0.00000000          1
H         8.73644231       1.54812773       6.43325467         0.00000000       0.00000000       0.00000000          1
H         7.71060116       1.36814920       3.84104992         0.00000000       0.00000000       0.00000000          1
H         6.07039144       2.21866912       5.93643588         0.00000000       0.00000000       0.00000000          1
6
pbc=[F, F, F] list_num_par=6 frozen=false iter=20000 energy=-1.26974174 Lattice="15.00000000 0.00000000 0.00000000 0.00000000 15.00000000 0.00000000 0.00000000 0.00000000 15.00000000" energy_frozen_part=0.00000000 Properties=species:S:1:pos:R:3:velocities:R:3:Z:I:1
H         6.88746458       4.03262708       3.98074247         0.00000000       0.00000000       0.00000000          1
H         7.91446719       4.21604699       6.57225441         0.00000000       0.00000000       0.00000000          1
H         9.55435051       3.36490440       4.47687498         0.00000000       0.00000000       0.00000000          1
H         8.73535966       1.54925401       6.43568590         0.00000000       0.00000000       0.00000000          1
H         7.70835262       1.36583466       3.84417718         0.00000000       0.00000000       0.00000000          1
H         6.06847292       2.21698078       5.93956419         0.00000000       0.00000000       0.00000000          1
6
pbc=[F, F, F] list_num_par=6 frozen=false iter=20000 energy=-1.26974174 Lattice="15.00000000 0.00000000 0.00000000 0.00000000 15.00000000 0.00000000 0.00000000 0.00000000 15.00000000" energy_frozen_part=0.00000000 Properties=species:S:1:pos:R:3:velocities:R:3:Z:I:1
H         6.88810704       4.03304551       3.98076628         0.00000000       0.00000000       0.00000000          1
H         7.91497844       4.21614371       6.57235052         0.00000000       0.00000000       0.00000000          1
H         9.55490149       3.36501853       4.47699205         0.00000000       0.00000000       0.00000000          1
H         8.73561694       1.54928900       6.43560527         0.00000000       0.00000000       0.00000000          1
H         7.70874996       1.36618552       3.84401779         0.00000000       0.00000000       0.00000000          1
H         6.06882301       2.21730402       5.93937562         0.00000000       0.00000000       0.00000000          1
6
pbc=[F, F, F] list_num_par=6 frozen=false iter=20000 energy=-1.26974174 Lattice="15.00000000 0.00000000 0.00000000 0.00000000 15.00000000 0.00000000 0.00000000 0.00000000 15.00000000" energy_frozen_part=0.00000000 Properties=species:S:1:pos:R:3:velocities:R:3:Z:I:1
H         6.88813592       4.03306082       3.98074771         0.00000000       0.00000000       0.00000000          1
H         7.91499643       4.21614085       6.57233344         0.00000000       0.00000000       0.00000000          1
H         9.55492837       3.36501569       4.47698025         0.00000000       0.00000000       0.00000000          1
H         8.73561601       1.54928193       6.43557945         0.00000000       0.00000000       0.00000000          1
H         7.70875809       1.36619867       3.84398800         0.00000000       0.00000000       0.00000000          1
H         6.06883040       2.21732211       5.93934392         0.00000000       0.00000000       0.00000000          1
6
pbc=[F, F, F] list_num_par=6 frozen=false iter=20000 energy=-1.26974174 Lattice="15.00000000 0.00000000 0.00000000 0.00000000 15.00000000 0.00000000 0.00000000 0.00000000 15.00000000" energy_frozen_part=0.00000000 Properties=species:S:1:pos:R:3:velocities:R:3:Z:I:1
H         6.88813175       4.03302497       3.98072131         0.00000000       0.00000000       0.00000000          1
H         7.91495985       4.21615054       6.57231589         0.00000000       0.00000000       0.00000000          1
H         9.55493083       3.36504520       4.47698598         0.00000000       0.00000000       0.00000000          1
H         8.73564165       1.54930872       6.43559499         0.00000000       0.00000000       0.00000000          1
H         7.70881140       1.36617925       3.84399675         0.00000000       0.00000000       0.00000000          1
H         6.06884472       2.21727984       5.93933196         0.00000000       0.00000000       0.00000000          1
6
pbc=[F, F, F] list_num_par=6 frozen=false iter=20000 energy=-1.26974174 Lattice="15.00000000 0.00000000 0.00000000 0.00000000 15.00000000 0.00000000 0.00000000 0.00000000 15.00000000" energy_frozen_part=0.00000000 Properties=species:S:1:pos:R:3:velocities:R:3:Z:I:1
H         6.89190248       4.03555416       3.97988794         0.00000000       0.00000000       0.00000000          1
H         7.91778797       4.21540898       6.57208643         0.00000000       0.00000000       0.00000000          1
H         9.55797226       3.36501796       4.47663882         0.00000000       0.00000000       0.00000000          1
H         8.73644406       1.54805286       6.43316831         0.00000000       0.00000000       0.00000000          1
H         7.71057074       1.36819823       3.84096205         0.00000000       0.00000000       0.00000000          1
H         6.07038238       2.21858170       5.93641477         0.00000000       0.00000000       0.00000000          1
6
pbc=[F, F, F] list_num_par=6 frozen=false iter=20000 energy=-1.26974174 Lattice="15.00000000 0.00000000 0.00000000 0.00000000 15.00000000 0.00000000 0.00000000 0.00000000 15.00000000" energy_frozen_part=0.00000000 Properties=species:S:1:pos:R:3:velocities:R:3:Z:I:1
H         6.99699609       4.81206002       6.28402353         0.00000000       0.00000000       0.00000000          1
H         9.46403011       5.29893369       7.50099356         0.00000000       0.00000000       0.00000000          1
H         9.36514451       4.32909610       4.88299217         0.00000000       0.00000000       0.00000000          1
H        10.25229753       2.67555418       6.95254459         0.00000000       0.00000000       0.00000000          1
H         7.78526910       2.18867707       5.73558180         0.00000000       0.00000000       0.00000000          1
H         7.88414652       3.15852607       8.35357920         0.00000000       0.00000000       0.00000000          1
6
pbc=[F, F, F] list_num_par=6 frozen=false iter=20000 energy=-1.26974174 Lattice="15.00000000 0.00000000 0.00000000 0.00000000 15.00000000 0.00000000 0.00000000 0.00000000 15.00000000" energy_frozen_part=0.00000000 Properties=species:S:1:pos:R:3:velocities:R:3:Z:I:1
H         6.88811349       4.03304543       3.98076846         0.00000000       0.00000000       0.00000000          1
H         7.91496862       4.21614381       6.57235945         0.00000000       0.00000000       0.00000000          1
H         9.55490529       3.36502916       4.47700409         0.00000000       0.00000000       0.00000000          1
H         8.73562441       1.54928758       6.43561093         0.00000000       0.00000000       0.00000000          1
H         7.70875874       1.36619095       3.84402753         0.00000000       0.00000000       0.00000000          1
H         6.06882678       2.21730637       5.93937707         0.00000000       0.00000000       0.00000000          1
6
pbc=[F, F, F] list_num_par=6 frozen=false iter=20000 energy=-1.26974174 Lattice="15.00000000 0.00000000 0.00000000 0.00000000 15.00000000 0.00000000 0.00000000 0.00000000 15.00000000" energy_frozen_part=0.00000000 Properties=species:S:1:pos:R:3:velocities:R:3:Z:I:1
H         6.99774149       4.81240433       6.28455746         0.00000000       0.00000000       0.00000000          1
H         9.46522508       5.29837936       7.50096110         0.00000000       0.00000000       0.00000000          1
H         9.36537350       4.33036740       4.88232788         0.00000000       0.00000000       0.00000000          1
H        10.25324874       2.67536979       6.95040307         0.00000000       0.00000000       0.00000000          1
H         7.78577034       2.18939484       5.73399316         0.00000000       0.00000000       0.00000000          1
H         7.88561889       3.15740371       8.35263446         0.00000000       0.00000000       0.00000000          1
6
pbc=[F, F, F] list_num_par=6 frozen=false iter=20000 energy=-1.26974174 Lattice="15.00000000 0.00000000 0.00000000 0.00000000 15.00000000 0.00000000 0.00000000 0.00000000 15.00000000" energy_frozen_part=0.00000000 Properties=species:S:1:pos:R:3:velocities:R:3:Z:I:1
H         6.88812197       4.03304592       3.98075987         0.00000000       0.00000000       0.00000000          1
H         7.91497499       4.21613352       6.57235215         0.00000000       0.00000000       0.00000000          1
H         9.55490823       3.36501798       4.47700404         0.00000000       0.00000000       0.00000000          1
H         8.73561645       1.54927654       6.43560472         0.00000000       0.00000000       0.00000000          1
H         7.70875931       1.36618495       3.84401300         0.00000000       0.00000000       0.00000000          1
H         6.06882803       2.21729933       5.93936426         0.00000000       0.00000000       0.00000000          1
6
pbc=[F, F, F] list_num_par=6 frozen=false iter=20000 energy=-1.26974174 Lattice="15.00000000 0.00000000 0.00000000 0.00000000 15.00000000 0.00000000 0.00000000 0.00000000 15.00000000" energy_frozen_part=0.00000000 Properties=species:S:1:pos:R:3:velocities:R:3:Z:I:1
H         6.89190037       4.03555022       3.97990927         0.00000000       0.00000000       0.00000000          1
H         7.91778622       4.21540114       6.57210774         0.00000000       0.00000000       0.00000000          1
H         9.55796664       3.36502500       4.47664884         0.00000000       0.00000000       0.00000000          1
H         8.73645162       1.54805385       6.43317568         0.00000000       0.00000000       0.00000000          1
H         7.71056131       1.36820082       3.84097929         0.00000000       0.00000000       0.00000000          1
H         6.07037810       2.21858178       5.93644060         0.00000000       0.00000000       0.00000000          1
6
pbc=[F, F, F] list_num_par=6 frozen=false iter=20000 energy=-1.26974174 Lattice="15.00000000 0.00000000 0.00000000 0.00000000 15.00000000 0.00000000 0.00000000 0.00000000 15.00000000" energy_frozen_part=0.00000000 Properties=species:S:1:pos:R:3:velocities:R:3:Z:I:1
H         6.88813293       4.03302847       3.98072200         0.00000000       0.00000000       0.00000000          1
H         7.91496752       4.21615088       6.57232193         0.00000000       0.00000000       0.00000000          1
H         9.55492851       3.36503745       4.47699362         0.00000000       0.00000000       0.00000000          1
H         8.73563372       1.54930381       6.43560661         0.00000000       0.00000000       0.00000000          1
H         7.70880467       1.36617511       3.84401121         0.00000000       0.00000000       0.00000000          1
H         6.06884163       2.21729775       5.93933753         0.00000000       0.00000000       0.00000000          1
6
pbc=[F, F, F] list_num_par=6 frozen=false iter=20000 energy=-1.26974174 Lattice="15.00000000 0.00000000 0.00000000 0.00000000 15.00000000 0.00000000 0.00000000 0.00000000 15.00000000" energy_frozen_part=0.00000000 Properties=species:S:1:pos:R:3:velocities:R:3:Z:I:1
H         6.88751741       4.03269403       3.98077534         0.00000000       0.00000000       0.00000000          1
H         7.91451756       4.21604066       6.57229010         0.00000000       0.00000000       0.00000000          1
H         9.55439015       3.36490462       4.47688770         0.00000000       0.00000000       0.00000000          1
H         8.73535306       1.54923478       6.43566614         0.00000000       0.00000000       0.00000000          1
H         7.70835058       1.36588550       3.84415373         0.00000000       0.00000000       0.00000000          1
H         6.06848010       2.21701794       5.93954850         0.00000000       0.00000000       0.00000000          1
6
pbc=[F, F, F] list_num_par=6 frozen=false iter=20000 energy=-1.26974174 Lattice="15.00000000 0.00000000 0.00000000 0.00000000 15.00000000 0.00000000 0.00000000 0.00000000 15.00000000" energy_frozen_part=0.00000000 Properties=species:S:1:pos:R:3:velocities:R:3:Z:I:1
H         6.88746845       4.03263514       3.98074543         0.00000000       0.00000000       0.00000000          1
H         7.91448123       4.21605708       6.57224838         0.00000000       0.00000000       0.00000000          1
H         9.55435679       3.36490895       4.47685920         0.00000000       0.00000000       0.00000000          1
H         8.73536236       1.54926703       6.43568141         0.00000000       0.00000000       0.00000000          1
H         7.70834870       1.36584127       3.84417676         0.00000000       0.00000000       0.00000000          1
H         6.06847799       2.21698942       5.93955938         0.00000000       0.00000000       0.00000000          1
6
pbc=[F, F, F] list_num_par=6 frozen=false iter=20000 energy=-1.26974174 Lattice="15.00000000 0.00000000 0.00000000 0.00000000 15.00000000 0.00000000 0.00000000 0.00000000 15.00000000" energy_frozen_part=0.00000000 Properties=species:S:1:pos:R:3:velocities:R:3:Z:I:1
H         6.99777059       4.81245935       6.28457713         0.00000000       0.00000000       0.00000000          1
H         9.46526232       5.29841105       7.50096937         0.00000000       0.00000000       0.00000000          1
H         9.36538720       4.33036037       4.88234335         0.00000000       0.00000000       0.00000000          1
H        10.25324500       2.67538110       6.95044878         0.00000000       0.00000000       0.00000000          1
H         7.78575016       2.18942646       5.73405590         0.00000000       0.00000000       0.00000000          1
H         7.88562293       3.15747353       8.35268184         0.00000000       0.00000000       0.00000000          1
6
pbc=[F, F, F] list_num_par=6 frozen=false iter=20000 energy=-1.26974174 Lattice="15.00000000 0.00000000 0.00000000 0.00000000 15.00000000 0.00000000 0.00000000 0.00000000 15.00000000" energy_frozen_part=0.00000000 Properties=species:S:1:pos:R:3:velocities:R:3:Z:I:1
H         6.89186604       4.03558041       3.97995027         0.00000000       0.00000000       0.00000000          1
H         7.91773668       4.21543146       6.57215470         0.00000000       0.00000000       0.00000000          1
H         9.55793030       3.36505408       4.47670015         0.00000000       0.00000000       0.00000000          1
H         8.73641443       1.54808036       6.43322550         0.00000000       0.00000000       0.00000000          1
H         7.71053455       1.36822638       3.84102551         0.00000000       0.00000000       0.00000000          1
H         6.07034564       2.21860625       5.93647872         0.00000000       0.00000000       0.00000000          1
6
pbc=[F, F, F] list_num_par=6 frozen=false iter=20000 energy=-1.26974174 Lattice="15.00000000 0.00000000 0.00000000 0.00000000 15.00000000 0.00000000 0.00000000 0.00000000 15.00000000" energy_frozen_part=0.00000000 Properties=species:S:1:pos:R:3:velocities:R:3:Z:I:1
H         6.88746666       4.03263081       3.98074446         0.00000000       0.00000000       0.00000000          1
H         7.91448305       4.21605398       6.57224400         0.00000000       0.00000000       0.00000000          1
H         9.55435844       3.36490632       4.47685777         0.00000000       0.00000000       0.00000000          1
H         8.73537984       1.54926503       6.43567919         0.00000000       0.00000000       0.00000000          1
H         7.70835754       1.36583623       3.84417922         0.00000000       0.00000000       0.00000000          1
H         6.06848224       2.21698559       5.93956581         0.00000000       0.00000000       0.00000000          1
6
pbc=[F, F, F] list_num_par=6 frozen=false iter=20000 energy=-1.26974174 Lattice="15.00000000 0.00000000 0.00000000 0.00000000 15.00000000 0.00000000 0.00000000 0.00000000 15.00000000" energy_frozen_part=0.00000000 Properties=species:S:1:pos:R:3:velocities:R:3:Z:I:1
H         6.99698752       4.81206224       6.28403815         0.00000000       0.00000000       0.00000000          1
H         9.46402367       5.29894249       7.50099321         0.00000000       0.00000000       0.00000000          1
H         9.36513521       4.32910263       4.88299098         0.00000000       0.00000000       0.00000000          1
H        10.25229810       2.67556318       6.95254235         0.00000000       0.00000000       0.00000000          1
H         7.78526887       2.18868546       5.73558267         0.00000000       0.00000000       0.00000000          1
H         7.88415493       3.15852815       8.35358411         0.00000000       0.00000000       0.00000000          1
6
pbc=[F, F, F] list_num_par=6 frozen=false iter=20000 energy=-1.26974174 Lattice="15.00000000 0.00000000 0.00000000 0.00000000 15.00000000 0.00000000 0.00000000 0.00000000 15.00000000" energy_frozen_part=0.00000000 Properties=species:S:1:pos:R:3:velocities:R:3:Z:I:1
H         6.99701989       4.81206271       6.28402852         0.00000000       0.00000000       0.00000000          1
H         9.46403340       5.29894263       7.50101011         0.00000000       0.00000000       0.00000000          1
H         9.36518005       4.32907822       4.88301920         0.00000000       0.00000000       0.00000000          1
H        10.25231423       2.67555885       6.95258859         0.00000000       0.00000000       0.00000000          1
H         7.78529397       2.18867524       5.73561010         0.00000000       0.00000000       0.00000000          1
H         7.88415416       3.15853556       8.35360168         0.00000000       0.00000000       0.00000000          1
6
pbc=[F, F, F] list_num_par=6 frozen=false iter=20000 energy=-1.26974174 Lattice="15.00000000 0.00000000 0.00000000 0.00000000 15.00000000 0.00000000 0.00000000 0.00000000 15.00000000" energy_frozen_part=0.00000000 Properties=species:S:1:pos:R:3:velocities:R:3:Z:I:1
H         6.88808662       4.03304708       3.98075319         0.00000000       0.00000000       0.00000000          1
H         7.91496137       4.21614928       6.57233885         0.00000000       0.00000000       0.00000000          1
H         9.55488918       3.36505701       4.47697418         0.00000000       0.00000000       0.00000000          1
H         8.73562968       1.54929440       6.43557003         0.00000000       0.00000000       0.00000000          1
H         7.70875878       1.36620189       3.84399112         0.00000000       0.00000000       0.00000000          1
H         6.06882821       2.21729458       5.93935851         0.00000000       0.00000000       0.00000000          1
6
pbc=[F, F, F] list_num_par=6 frozen=false iter=20000 energy=-1.26974174 Lattice="15.00000000 0.00000000 0.00000000 0.00000000 15.00000000 0.00000000 0.00000000 0.00000000 15.00000000" energy_frozen_part=0.00000000 Properties=species:S:1:pos:R:3:velocities:R:3:Z:I:1
H         6.88813368       4.03303725       3.98072894         0.00000000       0.00000000       0.00000000          1
H         7.91496368       4.21616246       6.57232901         0.00000000       0.00000000       0.00000000          1
H         9.55493139       3.36504849       4.47699933         0.00000000       0.00000000       0.00000000          1
H         8.73563428       1.54931349       6.43560366         0.00000000       0.00000000       0.00000000          1
H         7.70880714       1.36619094       3.84401228         0.00000000       0.00000000       0.00000000          1
H         6.06883977       2.21730713       5.93934168         0.00000000       0.00000000       0.00000000          1
6
pbc=[F, F, F] list_num_par=6 frozen=false iter=20000 energy=-1.26974174 Lattice="15.00000000 0.00000000 0.00000000 0.00000000 15.00000000 0.00000000 0.00000000 0.00000000 15.00000000" energy_frozen_part=0.00000000 Properties=species:S:1:pos:R:3:velocities:R:3:Z:I:1
H         6.88747033       4.03261832       3.98074327         0.00000000       0.00000000       0.00000000          1
H         7.91448939       4.21604583       6.57224085         0.00000000       0.00000000       0.00000000          1
H         9.55436141       3.36490523       4.47685459         0.00000000       0.00000000       0.00000000          1
H         8.73538007       1.54925832       6.43567739         0.00000000       0.00000000       0.00000000          1
H         7.70836905       1.36582557       3.84418084         0.00000000       0.00000000       0.00000000          1
H         6.06849065       2.21697259       5.93956649         0.00000000       0.00000000       0.00000000          1
6
pbc=[F, F, F] list_num_par=6 frozen=false iter=20000 energy=-1.26974174 Lattice="15.00000000 0.00000000 0.00000000 0.00000000 15.00000000 0.00000000 0.00000000 0.00000000 15.00000000" energy_frozen_part=0.00000000 Properties=species:S:1:pos:R:3:velocities:R:3:Z:I:1
H         6.99714377       4.81220809       6.28408568         0.00000000       0.00000000       0.00000000          1
H         9.46426282       5.29880515       7.50097369         0.00000000       0.00000000       0.00000000          1
H         9.36519639       4.32903831       4.88295644         0.00000000       0.00000000       0.00000000          1
H        10.25225758       2.67535545       6.95243958         0.00000000       0.00000000       0.00000000          1
H         7.78513381       2.18876584       5.73554977         0.00000000       0.00000000       0.00000000          1
H         7.88420279       3.15852851       8.35356468         0.00000000       0.00000000       0.00000000          1
6
pbc=[F, F, F] list_num_par=6 frozen=false iter=20000 energy=-1.26974174 Lattice="15.00000000 0.00000000 0.00000000 0.00000000 15.00000000 0.00000000 0.00000000 0.00000000 15.00000000" energy_frozen_part=0.00000000 Properties=species:S:1:pos:R:3:velocities:R:3:Z:I:1
H         6.88813737       4.03305896       3.98074401         0.00000000       0.00000000       0.00000000          1
H         7.91498378       4.21615062       6.57233269         0.00000000       0.00000000       0.00000000          1
H         9.55492709       3.36502488       4.47698811         0.00000000       0.00000000       0.00000000          1
H         8.73560997       1.54928486       6.43558500         0.00000000       0.00000000       0.00000000          1
H         7.70876392       1.36620229       3.84399051         0.00000000       0.00000000       0.00000000          1
H         6.06882297       2.21732357       5.93934040         0.00000000       0.00000000       0.00000000          1
6
pbc=[F, F, F] list_num_par=6 frozen=false iter=20000 energy=-1.26974174 Lattice="15.00000000 0.00000000 0.00000000 0.00000000 15.00000000 0.00000000 0.00000000 0.00000000 15.00000000" energy_frozen_part=0.00000000 Properties=species:S:1:pos:R:3:velocities:R:3:Z:I:1
H         6.88746386       4.03262918       3.98074524         0.00000000       0.00000000       0.00000000          1
H         7.91449167       4.21605361       6.57224519         0.00000000       0.00000000       0.00000000          1
H         9.55435670       3.36490814       4.47685688         0.00000000       0.00000000       0.00000000          1
H         8.73537702       1.54925817       6.43568144         0.00000000       0.00000000       0.00000000          1
H         7.70835640       1.36584074       3.84418004         0.00000000       0.00000000       0.00000000          1
H         6.06849005       2.21698229       5.93957251         0.00000000       0.00000000       0.00000000          1
6
pbc=[F, F, F] list_num_par=6 frozen=false iter=20000 energy=-1.26974174 Lattice="15.00000000 0.00000000 0.00000000 0.00000000 15.00000000 0.00000000 0.00000000 0.00000000 15.00000000" energy_frozen_part=0.00000000 Properties=species:S:1:pos:R:3:velocities:R:3:Z:I:1
H         6.99778933       4.81244795       6.28457281         0.00000000       0.00000000       0.00000000          1
H         9.46528565       5.29839345       7.50096170         0.00000000       0.00000000       0.00000000          1
H         9.36540676       4.33032900       4.88234472         0.00000000       0.00000000       0.00000000          1
H        10.25325089       2.67535118       6.95045973         0.00000000       0.00000000       0.00000000          1
H         7.78575821       2.18940429       5.73407097         0.00000000       0.00000000       0.00000000          1
H         7.88563507       3.15747169       8.35268496         0.00000000       0.00000000       0.00000000          1
6
pbc=[F, F, F] list_num_par=6 frozen=false iter=20000 energy=-1.26974174 Lattice="15.00000000 0.00000000 0.00000000 0.00000000 15.00000000 0.00000000 0.00000000 0.00000000 15.00000000" energy_frozen_part=0.00000000 Properties=species:S:1:pos:R:3:velocities:R:3:Z:I:1
H         6.99780205       4.81244742       6.28457318         0.00000000       0.00000000       0.00000000          1
H         9.46529340       5.29838298       7.50097471         0.00000000       0.00000000       0.00000000          1
H         9.36542032       4.33032809       4.88235740         0.00000000       0.00000000       0.00000000          1
H        10.25324509       2.67533789       6.95046686         0.00000000       0.00000000       0.00000000          1
H         7.78575782       2.18940821       5.73406061         0.00000000       0.00000000       0.00000000          1
H         7.88562165       3.15746548       8.35268391         0.00000000       0.00000000       0.00000000          1
6
pbc=[F, F, F] list_num_par=6 frozen=false iter=20000 energy=-1.26974174 Lattice="15.00000000 0.00000000 0.00000000 0.00000000 15.00000000 0.00000000 0.00000000 0.00000000 15.00000000" energy_frozen_part=0.00000000 Properties=species:S:1:pos:R:3:velocities:R:3:Z:I:1
H         6.88751341       4.03268187       3.98077533         0.00000000       0.00000000       0.00000000          1
H         7.91450992       4.21604113       6.57229134         0.00000000       0.00000000       0.00000000          1
H         9.55438532       3.36490427       4.47690174         0.00000000       0.00000000       0.00000000          1
H         8.73534754       1.54923696       6.43568573         0.00000000       0.00000000       0.00000000          1
H         7.70834587       1.36587818       3.84417415         0.00000000       0.00000000       0.00000000          1
H         6.06847529       2.21702261       5.93955849         0.00000000       0.00000000       0.00000000          1
6
pbc=[F, F, F] list_num_par=6 frozen=false iter=20000 energy=-1.26974174 Lattice="15.00000000 0.00000000 0.00000000 0.00000000 15.00000000 0.00000000 0.00000000 0.00000000 15.00000000" energy_frozen_part=0.00000000 Properties=species:S:1:pos:R:3:velocities:R:3:Z:I:1
H         6.99700437       4.81207736       6.28403730         0.00000000       0.00000000       0.00000000          1
H         9.46403391       5.29893640       7.50101019         0.00000000       0.00000000       0.00000000          1
H         9.36515457       4.32911109       4.88300974         0.00000000       0.00000000       0.00000000          1
H        10.25230368       2.67555826       6.95256077         0.00000000       0.00000000       0.00000000          1
H         7.78527561       2.18869650       5.73559319         0.00000000       0.00000000       0.00000000          1
H         7.88415091       3.15853081       8.35359326         0.00000000       0.00000000       0.00000000          1
6
pbc=[F, F, F] list_num_par=6 frozen=false iter=20000 energy=-1.26974174 Lattice="15.00000000 0.00000000 0.00000000 0.00000000 15.00000000 0.00000000 0.00000000 0.00000000 15.00000000" energy_frozen_part=0.00000000 Properties=species:S:1:pos:R:3:velocities:R:3:Z:I:1
H         6.99699753       4.81206728       6.28402645         0.00000000       0.00000000       0.00000000          1
H         9.46402071       5.29893896       7.50100114         0.00000000       0.00000000       0.00000000          1
H         9.36515058       4.32910152       4.88299936         0.00000000       0.00000000       0.00000000          1
H        10.25229832       2.67555654       6.95255051         0.00000000       0.00000000       0.00000000          1
H         7.78527191       2.18868391       5.73558231         0.00000000       0.00000000       0.00000000          1
H         7.88414769       3.15852190       8.35358258         0.00000000       0.00000000       0.00000000          1
6
pbc=[F, F, F] list_num_par=6 frozen=false iter=20000 energy=-1.26974174 Lattice="15.00000000 0.00000000 0.00000000 0.00000000 15.00000000 0.00000000 0.00000000 0.00000000 15.00000000" energy_frozen_part=0.00000000 Properties=species:S:1:pos:R:3:velocities:R:3:Z:I:1
H         6.99777057       4.81244497       6.28458539         0.00000000       0.00000000       0.00000000          1
H         9.46527470       5.29841824       7.50094980         0.00000000       0.00000000       0.00000000          1
H         9.36537651       4.33035711       4.88232984         0.00000000       0.00000000       0.00000000          1
H        10.25325383       2.67538474       6.95043040         0.00000000       0.00000000       0.00000000          1
H         7.78575555       2.18941813       5.73406145         0.00000000       0.00000000       0.00000000          1
H         7.88565126       3.15747332       8.35268589         0.00000000       0.00000000       0.00000000          1
6
pbc=[F, F, F] list_num_par=6 frozen=false iter=20000 energy=-1.26974174 Lattice="15.00000000 0.00000000 0.00000000 0.00000000 15.00000000 0.00000000 0.00000000 0.00000000 15.00000000" energy_frozen_part=0.00000000 Properties=species:S:1:pos:R:3:velocities:R:3:Z:I:1
H         6.88812943       4.03302800       3.98072850         0.00000000       0.00000000       0.00000000          1
H         7.91496391       4.21615744       6.57232433         0.00000000       0.00000000       0.00000000          1
H         9.55492356       3.36504838       4.47698963         0.00000000       0.00000000       0.00000000          1
H         8.73563803       1.54930513       6.43560356         0.00000000       0.00000000       0.00000000          1
H         7.70880290       1.36617997       3.84401152         0.00000000       0.00000000       0.00000000          1
H         6.06884167       2.21729776       5.93934206         0.00000000       0.00000000       0.00000000          1
6
pbc=[F, F, F] list_num_par=6 frozen=false iter=20000 energy=-1.26974174 Lattice="15.00000000 0.00000000 0.00000000 0.00000000 15.00000000 0.00000000 0.00000000 0.00000000 15.00000000" energy_frozen_part=0.00000000 Properties=species:S:1:pos:R:3:velocities:R:3:Z:I:1
H         6.88750828       4.03269046       3.98077890         0.00000000       0.00000000       0.00000000          1
H         7.91451245       4.21604600       6.57228683         0.00000000       0.00000000       0.00000000          1
H         9.55437695       3.36490383       4.47689488         0.00000000       0.00000000       0.00000000          1
H         8.73534228       1.54924204       6.43567839         0.00000000       0.00000000       0.00000000          1
H         7.70834008       1.36588076       3.84416569         0.00000000       0.00000000       0.00000000          1
H         6.06847051       2.21702472       5.93956155         0.00000000       0.00000000       0.00000000          1
6
pbc=[F, F, F] list_num_par=6 frozen=false iter=20000 energy=-1.26974174 Lattice="15.00000000 0.00000000 0.00000000 0.00000000 15.00000000 0.00000000 0.00000000 0.00000000 15.00000000" energy_frozen_part=0.00000000 Properties=species:S:1:pos:R:3:velocities:R:3:Z:I:1
H         6.88810663       4.03304136       3.98076208         0.00000000       0.00000000       0.00000000          1
H         7.91496703       4.21613721       6.57234886         0.00000000       0.00000000       0.00000000          1
H         9.55489993       3.36502359       4.47699188         0.00000000       0.00000000       0.00000000          1
H         8.73560823       1.54928173       6.43560009         0.00000000       0.00000000       0.00000000          1
H         7.70874864       1.36618935       3.84401261         0.00000000       0.00000000       0.00000000          1
H         6.06881352       2.21730676       5.93936912         0.00000000       0.00000000       0.00000000          1
6
pbc=[F, F, F] list_num_par=6 frozen=false iter=20000 energy=-1.26974174 Lattice="15.00000000 0.00000000 0.00000000 0.00000000 15.00000000 0.00000000 0.00000000 0.00000000 15.00000000" energy_frozen_part=0.00000000 Properties=species:S:1:pos:R:3:velocities:R:3:Z:I:1
H         6.88746768       4.03262284       3.98074454         0.00000000       0.00000000       0.00000000          1
H         7.91447827       4.21604172       6.57224643         0.00000000       0.00000000       0.00000000          1
H         9.55435675       3.36490303       4.47686053         0.00000000       0.00000000       0.00000000          1
H         8.73537442       1.54925724       6.43567837         0.00000000       0.00000000       0.00000000          1
H         7.70835734       1.36583590       3.84417870         0.00000000       0.00000000       0.00000000          1
H         6.06848003       2.21697671       5.93956401         0.00000000       0.00000000       0.00000000          1
6
pbc=[F, F, F] list_num_par=6 frozen=false iter=20000 energy=-1.26974174 Lattice="15.00000000 0.00000000 0.00000000 0.00000000 15.00000000 0.00000000 0.00000000 0.00000000 15.00000000" energy_frozen_part=0.00000000 Properties=species:S:1:pos:R:3:velocities:R:3:Z:I:1
H         6.99699429       4.81205489       6.28403270         0.00000000       0.00000000       0.00000000          1
H         9.46402114       5.29893909       7.50100003         0.00000000       0.00000000       0.00000000          1
H         9.36514779       4.32910174       4.88299749         0.00000000       0.00000000       0.00000000          1
H        10.25230685       2.67556515       6.95254806         0.00000000       0.00000000       0.00000000          1
H         7.78527275       2.18868505       5.73558325         0.00000000       0.00000000       0.00000000          1
H         7.88415396       3.15851883       8.35358544         0.00000000       0.00000000       0.00000000          1
6
pbc=[F, F, F] list_num_par=6 frozen=false iter=20000 energy=-1.26974174 Lattice="15.00000000 0.00000000 0.00000000 0.00000000 15.00000000 0.00000000 0.00000000 0.00000000 15.00000000" energy_frozen_part=0.00000000 Properties=species:S:1:pos:R:3:velocities:R:3:Z:I:1
H         6.99777475       4.81246581       6.28458299         0.00000000       0.00000000       0.00000000          1
H         9.46527140       5.29840740       7.50097575         0.00000000       0.00000000       0.00000000          1
H         9.36538569       4.33037197       4.88234844         0.00000000       0.00000000       0.00000000          1
H        10.25323731       2.67538004       6.95043710         0.00000000       0.00000000       0.00000000          1
H         7.78574122       2.18943339       5.73404662         0.00000000       0.00000000       0.00000000          1
H         7.88562306       3.15746745       8.35267162         0.00000000       0.00000000       0.00000000          1
6
pbc=[F, F, F] list_num_par=6 frozen=false iter=20000 energy=-1.26974174 Lattice="15.00000000 0.00000000 0.00000000 0.00000000 15.00000000 0.00000000 0.00000000 0.00000000 15.00000000" energy_frozen_part=0.00000000 Properties=species:S:1:pos:R:3:velocities:R:3:Z:I:1
H         6.99776444       4.81244624       6.28458416         0.00000000       0.00000000       0.00000000          1
H         9.46527039       5.29842090       7.50095338         0.00000000       0.00000000       0.00000000          1
H         9.36536885       4.33035431       4.88233598         0.00000000       0.00000000       0.00000000          1
H        10.25325528       2.67538777       6.95042951         0.00000000       0.00000000       0.00000000          1
H         7.78574814       2.18941288       5.73407080         0.00000000       0.00000000       0.00000000          1
H         7.88565014       3.15748151       8.35268892         0.00000000       0.00000000       0.00000000          1
6
pbc=[F, F, F] list_num_par=6 frozen=false iter=20000 energy=-1.26974174 Lattice="15.00000000 0.00000000 0.00000000 0.00000000 15.00000000 0.00000000 0.00000000 0.00000000 15.00000000" energy_frozen_part=0.00000000 Properties=species:S:1:pos:R:3:velocities:R:3:Z:I:1
H         6.89190772       4.03555297       3.97987782         0.00000000       0.00000000       0.00000000          1
H         7.91778224       4.21540909       6.57208590         0.00000000       0.00000000       0.00000000          1
H         9.55796975       3.36501290       4.47663143         0.00000000       0.00000000       0.00000000          1
H         8.73643646       1.54805077       6.43316570         0.00000000       0.00000000       0.00000000          1
H         7.71055833       1.36819331       3.84096464         0.00000000       0.00000000       0.00000000          1
H         6.07037450       2.21858948       5.93641324         0.00000000       0.00000000       0.00000000          1
6
pbc=[F, F, F] list_num_par=6 frozen=false iter=20000 energy=-1.26974174 Lattice="15.00000000 0.00000000 0.00000000 0.00000000 15.00000000 0.00000000 0.00000000 0.00000000 15.00000000" energy_frozen_part=0.00000000 Properties=species:S:1:pos:R:3:velocities:R:3:Z:I:1
H         6.89189448       4.03555734       3.97992329         0.00000000       0.00000000       0.00000000          1
H         7.91778930       4.21540130       6.57211549         0.00000000       0.00000000       0.00000000          1
H         9.55796526       3.36502274       4.47665263         0.00000000       0.00000000       0.00000000          1
H         8.73646072       1.54804706       6.43318176         0.00000000       0.00000000       0.00000000          1
H         7.71056333       1.36820386       3.84098187         0.00000000       0.00000000       0.00000000          1
H         6.07038715       2.21857539       5.93644646         0.00000000       0.00000000       0.00000000          1
6
pbc=[F, F, F] list_num_par=6 frozen=false iter=20000 energy=-1.26974174 Lattice="15.00000000 0.00000000 0.00000000 0.00000000 15.00000000 0.00000000 0.00000000 0.00000000 15.00000000" energy_frozen_part=0.00000000 Properties=species:S:1:pos:R:3:velocities:R:3:Z:I:1
H         6.99712769       4.81220974       6.28406927         0.00000000       0.00000000       0.00000000          1
H         9.46425085       5.29880070       7.50095295         0.00000000       0.00000000       0.00000000          1
H         9.36517146       4.32903779       4.88293500         0.00000000       0.00000000       0.00000000          1
H        10.25223403       2.67535911       6.95241594         0.00000000       0.00000000       0.00000000          1
H         7.78511082       2.18876374       5.73552767         0.00000000       0.00000000       0.00000000          1
H         7.88419058       3.15852845       8.35354709         0.00000000       0.00000000       0.00000000          1
6
pbc=[F, F, F] list_num_par=6 frozen=false iter=20000 energy=-1.26974174 Lattice="15.00000000 0.00000000 0.00000000 0.00000000 15.00000000 0.00000000 0.00000000 0.00000000 15.00000000" energy_frozen_part=0.00000000 Properties=species:S:1:pos:R:3:velocities:R:3:Z:I:1
H         6.99715370       4.81220874       6.28407944         0.00000000       0.00000000       0.00000000          1
H         9.46426599       5.29880719       7.50097670         0.00000000       0.00000000       0.00000000          1
H         9.36521072       4.32903070       4.88295804         0.00000000       0.00000000       0.00000000          1
H        10.25225701       2.67536269       6.95245028         0.00000000       0.00000000       0.00000000          1
H         7.78514286       2.18875958       5.73555008         0.00000000       0.00000000       0.00000000          1
H         7.88419804       3.15853698       8.35357082         0.00000000       0.00000000       0.00000000          1
6
pbc=[F, F, F] list_num_par=6 frozen=false iter=20000 energy=-1.26974174 Lattice="15.00000000 0.00000000 0.00000000 0.00000000 15.00000000 0.00000000 0.00000000 0.00000000 15.00000000" energy_frozen_part=0.00000000 Properties=species:S:1:pos:R:3:velocities:R:3:Z:I:1
H         6.88747394       4.03262532       3.98074756         0.00000000       0.00000000       0.00000000          1
H         7.91448495       4.21605311       6.57224824         0.00000000       0.00000000       0.00000000          1
H         9.55435812       3.36489044       4.47686645         0.00000000       0.00000000       0.00000000          1
H         8.73536579       1.54925725       6.43568992         0.00000000       0.00000000       0.00000000          1
H         7.70835149       1.36583016       3.84418977         0.00000000       0.00000000       0.00000000          1
H         6.06848087       2.21698726       5.93957807         0.00000000       0.00000000       0.00000000          1
6
pbc=[F, F, F] list_num_par=6 frozen=false iter=20000 energy=-1.26974174 Lattice="15.00000000 0.00000000 0.00000000 0.00000000 15.00000000 0.00000000 0.00000000 0.00000000 15.00000000" energy_frozen_part=0.00000000 Properties=species:S:1:pos:R:3:velocities:R:3:Z:I:1
H         6.99775743       4.81243055       6.28455286         0.00000000       0.00000000       0.00000000          1
H         9.46523668       5.29841430       7.50094934         0.00000000       0.00000000       0.00000000          1
H         9.36538474       4.33037347       4.88232309         0.00000000       0.00000000       0.00000000          1
H        10.25325544       2.67539554       6.95041920         0.00000000       0.00000000       0.00000000          1
H         7.78577407       2.18941295       5.73402433         0.00000000       0.00000000       0.00000000          1
H         7.88562291       3.15745368       8.35264964         0.00000000       0.00000000       0.00000000          1
6
pbc=[F, F, F] list_num_par=6 frozen=false iter=20000 energy=-1.26974174 Lattice="15.00000000 0.00000000 0.00000000 0.00000000 15.00000000 0.00000000 0.00000000 0.00000000 15.00000000" energy_frozen_part=0.00000000 Properties=species:S:1:pos:R:3:velocities:R:3:Z:I:1
H         6.89185595       4.03553907       3.97992499         0.00000000       0.00000000       0.00000000          1
H         7.91774032       4.21540925       6.57212522         0.00000000       0.00000000       0.00000000          1
H         9.55792895       3.36504559       4.47666256         0.00000000       0.00000000       0.00000000          1
H         8.73644008       1.54806572       6.43319358         0.00000000       0.00000000       0.00000000          1
H         7.71054791       1.36819837       3.84099569         0.00000000       0.00000000       0.00000000          1
H         6.07036434       2.21856292       5.93646067         0.00000000       0.00000000       0.00000000          1
6
pbc=[F, F, F] list_num_par=6 frozen=false iter=20000 energy=-1.26974174 Lattice="15.00000000 0.00000000 0.00000000 0.00000000 15.00000000 0.00000000 0.00000000 0.00000000 15.00000000" energy_frozen_part=0.00000000 Properties=species:S:1:pos:R:3:velocities:R:3:Z:I:1
H         6.89185580       4.03557100       3.97995339         0.00000000       0.00000000       0.00000000          1
H         7.91773910       4.21543085       6.57215409         0.00000000       0.00000000       0.00000000          1
H         9.55792470       3.36504912       4.47669704         0.00000000       0.00000000       0.00000000          1
H         8.73641029       1.54808306       6.43323209         0.00000000       0.00000000       0.00000000          1
H         7.71052788       1.36821731       3.84102937         0.00000000       0.00000000       0.00000000          1
H         6.07034090       2.21860670       5.93648306         0.00000000       0.00000000       0.00000000          1
6
pbc=[F, F, F] list_num_par=6 frozen=false iter=20000 energy=-1.26974174 Lattice="15.00000000 0.00000000 0.00000000 0.00000000 15.00000000 0.00000000 0.00000000 0.00000000 15.00000000" energy_frozen_part=0.00000000 Properties=species:S:1:pos:R:3:velocities:R:3:Z:I:1
H         6.99775805       4.81242533       6.28455660         0.00000000       0.00000000       0.00000000          1
H         9.46524061       5.29841841       7.50094160         0.00000000       0.00000000       0.00000000          1
H         9.36537628       4.33037078       4.88231519         0.00000000       0.00000000       0.00000000          1
H        10.25325763       2.67539943       6.95041035         0.00000000       0.00000000       0.00000000          1
H         7.78576860       2.18940531       5.73402903         0.00000000       0.00000000       0.00000000          1
H         7.88564220       3.15745304       8.35265543         0.00000000       0.00000000       0.00000000          1
6
pbc=[F, F, F] list_num_par=6 frozen=false iter=20000 energy=-1.26974174 Lattice="15.00000000 0.00000000 0.00000000 0.00000000 15.00000000 0.00000000 0.00000000 0.00000000 15.00000000" energy_frozen_part=0.00000000 Properties=species:S:1:pos:R:3:velocities:R:3:Z:I:1
H         6.88751492       4.03269798       3.98077084         0.00000000       0.00000000       0.00000000          1
H         7.91450289       4.21605540       6.57228428         0.00000000       0.00000000       0.00000000          1
H         9.55438326       3.36490676       4.47690568         0.00000000       0.00000000       0.00000000          1
H         8.73533315       1.54924999       6.43567989         0.00000000       0.00000000       0.00000000          1
H         7.70834454       1.36588914       3.84416385         0.00000000       0.00000000       0.00000000          1
H         6.06846532       2.21703274       5.93954905         0.00000000       0.00000000       0.00000000          1
6
pbc=[F, F, F] list_num_par=6 frozen=false iter=20000 energy=-1.26974174 Lattice="15.00000000 0.00000000 0.00000000 0.00000000 15.00000000 0.00000000 0.00000000 0.00000000 15.00000000" energy_frozen_part=0.00000000 Properties=species:S:1:pos:R:3:velocities:R:3:Z:I:1
H         6.99714856       4.81221866       6.28408277         0.00000000       0.00000000       0.00000000          1
H         9.46426747       5.29879658       7.50098537         0.00000000       0.00000000       0.00000000          1
H         9.36520090       4.32903681       4.88296099         0.00000000       0.00000000       0.00000000          1
H        10.25225120       2.67535035       6.95244554         0.00000000       0.00000000       0.00000000          1
H         7.78513182       2.18877012       5.73554273         0.00000000       0.00000000       0.00000000          1
H         7.88419107       3.15853246       8.35356383         0.00000000       0.00000000       0.00000000          1
6
pbc=[F, F, F] list_num_par=6 frozen=false iter=20000 energy=-1.26974174 Lattice="15.00000000 0.00000000 0.00000000 0.00000000 15.00000000 0.00000000 0.00000000 0.00000000 15.00000000" energy_frozen_part=0.00000000 Properties=species:S:1:pos:R:3:velocities:R:3:Z:I:1
H         6.88814015       4.03307258       3.98074132         0.00000000       0.00000000       0.00000000          1
H         7.91498483       4.21615119       6.57232951         0.00000000       0.00000000       0.00000000          1
H         9.55492834       3.36503670       4.47698367         0.00000000       0.00000000       0.00000000          1
H         8.73561306       1.54929254       6.43557762         0.00000000       0.00000000       0.00000000          1
H         7.70876707       1.36621298       3.84398846         0.00000000       0.00000000       0.00000000          1
H         6.06882466       2.21733079       5.93933902         0.00000000       0.00000000       0.00000000          1
6
pbc=[F, F, F] list_num_par=6 frozen=false iter=20000 energy=-1.26974174 Lattice="15.00000000 0.00000000 0.00000000 0.00000000 15.00000000 0.00000000 0.00000000 0.00000000 15.00000000" energy_frozen_part=0.00000000 Properties=species:S:1:pos:R:3:velocities:R:3:Z:I:1
H         6.88746674       4.03262532       3.98075305         0.00000000       0.00000000       0.00000000          1
H         7.91448288       4.21604408       6.57225549         0.00000000       0.00000000       0.00000000          1
H         9.55435454       3.36490499       4.47686753         0.00000000       0.00000000       0.00000000          1
H         8.73537180       1.54925360       6.43568207         0.00000000       0.00000000       0.00000000          1
H         7.70835358       1.36583530       3.84417793         0.00000000       0.00000000       0.00000000          1
H         6.06847951       2.21697275       5.93956358         0.00000000       0.00000000       0.00000000          1
6
pbc=[F, F, F] list_num_par=6 frozen=false iter=20000 energy=-1.26974174 Lattice="15.00000000 0.00000000 0.00000000 0.00000000 15.00000000 0.00000000 0.00000000 0.00000000 15.00000000" energy_frozen_part=0.00000000 Properties=species:S:1:pos:R:3:velocities:R:3:Z:I:1
H         6.99777696       4.81230540       6.28455673         0.00000000       0.00000000       0.00000000          1
H         9.46522044       5.29843950       7.50098270         0.00000000       0.00000000       0.00000000          1
H         9.36544393       4.33038533       4.88235133         0.00000000       0.00000000       0.00000000          1
H        10.25338609       2.67546124       6.95045604         0.00000000       0.00000000       0.00000000          1
H         7.78594210       2.18933335       5.73403615         0.00000000       0.00000000       0.00000000          1
H         7.88571974       3.15738531       8.35266513         0.00000000       0.00000000       0.00000000          1
6
pbc=[F, F, F] list_num_par=6 frozen=false iter=20000 energy=-1.26974174 Lattice="15.00000000 0.00000000 0.00000000 0.00000000 15.00000000 0.00000000 0.00000000 0.00000000 15.00000000" energy_frozen_part=0.00000000 Properties=species:S:1:pos:R:3:velocities:R:3:Z:I:1
H         6.88746817       4.03262126       3.98074473         0.00000000       0.00000000       0.00000000          1
H         7.91447965       4.21604800       6.57225033         0.00000000       0.00000000       0.00000000          1
H         9.55435747       3.36490487       4.47686970         0.00000000       0.00000000       0.00000000          1
H         8.73536734       1.54925003       6.43568067         0.00000000       0.00000000       0.00000000          1
H         7.70836212       1.36583360       3.84417697         0.00000000       0.00000000       0.00000000          1
H         6.06848200       2.21697781       5.93956188         0.00000000       0.00000000       0.00000000          1
6
pbc=[F, F, F] list_num_par=6 frozen=false iter=20000 energy=-1.26974174 Lattice="15.00000000 0.00000000 0.00000000 0.00000000 15.00000000 0.00000000 0.00000000 0.00000000 15.00000000" energy_frozen_part=0.00000000 Properties=species:S:1:pos:R:3:velocities:R:3:Z:I:1
H         6.99713663       4.81219841       6.28405241         0.00000000       0.00000000       0.00000000          1
H         9.46424810       5.29882501       7.50096048         0.00000000       0.00000000       0.00000000          1
H         9.36520808       4.32902219       4.88295300         0.00000000       0.00000000       0.00000000          1
H        10.25225176       2.67537159       6.95245968         0.00000000       0.00000000       0.00000000          1
H         7.78514149       2.18875386       5.73555372         0.00000000       0.00000000       0.00000000          1
H         7.88418939       3.15855275       8.35356319         0.00000000       0.00000000       0.00000000          1
6
pbc=[F, F, F] list_num_par=6 frozen=false iter=20000 energy=-1.26974174 Lattice="15.00000000 0.00000000 0.00000000 0.00000000 15.00000000 0.00000000 0.00000000 0.00000000 15.00000000" energy_frozen_part=0.00000000 Properties=species:S:1:pos:R:3:velocities:R:3:Z:I:1
H         6.89192148       4.03556192       3.97988116         0.00000000       0.00000000       0.00000000          1
H         7.91779439       4.21541465       6.57208503         0.00000000       0.00000000       0.00000000          1
H         9.55797508       3.36500821       4.47663667         0.00000000       0.00000000       0.00000000          1
H         8.73643559       1.54805544       6.43317120         0.00000000       0.00000000       0.00000000          1
H         7.71056096       1.36819978       3.84096732         0.00000000       0.00000000       0.00000000          1
H         6.07037579       2.21860515       5.93640797         0.00000000       0.00000000       0.00000000          1
6
pbc=[F, F, F] list_num_par=6 frozen=false iter=20000 energy=-1.26974174 Lattice="15.00000000 0.00000000 0.00000000 0.00000000 15.00000000 0.00000000 0.00000000 0.00000000 15.00000000" energy_frozen_part=0.00000000 Properties=species:S:1:pos:R:3:velocities:R:3:Z:I:1
H         6.88779253       4.03281259       3.98043665         0.00000000       0.00000000       0.00000000          1
H         7.91464670       4.21621537       6.57200031         0.00000000       0.00000000       0.00000000          1
H         9.55465574       3.36509248       4.47670507         0.00000000       0.00000000       0.00000000          1
H         8.73555760       1.54942824       6.43545572         0.00000000       0.00000000       0.00000000          1
H         7.70869658       1.36602114       3.84389051         0.00000000       0.00000000       0.00000000          1
H         6.06869656       2.21714510       5.93918765         0.00000000       0.00000000       0.00000000          1
6
pbc=[F, F, F] list_num_par=6 frozen=false iter=20000 energy=-1.26974174 Lattice="15.00000000 0.00000000 0.00000000 0.00000000 15.00000000 0.00000000 0.00000000 0.00000000 15.00000000" energy_frozen_part=0.00000000 Properties=species:S:1:pos:R:3:velocities:R:3:Z:I:1
H         6.99717311       4.81222229       6.28405354         0.00000000       0.00000000       0.00000000          1
H         9.46429014       5.29879730       7.50096225         0.00000000       0.00000000       0.00000000          1
H         9.36523218       4.32901333       4.88294972         0.00000000       0.00000000       0.00000000          1
H        10.25225267       2.67534001       6.95246099         0.00000000       0.00000000       0.00000000          1
H         7.78513523       2.18876758       5.73554457         0.00000000       0.00000000       0.00000000          1
H         7.88419106       3.15855062       8.35355922         0.00000000       0.00000000       0.00000000          1
6
pbc=[F, F, F] list_num_par=6 frozen=false iter=20000 energy=-1.26974174 Lattice="15.00000000 0.00000000 0.00000000 0.00000000 15.00000000 0.00000000 0.00000000 0.00000000 15.00000000" energy_frozen_part=0.00000000 Properties=species:S:1:pos:R:3:velocities:R:3:Z:I:1
H         6.88814240       4.03306182       3.98074680         0.00000000       0.00000000       0.00000000          1
H         7.91499019       4.21614547       6.57233647         0.00000000       0.00000000       0.00000000          1
H         9.55492774       3.36502524       4.47698904         0.00000000       0.00000000       0.00000000          1
H         8.73561471       1.54928307       6.43558487         0.00000000       0.00000000       0.00000000          1
H         7.70876600       1.36620097       3.84399745         0.00000000       0.00000000       0.00000000          1
H         6.06882297       2.21732541       5.93933942         0.00000000       0.00000000       0.00000000          1
6
pbc=[F, F, F] list_num_par=6 frozen=false iter=20000 energy=-1.26974174 Lattice="15.00000000 0.00000000 0.00000000 0.00000000 15.00000000 0.00000000 0.00000000 0.00000000 15.00000000" energy_frozen_part=0.00000000 Properties=species:S:1:pos:R:3:velocities:R:3:Z:I:1
H         6.88813503       4.03302231       3.98072775         0.00000000       0.00000000       0.00000000          1
H         7.91496558       4.21615631       6.57232386         0.00000000       0.00000000       0.00000000          1
H         9.55492888       3.36503264       4.47699611         0.00000000       0.00000000       0.00000000          1
H         8.73563286       1.54930533       6.43560979         0.00000000       0.00000000       0.00000000          1
H         7.70880725       1.36617404       3.84400960         0.00000000       0.00000000       0.00000000          1
H         6.06884113       2.21729938       5.93933691         0.00000000       0.00000000       0.00000000          1
6
pbc=[F, F, F] list_num_par=6 frozen=false iter=20000 energy=-1.26974174 Lattice="15.00000000 0.00000000 0.00000000 0.00000000 15.00000000 0.00000000 0.00000000 0.00000000 15.00000000" energy_frozen_part=0.00000000 Properties=species:S:1:pos:R:3:velocities:R:3:Z:I:1
H         6.99699205       4.81206887       6.28402443         0.00000000       0.00000000       0.00000000          1
H         9.46402354       5.29893768       7.50098872         0.00000000       0.00000000       0.00000000          1
H         9.36514534       4.32909538       4.88299044         0.00000000       0.00000000       0.00000000          1
H        10.25228845       2.67555720       6.95254674         0.00000000       0.00000000       0.00000000          1
H         7.78525780       2.18868794       5.73558679         0.00000000       0.00000000       0.00000000          1
H         7.88414173       3.15853728       8.35358498         0.00000000       0.00000000       0.00000000          1
6
pbc=[F, F, F] list_num_par=6 frozen=false iter=20000 energy=-1.26974174 Lattice="15.00000000 0.00000000 0.00000000 0.00000000 15.00000000 0.00000000 0.00000000 0.00000000 15.00000000" energy_frozen_part=0.00000000 Properties=species:S:1:pos:R:3:velocities:R:3:Z:I:1
H         6.88808573       4.03304699       3.98075864         0.00000000       0.00000000       0.00000000          1
H         7.91496252       4.21614196       6.57234098         0.00000000       0.00000000       0.00000000          1
H         9.55489319       3.36505258       4.47697311         0.00000000       0.00000000       0.00000000          1
H         8.73562900       1.54929370       6.43557435         0.00000000       0.00000000       0.00000000          1
H         7.70876011       1.36619998       3.84398881         0.00000000       0.00000000       0.00000000          1
H         6.06882496       2.21728850       5.93935373         0.00000000       0.00000000       0.00000000          1
6
pbc=[F, F, F] list_num_par=6 frozen=false iter=20000 energy=-1.26974174 Lattice="15.00000000 0.00000000 0.00000000 0.00000000 15.00000000 0.00000000 0.00000000 0.00000000 15.00000000" energy_frozen_part=0.00000000 Properties=species:S:1:pos:R:3:velocities:R:3:Z:I:1
H         6.99777780       4.81245999       6.28459300         0.00000000       0.00000000       0.00000000          1
H         9.46528471       5.29840715       7.50095329         0.00000000       0.00000000       0.00000000          1
H         9.36537738       4.33035447       4.88233383         0.00000000       0.00000000       0.00000000          1
H        10.25324472       2.67537006       6.95042209         0.00000000       0.00000000       0.00000000          1
H         7.78573532       2.18942830       5.73405811         0.00000000       0.00000000       0.00000000          1
H         7.88564744       3.15746937       8.35268298         0.00000000       0.00000000       0.00000000          1
6
pbc=[F, F, F] list_num_par=6 frozen=false iter=20000 energy=-1.26974174 Lattice="15.00000000 0.00000000 0.00000000 0.00000000 15.00000000 0.00000000 0.00000000 0.00000000 15.00000000" energy_frozen_part=0.00000000 Properties=species:S:1:pos:R:3:velocities:R:3:Z:I:1
H         6.89195490       4.03551883       3.97982258         0.00000000       0.00000000       0.00000000          1
H         7.91780131       4.21548977       6.57203035         0.00000000       0.00000000       0.00000000          1
H         9.55800810       3.36498161       4.47663942         0.00000000       0.00000000       0.00000000          1
H         8.73644316       1.54812126       6.43325007         0.00000000       0.00000000       0.00000000          1
H         7.71058799       1.36814677       3.84105077         0.00000000       0.00000000       0.00000000          1
H         6.07038825       2.21865469       5.93643889         0.00000000       0.00000000       0.00000000          1
6
pbc=[F, F, F] list_num_par=6 frozen=false iter=20000 energy=-1.26974174 Lattice="15.00000000 0.00000000 0.00000000 0.00000000 15.00000000 0.00000000 0.00000000 0.00000000 15.00000000" energy_frozen_part=0.00000000 Properties=species:S:1:pos:R:3:velocities:R:3:Z:I:1
H         6.99715099       4.81222839       6.28407948         0.00000000       0.00000000       0.00000000          1
H         9.46427246       5.29880150       7.50097944         0.00000000       0.00000000       0.00000000          1
H         9.36519862       4.32903693       4.88295636         0.00000000       0.00000000       0.00000000          1
H        10.25224676       2.67535210       6.95243909         0.00000000       0.00000000       0.00000000          1
H         7.78512105       2.18877261       5.73554123         0.00000000       0.00000000       0.00000000          1
H         7.88419163       3.15853746       8.35355686         0.00000000       0.00000000       0.00000000          1
6
pbc=[F, F, F] list_num_par=6 frozen=false iter=20000 energy=-1.26974174 Lattice="15.00000000 0.00000000 0.00000000 0.00000000 15.00000000 0.00000000 0.00000000 0.00000000 15.00000000" energy_frozen_part=0.00000000 Properties=species:S:1:pos:R:3:velocities:R:3:Z:I:1
H         6.88811943       4.03304895       3.98075899         0.00000000       0.00000000       0.00000000          1
H         7.91497113       4.21614093       6.57234493         0.00000000       0.00000000       0.00000000          1
H         9.55491259       3.36502268       4.47699375         0.00000000       0.00000000       0.00000000          1
H         8.73561566       1.54928344       6.43559941         0.00000000       0.00000000       0.00000000          1
H         7.70876319       1.36618971       3.84401309         0.00000000       0.00000000       0.00000000          1
H         6.06882509       2.21730653       5.93936349         0.00000000       0.00000000       0.00000000          1
6
pbc=[F, F, F] list_num_par=6 frozen=false iter=20000 energy=-1.26974174 Lattice="15.00000000 0.00000000 0.00000000 0.00000000 15.00000000 0.00000000 0.00000000 0.00000000 15.00000000" energy_frozen_part=0.00000000 Properties=species:S:1:pos:R:3:velocities:R:3:Z:I:1
H         6.99713894       4.81221410       6.28407580         0.00000000       0.00000000       0.00000000          1
H         9.46426717       5.29881833       7.50095948         0.00000000       0.00000000       0.00000000          1
H         9.36518744       4.32904670       4.88294190         0.00000000       0.00000000       0.00000000          1
H        10.25225571       2.67537031       6.95241989         0.00000000       0.00000000       0.00000000          1
H         7.78513346       2.18876670       5.73554166         0.00000000       0.00000000       0.00000000          1
H         7.88420870       3.15853791       8.35355810         0.00000000       0.00000000       0.00000000          1
6
pbc=[F, F, F] list_num_par=6 frozen=false iter=20000 energy=-1.26974174 Lattice="15.00000000 0.00000000 0.00000000 0.00000000 15.00000000 0.00000000 0.00000000 0.00000000 15.00000000" energy_frozen_part=0.00000000 Properties=species:S:1:pos:R:3:velocities:R:3:Z:I:1
H         6.99714924       4.81221638       6.28409166         0.00000000       0.00000000       0.00000000          1
H         9.46427297       5.29879925       7.50098169         0.00000000       0.00000000       0.00000000          1
H         9.36520191       4.32904908       4.88295922         0.00000000       0.00000000       0.00000000          1
H        10.25225061       2.67535347       6.95243539         0.00000000       0.00000000       0.00000000          1
H         7.78512859       2.18877451       5.73553641         0.00000000       0.00000000       0.00000000          1
H         7.88420707       3.15852423       8.35356416         0.00000000       0.00000000       0.00000000          1
6
pbc=[F, F, F] list_num_par=6 frozen=false iter=20000 energy=-1.26974174 Lattice="15.00000000 0.00000000 0.00000000 0.00000000 15.00000000 0.00000000 0.00000000 0.00000000 15.00000000" energy_frozen_part=0.00000000 Properties=species:S:1:pos:R:3:velocities:R:3:Z:I:1
H         6.88811571       4.03304807       3.98075248         0.00000000       0.00000000       0.00000000          1
H         7.91497316       4.21614567       6.57233673         0.00000000       0.00000000       0.00000000          1
H         9.55490989       3.36502567       4.47698885         0.00000000       0.00000000       0.00000000          1
H         8.73561703       1.54928266       6.43559107         0.00000000       0.00000000       0.00000000          1
H         7.70875885       1.36619200       3.84400246         0.00000000       0.00000000       0.00000000          1
H         6.06882756       2.21730806       5.93935248         0.00000000       0.00000000       0.00000000          1
6
pbc=[F, F, F] list_num_par=6 frozen=false iter=20000 energy=-1.26974174 Lattice="15.00000000 0.00000000 0.00000000 0.00000000 15.00000000 0.00000000 0.00000000 0.00000000 15.00000000" energy_frozen_part=0.00000000 Properties=species:S:1:pos:R:3:velocities:R:3:Z:I:1
H         6.88810858       4.03306173       3.98076093         0.00000000       0.00000000       0.00000000          1
H         7.91496568       4.21613167       6.57235055         0.00000000       0.00000000       0.00000000          1
H         9.55490485       3.36505581       4.47698873         0.00000000       0.00000000       0.00000000          1
H         8.73562195       1.54928350       6.43557452         0.00000000       0.00000000       0.00000000          1
H         7.70876812       1.36621241       3.84398451         0.00000000       0.00000000       0.00000000          1
H         6.06882823       2.21728927       5.93934328         0.00000000       0.00000000       0.00000000          1
6
pbc=[F, F, F] list_num_par=6 frozen=false iter=20000 energy=-1.26974174 Lattice="15.00000000 0.00000000 0.00000000 0.00000000 15.00000000 0.00000000 0.00000000 0.00000000 15.00000000" energy_frozen_part=0.00000000 Properties=species:S:1:pos:R:3:velocities:R:3:Z:I:1
H         6.89185854       4.03554490       3.97991794         0.00000000       0.00000000       0.00000000          1
H         7.91774167       4.21541203       6.57211480         0.00000000       0.00000000       0.00000000          1
H         9.55793234       3.36503998       4.47666324         0.00000000       0.00000000       0.00000000          1
H         8.73643181       1.54807016       6.43320172         0.00000000       0.00000000       0.00000000          1
H         7.71054645       1.36820264       3.84100113         0.00000000       0.00000000       0.00000000          1
H         6.07035273       2.21857130       5.93645312         0.00000000       0.00000000       0.00000000          1
6
pbc=[F, F, F] list_num_par=6 frozen=false iter=20000 energy=-1.26974174 Lattice="15.00000000 0.00000000 0.00000000 0.00000000 15.00000000 0.00000000 0.00000000 0.00000000 15.00000000" energy_frozen_part=0.00000000 Properties=species:S:1:pos:R:3:velocities:R:3:Z:I:1
H         6.89195333       4.03551763       3.97982434         0.00000000       0.00000000       0.00000000          1
H         7.91780417       4.21549448       6.57202412         0.00000000       0.00000000       0.00000000          1
H         9.55800919       3.36498021       4.47663896         0.00000000       0.00000000       0.00000000          1
H         8.73643783       1.54812357       6.43325093         0.00000000       0.00000000       0.00000000          1
H         7.71058776       1.36815096       3.84104248         0.00000000       0.00000000       0.00000000          1
H         6.07038257       2.21866065       5.93643547         0.00000000       0.00000000       0.00000000          1
6
pbc=[F, F, F] list_num_par=6 frozen=false iter=20000 energy=-1.26974174 Lattice="15.00000000 0.00000000 0.00000000 0.00000000 15.00000000 0.00000000 0.00000000 0.00000000 15.00000000" energy_frozen_part=0.00000000 Properties=species:S:1:pos:R:3:velocities:R:3:Z:I:1
H         6.88746507       4.03262147       3.98074904         0.00000000       0.00000000       0.00000000          1
H         7.91448418       4.21605200       6.57224821         0.00000000       0.00000000       0.00000000          1
H         9.55435109       3.36489649       4.47686144         0.00000000       0.00000000       0.00000000          1
H         8.73537627       1.54925927       6.43568860         0.00000000       0.00000000       0.00000000          1
H         7.70835020       1.36582445       3.84419150         0.00000000       0.00000000       0.00000000          1
H         6.06848081       2.21697999       5.93957619         0.00000000       0.00000000       0.00000000          1
6
pbc=[F, F, F] list_num_par=6 frozen=false iter=20000 energy=-1.26974174 Lattice="15.00000000 0.00000000 0.00000000 0.00000000 15.00000000 0.00000000 0.00000000 0.00000000 15.00000000" energy_frozen_part=0.00000000 Properties=species:S:1:pos:R:3:velocities:R:3:Z:I:1
H         6.88811471       4.03305207       3.98076000         0.00000000       0.00000000       0.00000000          1
H         7.91496218       4.21613441       6.57234965         0.00000000       0.00000000       0.00000000          1
H         9.55490862       3.36504474       4.47699340         0.00000000       0.00000000       0.00000000          1
H         8.73562545       1.54928660       6.43558069         0.00000000       0.00000000       0.00000000          1
H         7.70877321       1.36619915       3.84398673         0.00000000       0.00000000       0.00000000          1
H         6.06882809       2.21729021       5.93934779         0.00000000       0.00000000       0.00000000          1
6
pbc=[F, F, F] list_num_par=6 frozen=false iter=20000 energy=-1.26974174 Lattice="15.00000000 0.00000000 0.00000000 0.00000000 15.00000000 0.00000000 0.00000000 0.00000000 15.00000000" energy_frozen_part=0.00000000 Properties=species:S:1:pos:R:3:velocities:R:3:Z:I:1
H         6.99713373       4.81222039       6.28407580         0.00000000       0.00000000       0.00000000          1
H         9.46426415       5.29880406       7.50095760         0.00000000       0.00000000       0.00000000          1
H         9.36517786       4.32903951       4.88293485         0.00000000       0.00000000       0.00000000          1
H        10.25224049       2.67535925       6.95240919         0.00000000       0.00000000       0.00000000          1
H         7.78511183       2.18877290       5.73553084         0.00000000       0.00000000       0.00000000          1
H         7.88419636       3.15853457       8.35354640         0.00000000       0.00000000       0.00000000          1
6
pbc=[F, F, F] list_num_par=6 frozen=false iter=20000 energy=-1.26974174 Lattice="15.00000000 0.00000000 0.00000000 0.00000000 15.00000000 0.00000000 0.00000000 0.00000000 15.00000000" energy_frozen_part=0.00000000 Properties=species:S:1:pos:R:3:velocities:R:3:Z:I:1
H         6.99699524       4.81206701       6.28403796         0.00000000       0.00000000       0.00000000          1
H         9.46402214       5.29894447       7.50100343         0.00000000       0.00000000       0.00000000          1
H         9.36514889       4.32910431       4.88300647         0.00000000       0.00000000       0.00000000          1
H        10.25230544       2.67557188       6.95256004         0.00000000       0.00000000       0.00000000          1
H         7.78527943       2.18868557       5.73558933         0.00000000       0.00000000       0.00000000          1
H         7.88414834       3.15852505       8.35358742         0.00000000       0.00000000       0.00000000          1
6
pbc=[F, F, F] list_num_par=6 frozen=false iter=20000 energy=-1.26974174 Lattice="15.00000000 0.00000000 0.00000000 0.00000000 15.00000000 0.00000000 0.00000000 0.00000000 15.00000000" energy_frozen_part=0.00000000 Properties=species:S:1:pos:R:3:velocities:R:3:Z:I:1
H         6.99701347       4.81206255       6.28404273         0.00000000       0.00000000       0.00000000          1
H         9.46403302       5.29894559       7.50102917         0.00000000       0.00000000       0.00000000          1
H         9.36517848       4.32908123       4.88303621         0.00000000       0.00000000       0.00000000          1
H        10.25231341       2.67555931       6.95261552         0.00000000       0.00000000       0.00000000          1
H         7.78529222       2.18867817       5.73562448         0.00000000       0.00000000       0.00000000          1
H         7.88414573       3.15854201       8.35361781         0.00000000       0.00000000       0.00000000          1
6
pbc=[F, F, F] list_num_par=6 frozen=false iter=20000 energy=-1.26974174 Lattice="15.00000000 0.00000000 0.00000000 0.00000000 15.00000000 0.00000000 0.00000000 0.00000000 15.00000000" energy_frozen_part=0.00000000 Properties=species:S:1:pos:R:3:velocities:R:3:Z:I:1
H         6.99776641       4.81245577       6.28458224         0.00000000       0.00000000       0.00000000          1
H         9.46526284       5.29841459       7.50097544         0.00000000       0.00000000       0.00000000          1
H         9.36538677       4.33037220       4.88234974         0.00000000       0.00000000       0.00000000          1
H        10.25324985       2.67538942       6.95044540         0.00000000       0.00000000       0.00000000          1
H         7.78575532       2.18942358       5.73405151         0.00000000       0.00000000       0.00000000          1
H         7.88562858       3.15746918       8.35267292         0.00000000       0.00000000       0.00000000          1
6
pbc=[F, F, F] list_num_par=6 frozen=false iter=20000 energy=-1.26974174 Lattice="15.00000000 0.00000000 0.00000000 0.00000000 15.00000000 0.00000000 0.00000000 0.00000000 15.00000000" energy_frozen_part=0.00000000 Properties=species:S:1:pos:R:3:velocities:R:3:Z:I:1
H         6.88751826       4.03268336       3.98076261         0.00000000       0.00000000       0.00000000          1
H         7.91451215       4.21604227       6.57227742         0.00000000       0.00000000       0.00000000          1
H         9.55439188       3.36490377       4.47689213         0.00000000       0.00000000       0.00000000          1
H         8.73535163       1.54923149       6.43566624         0.00000000       0.00000000       0.00000000          1
H         7.70835700       1.36588449       3.84415020         0.00000000       0.00000000       0.00000000          1
H         6.06848096       2.21701889       5.93954349         0.00000000       0.00000000       0.00000000          1
6
pbc=[F, F, F] list_num_par=6 frozen=false iter=20000 energy=-1.26974174 Lattice="15.00000000 0.00000000 0.00000000 0.00000000 15.00000000 0.00000000 0.00000000 0.00000000 15.00000000" energy_frozen_part=0.00000000 Properties=species:S:1:pos:R:3:velocities:R:3:Z:I:1
H         6.88751897       4.03268463       3.98078290         0.00000000       0.00000000       0.00000000          1
H         7.91451774       4.21603851       6.57229434         0.00000000       0.00000000       0.00000000          1
H         9.55438730       3.36489275       4.47690946         0.00000000       0.00000000       0.00000000          1
H         8.73534012       1.54923078       6.43569336         0.00000000       0.00000000       0.00000000          1
H         7.70834875       1.36587817       3.84417366         0.00000000       0.00000000       0.00000000          1
H         6.06847426       2.21702272       5.93955949         0.00000000       0.00000000       0.00000000          1
6
pbc=[F, F, F] list_num_par=6 frozen=false iter=20000 energy=-1.26974174 Lattice="15.00000000 0.00000000 0.00000000 0.00000000 15.00000000 0.00000000 0.00000000 0.00000000 15.00000000" energy_frozen_part=0.00000000 Properties=species:S:1:pos:R:3:velocities:R:3:Z:I:1
H         6.99780538       4.81244828       6.28457772         0.00000000       0.00000000       0.00000000          1
H         9.46530036       5.29838170       7.50097293         0.00000000       0.00000000       0.00000000          1
H         9.36541826       4.33031346       4.88235815         0.00000000       0.00000000       0.00000000          1
H        10.25324199       2.67532959       6.95047074         0.00000000       0.00000000       0.00000000          1
H         7.78574480       2.18939860       5.73407283         0.00000000       0.00000000       0.00000000          1
H         7.88562430       3.15746921       8.35268947         0.00000000       0.00000000       0.00000000          1
6
pbc=[F, F, F] list_num_par=6 frozen=false iter=20000 energy=-1.26974174 Lattice="15.00000000 0.00000000 0.00000000 0.00000000 15.00000000 0.00000000 0.00000000 0.00000000 15.00000000" energy_frozen_part=0.00000000 Properties=species:S:1:pos:R:3:velocities:R:3:Z:I:1
H         6.99714466       4.81222547       6.28407262         0.00000000       0.00000000       0.00000000          1
H         9.46426991       5.29880537       7.50095445         0.00000000       0.00000000       0.00000000          1
H         9.36518916       4.32904068       4.88293392         0.00000000       0.00000000       0.00000000          1
H        10.25224384       2.67535286       6.95240843         0.00000000       0.00000000       0.00000000          1
H         7.78511564       2.18877516       5.73553455         0.00000000       0.00000000       0.00000000          1
H         7.88420379       3.15853875       8.35355410         0.00000000       0.00000000       0.00000000          1
6
pbc=[F, F, F] list_num_par=6 frozen=false iter=20000 energy=-1.26974174 Lattice="15.00000000 0.00000000 0.00000000 0.00000000 15.00000000 0.00000000 0.00000000 0.00000000 15.00000000" energy_frozen_part=0.00000000 Properties=species:S:1:pos:R:3:velocities:R:3:Z:I:1
H         6.88808933       4.03303999       3.98074864         0.00000000       0.00000000       0.00000000          1
H         7.91496453       4.21615535       6.57232985         0.00000000       0.00000000       0.00000000          1
H         9.55489285       3.36505385       4.47696355         0.00000000       0.00000000       0.00000000          1
H         8.73563420       1.54930382       6.43557545         0.00000000       0.00000000       0.00000000          1
H         7.70876508       1.36619143       3.84399399         0.00000000       0.00000000       0.00000000          1
H         6.06883146       2.21729099       5.93935798         0.00000000       0.00000000       0.00000000          1
6
pbc=[F, F, F] list_num_par=6 frozen=false iter=20000 energy=-1.26974174 Lattice="15.00000000 0.00000000 0.00000000 0.00000000 15.00000000 0.00000000 0.00000000 0.00000000 15.00000000" energy_frozen_part=0.00000000 Properties=species:S:1:pos:R:3:velocities:R:3:Z:I:1
H         6.88811008       4.03305678       3.98076183         0.00000000       0.00000000       0.00000000          1
H         7.91495553       4.21613680       6.57235411         0.00000000       0.00000000       0.00000000          1
H         9.55490306       3.36505297       4.47699901         0.00000000       0.00000000       0.00000000          1
H         8.73562743       1.54928999       6.43558656         0.00000000       0.00000000       0.00000000          1
H         7.70877847       1.36620528       3.84399535         0.00000000       0.00000000       0.00000000          1
H         6.06883257       2.21728647       5.93934762         0.00000000       0.00000000       0.00000000          1
6
pbc=[F, F, F] list_num_par=6 frozen=false iter=20000 energy=-1.26974174 Lattice="15.00000000 0.00000000 0.00000000 0.00000000 15.00000000 0.00000000 0.00000000 0.00000000 15.00000000" energy_frozen_part=0.00000000 Properties=species:S:1:pos:R:3:velocities:R:3:Z:I:1
H         6.88747140       4.03262207       3.98075459         0.00000000       0.00000000       0.00000000          1
H         7.91448745       4.21603811       6.57225520         0.00000000       0.00000000       0.00000000          1
H         9.55436136       3.36490285       4.47686544         0.00000000       0.00000000       0.00000000          1
H         8.73537589       1.54924833       6.43567676         0.00000000       0.00000000       0.00000000          1
H         7.70835556       1.36583244       3.84418114         0.00000000       0.00000000       0.00000000          1
H         6.06848117       2.21697000       5.93957007         0.00000000       0.00000000       0.00000000          1
6
pbc=[F, F, F] list_num_par=6 frozen=false iter=20000 energy=-1.26974174 Lattice="15.00000000 0.00000000 0.00000000 0.00000000 15.00000000 0.00000000 0.00000000 0.00000000 15.00000000" energy_frozen_part=0.00000000 Properties=species:S:1:pos:R:3:velocities:R:3:Z:I:1
H         6.88747281       4.03263443       3.98074597         0.00000000       0.00000000       0.00000000          1
H         7.91448991       4.21606644       6.57224870         0.00000000       0.00000000       0.00000000          1
H         9.55435723       3.36491102       4.47685657         0.00000000       0.00000000       0.00000000          1
H         8.73537674       1.54927193       6.43568521         0.00000000       0.00000000       0.00000000          1
H         7.70835158       1.36583874       3.84418678         0.00000000       0.00000000       0.00000000          1
H         6.06848887       2.21699787       5.93957395         0.00000000       0.00000000       0.00000000          1
6
pbc=[F, F, F] list_num_par=6 frozen=false iter=20000 energy=-1.26974174 Lattice="15.00000000 0.00000000 0.00000000 0.00000000 15.00000000 0.00000000 0.00000000 0.00000000 15.00000000" energy_frozen_part=0.00000000 Properties=species:S:1:pos:R:3:velocities:R:3:Z:I:1
H         6.88746996       4.03262617       3.98075265         0.00000000       0.00000000       0.00000000          1
H         7.91447390       4.21604661       6.57225780         0.00000000       0.00000000       0.00000000          1
H         9.55435457       3.36490313       4.47687398         0.00000000       0.00000000       0.00000000          1
H         8.73535452       1.54925861       6.43568935         0.00000000       0.00000000       0.00000000          1
H         7.70835345       1.36583434       3.84418431         0.00000000       0.00000000       0.00000000          1
H         6.06846958       2.21698338       5.93956782         0.00000000       0.00000000       0.00000000          1
6
pbc=[F, F, F] list_num_par=6 frozen=false iter=20000 energy=-1.26974174 Lattice="15.00000000 0.00000000 0.00000000 0.00000000 15.00000000 0.00000000 0.00000000 0.00000000 15.00000000" energy_frozen_part=0.00000000 Properties=species:S:1:pos:R:3:velocities:R:3:Z:I:1
H         6.99703453       4.81208909       6.28402275         0.00000000       0.00000000       0.00000000          1
H         9.46406062       5.29890458       7.50101361         0.00000000       0.00000000       0.00000000          1
H         9.36518730       4.32907048       4.88301227         0.00000000       0.00000000       0.00000000          1
H        10.25227802       2.67550733       6.95257757         0.00000000       0.00000000       0.00000000          1
H         7.78525373       2.18868987       5.73558674         0.00000000       0.00000000       0.00000000          1
H         7.88412117       3.15852494       8.35358544         0.00000000       0.00000000       0.00000000          1
6
pbc=[F, F, F] list_num_par=6 frozen=false iter=20000 energy=-1.26974174 Lattice="15.00000000 0.00000000 0.00000000 0.00000000 15.00000000 0.00000000 0.00000000 0.00000000 15.00000000" energy_frozen_part=0.00000000 Properties=species:S:1:pos:R:3:velocities:R:3:Z:I:1
H         6.88747009       4.03262556       3.98074243         0.00000000       0.00000000       0.00000000          1
H         7.91447656       4.21605475       6.57224456         0.00000000       0.00000000       0.00000000          1
H         9.55436116       3.36490640       4.47686855         0.00000000       0.00000000       0.00000000          1
H         8.73537558       1.54925931       6.43568670         0.00000000       0.00000000       0.00000000          1
H         7.70836569       1.36583463       3.84418166         0.00000000       0.00000000       0.00000000          1
H         6.06848455       2.21697963       5.93956351         0.00000000       0.00000000       0.00000000          1
6
pbc=[F, F, F] list_num_par=6 frozen=false iter=20000 energy=-1.26974174 Lattice="15.00000000 0.00000000 0.00000000 0.00000000 15.00000000 0.00000000 0.00000000 0.00000000 15.00000000" energy_frozen_part=0.00000000 Properties=species:S:1:pos:R:3:velocities:R:3:Z:I:1
H         6.88746739       4.03262622       3.98074668         0.00000000       0.00000000       0.00000000          1
H         7.91447136       4.21605250       6.57225311         0.00000000       0.00000000       0.00000000          1
H         9.55435319       3.36490658       4.47687441         0.00000000       0.00000000       0.00000000          1
H         8.73536011       1.54925877       6.43568949         0.00000000       0.00000000       0.00000000          1
H         7.70834971       1.36583261       3.84418580         0.00000000       0.00000000       0.00000000          1
H         6.06847007       2.21698203       5.93956691         0.00000000       0.00000000       0.00000000          1
6
pbc=[F, F, F] list_num_par=6 frozen=false iter=20000 energy=-1.26974174 Lattice="15.00000000 0.00000000 0.00000000 0.00000000 15.00000000 0.00000000 0.00000000 0.00000000 15.00000000" energy_frozen_part=0.00000000 Properties=species:S:1:pos:R:3:velocities:R:3:Z:I:1
H         6.88813367       4.03303991       3.98071645         0.00000000       0.00000000       0.00000000          1
H         7.91496298       4.21615956       6.57231509         0.00000000       0.00000000       0.00000000          1
H         9.55492688       3.36503965       4.47699136         0.00000000       0.00000000       0.00000000          1
H         8.73562089       1.54930160       6.43558864         0.00000000       0.00000000       0.00000000          1
H         7.70879816       1.36618835       3.84398931         0.00000000       0.00000000       0.00000000          1
H         6.06883442       2.21730447       5.93931899         0.00000000       0.00000000       0.00000000          1
6
pbc=[F, F, F] list_num_par=6 frozen=false iter=20000 energy=-1.26974174 Lattice="15.00000000 0.00000000 0.00000000 0.00000000 15.00000000 0.00000000 0.00000000 0.00000000 15.00000000" energy_frozen_part=0.00000000 Properties=species:S:1:pos:R:3:velocities:R:3:Z:I:1
H         6.99776650       4.81246793       6.28459315         0.00000000       0.00000000       0.00000000          1
H         9.46526747       5.29840641       7.50096744         0.00000000       0.00000000       0.00000000          1
H         9.36537347       4.33037346       4.88233784         0.00000000       0.00000000       0.00000000          1
H        10.25324093       2.67538086       6.95042362         0.00000000       0.00000000       0.00000000          1
H         7.78573552       2.18943499       5.73404828         0.00000000       0.00000000       0.00000000          1
H         7.88563146       3.15746430       8.35267506         0.00000000       0.00000000       0.00000000          1
6
pbc=[F, F, F] list_num_par=6 frozen=false iter=20000 energy=-1.26974174 Lattice="15.00000000 0.00000000 0.00000000 0.00000000 15.00000000 0.00000000 0.00000000 0.00000000 15.00000000" energy_frozen_part=0.00000000 Properties=species:S:1:pos:R:3:velocities:R:3:Z:I:1
H         6.88780264       4.03282351       3.98044102         0.00000000       0.00000000       0.00000000          1
H         7.91467709       4.21621053       6.57200505         0.00000000       0.00000000       0.00000000          1
H         9.55466659       3.36509918       4.47669506         0.00000000       0.00000000       0.00000000          1
H         8.73556987       1.54942460       6.43544712         0.00000000       0.00000000       0.00000000          1
H         7.70870103       1.36603577       3.84388481         0.00000000       0.00000000       0.00000000          1
H         6.06870519       2.21715239       5.93919129         0.00000000       0.00000000       0.00000000          1
6
pbc=[F, F, F] list_num_par=6 frozen=false iter=20000 energy=-1.26974174 Lattice="15.00000000 0.00000000 0.00000000 0.00000000 15.00000000 0.00000000 0.00000000 0.00000000 15.00000000" energy_frozen_part=0.00000000 Properties=species:S:1:pos:R:3:velocities:R:3:Z:I:1
H         6.99702545       4.81205581       6.28403227         0.00000000       0.00000000       0.00000000          1
H         9.46404265       5.29893574       7.50102133         0.00000000       0.00000000       0.00000000          1
H         9.36518816       4.32907768       4.88302784         0.00000000       0.00000000       0.00000000          1
H        10.25231563       2.67555378       6.95260563         0.00000000       0.00000000       0.00000000          1
H         7.78530030       2.18867209       5.73561750         0.00000000       0.00000000       0.00000000          1
H         7.88415478       3.15853535       8.35360669         0.00000000       0.00000000       0.00000000          1
6
pbc=[F, F, F] list_num_par=6 frozen=false iter=20000 energy=-1.26974174 Lattice="15.00000000 0.00000000 0.00000000 0.00000000 15.00000000 0.00000000 0.00000000 0.00000000 15.00000000" energy_frozen_part=0.00000000 Properties=species:S:1:pos:R:3:velocities:R:3:Z:I:1
H         6.88808942       4.03304759       3.98075299         0.00000000       0.00000000       0.00000000          1
H         7.91496100       4.21614254       6.57232982         0.00000000       0.00000000       0.00000000          1
H         9.55489357       3.36505213       4.47696413         0.00000000       0.00000000       0.00000000          1
H         8.73563601       1.54929862       6.43557250         0.00000000       0.00000000       0.00000000          1
H         7.70875971       1.36619792       3.84399182         0.00000000       0.00000000       0.00000000          1
H         6.06883105       2.21728939       5.93935330         0.00000000       0.00000000       0.00000000          1
6
pbc=[F, F, F] list_num_par=6 frozen=false iter=20000 energy=-1.26974174 Lattice="15.00000000 0.00000000 0.00000000 0.00000000 15.00000000 0.00000000 0.00000000 0.00000000 15.00000000" energy_frozen_part=0.00000000 Properties=species:S:1:pos:R:3:velocities:R:3:Z:I:1
H         6.99713214       4.81222451       6.28409950         0.00000000       0.00000000       0.00000000          1
H         9.46426287       5.29880090       7.50098165         0.00000000       0.00000000       0.00000000          1
H         9.36517507       4.32905843       4.88295535         0.00000000       0.00000000       0.00000000          1
H        10.25223000       2.67535315       6.95241625         0.00000000       0.00000000       0.00000000          1
H         7.78510292       2.18878121       5.73553435         0.00000000       0.00000000       0.00000000          1
H         7.88419228       3.15852432       8.35356517         0.00000000       0.00000000       0.00000000          1
6
pbc=[F, F, F] list_num_par=6 frozen=false iter=20000 energy=-1.26974174 Lattice="15.00000000 0.00000000 0.00000000 0.00000000 15.00000000 0.00000000 0.00000000 0.00000000 15.00000000" energy_frozen_part=0.00000000 Properties=species:S:1:pos:R:3:velocities:R:3:Z:I:1
H         6.88812967       4.03303486       3.98072079         0.00000000       0.00000000       0.00000000          1
H         7.91495720       4.21615568       6.57231673         0.00000000       0.00000000       0.00000000          1
H         9.55492600       3.36504551       4.47698710         0.00000000       0.00000000       0.00000000          1
H         8.73563393       1.54930704       6.43559340         0.00000000       0.00000000       0.00000000          1
H         7.70880379       1.36618258       3.84400006         0.00000000       0.00000000       0.00000000          1
H         6.06883904       2.21729876       5.93932547         0.00000000       0.00000000       0.00000000          1
6
pbc=[F, F, F] list_num_par=6 frozen=false iter=20000 energy=-1.26974174 Lattice="15.00000000 0.00000000 0.00000000 0.00000000 15.00000000 0.00000000 0.00000000 0.00000000 15.00000000" energy_frozen_part=0.00000000 Properties=species:S:1:pos:R:3:velocities:R:3:Z:I:1
H         6.88808682       4.03304036       3.98074726         0.00000000       0.00000000       0.00000000          1
H         7.91495996       4.21614197       6.57232589         0.00000000       0.00000000       0.00000000          1
H         9.55488763       3.36504620       4.47696259         0.00000000       0.00000000       0.00000000          1
H         8.73562997       1.54929014       6.43556727         0.00000000       0.00000000       0.00000000          1
H         7.70875341       1.36619379       3.84399086         0.00000000       0.00000000       0.00000000          1
H         6.06882664       2.21728899       5.93935377         0.00000000       0.00000000       0.00000000          1
6
pbc=[F, F, F] list_num_par=6 frozen=false iter=20000 energy=-1.26974174 Lattice="15.00000000 0.00000000 0.00000000 0.00000000 15.00000000 0.00000000 0.00000000 0.00000000 15.00000000" energy_frozen_part=0.00000000 Properties=species:S:1:pos:R:3:velocities:R:3:Z:I:1
H         6.88813130       4.03305791       3.98074457         0.00000000       0.00000000       0.00000000          1
H         7.91498026       4.21614805       6.57233690         0.00000000       0.00000000       0.00000000          1
H         9.55491710       3.36502933       4.47698771         0.00000000       0.00000000       0.00000000          1
H         8.73561391       1.54928942       6.43558895         0.00000000       0.00000000       0.00000000          1
H         7.70876595       1.36619473       3.84400073         0.00000000       0.00000000       0.00000000          1
H         6.06882361       2.21732200       5.93934123         0.00000000       0.00000000       0.00000000          1
6
pbc=[F, F, F] list_num_par=6 frozen=false iter=20000 energy=-1.26974174 Lattice="15.00000000 0.00000000 0.00000000 0.00000000 15.00000000 0.00000000 0.00000000 0.00000000 15.00000000" energy_frozen_part=0.00000000 Properties=species:S:1:pos:R:3:velocities:R:3:Z:I:1
H         6.99777080       4.81245985       6.28459524         0.00000000       0.00000000       0.00000000          1
H         9.46527925       5.29840816       7.50095502         0.00000000       0.00000000       0.00000000          1
H         9.36537080       4.33035460       4.88233385         0.00000000       0.00000000       0.00000000          1
H        10.25324789       2.67536961       6.95042268         0.00000000       0.00000000       0.00000000          1
H         7.78573544       2.18942302       5.73406413         0.00000000       0.00000000       0.00000000          1
H         7.88564665       3.15747405       8.35268298         0.00000000       0.00000000       0.00000000          1
6
pbc=[F, F, F] list_num_par=6 frozen=false iter=20000 energy=-1.26974174 Lattice="15.00000000 0.00000000 0.00000000 0.00000000 15.00000000 0.00000000 0.00000000 0.00000000 15.00000000" energy_frozen_part=0.00000000 Properties=species:S:1:pos:R:3:velocities:R:3:Z:I:1
H         6.99777353       4.81244385       6.28458545         0.00000000       0.00000000       0.00000000          1
H         9.46528041       5.29840922       7.50094975         0.00000000       0.00000000       0.00000000          1
H         9.36537407       4.33035300       4.88233134         0.00000000       0.00000000       0.00000000          1
H        10.25325485       2.67537345       6.95042401         0.00000000       0.00000000       0.00000000          1
H         7.78574931       2.18941335       5.73406442         0.00000000       0.00000000       0.00000000          1
H         7.88564939       3.15747125       8.35267904         0.00000000       0.00000000       0.00000000          1
