6
pbc=[F, F, F] list_num_par=6 frozen=false iter=20000 energy=-1.26974174 Lattice="15.00000000 0.00000000 0.00000000 0.00000000 15.00000000 0.00000000 0.00000000 0.00000000 15.00000000" energy_frozen_part=0.00000000 Properties=species:S:1:pos:R:3:velocities:R:3:Z:I:1
H         6.49441673       0.34979765      14.39536364         0.00000000       0.00000000       0.00000000          1
H         8.07544003       2.64015483      14.15263007         0.00000000       0.00000000       0.00000000          1
H         7.64900515       0.99575404      11.93488273         0.00000000       0.00000000       0.00000000          1
H         6.46920948       3.52560623      12.04543237         0.00000000       0.00000000       0.00000000          1
H         4.88818445       1.23525101      12.28816351         0.00000000       0.00000000       0.00000000          1
H         5.31462336       2.87964435      14.50591126         0.00000000       0.00000000       0.00000000          1
6
pbc=[F, F, F] list_num_par=6 frozen=false iter=20000 energy=-1.26974174 Lattice="15.00000000 0.00000000 0.00000000 0.00000000 15.00000000 0.00000000 0.00000000 0.00000000 15.00000000" energy_frozen_part=0.00000000 Properties=species:S:1:pos:R:3:velocities:R:3:Z:I:1
H         6.49443989       0.34978216      14.39535140         0.00000000       0.00000000       0.00000000          1
H         8.07546601       2.64013680      14.15263044         0.00000000       0.00000000       0.00000000          1
H         7.64905385       0.99573604      11.93488669         0.00000000       0.00000000       0.00000000          1
H         6.46925675       3.52559085      12.04541415         0.00000000       0.00000000       0.00000000          1
H         4.88823554       1.23523598      12.28813139         0.00000000       0.00000000       0.00000000          1
H         5.31464604       2.87963537      14.50587988         0.00000000       0.00000000       0.00000000          1
6
pbc=[F, F, F] list_num_par=6 frozen=false iter=20000 energy=-1.26974174 Lattice="15.00000000 0.00000000 0.00000000 0.00000000 15.00000000 0.00000000 0.00000000 0.00000000 15.00000000" energy_frozen_part=0.00000000 Properties=species:S:1:pos:R:3:velocities:R:3:Z:I:1
H         6.49443681       0.34980412      14.39536392         0.00000000       0.00000000       0.00000000          1
H         8.07547293       2.64015235      14.15261902         0.00000000       0.00000000       0.00000000          1
H         7.64905128       0.99573401      11.93489077         0.00000000       0.00000000       0.00000000          1
H         6.46926490       3.52559359      12.04540594         0.00000000       0.00000000       0.00000000          1
H         4.88822909       1.23524585      12.28814243         0.00000000       0.00000000       0.00000000          1
H         5.31464982       2.87966104      14.50587437         0.00000000       0.00000000       0.00000000          1
6
pbc=[F, F, F] list_num_par=6 frozen=false iter=20000 energy=-1.26974174 Lattice="15.00000000 0.00000000 0.00000000 0.00000000 15.00000000 0.00000000 0.00000000 0.00000000 15.00000000" energy_frozen_part=0.00000000 Properties=species:S:1:pos:R:3:velocities:R:3:Z:I:1
H         6.49448433       0.34997114      14.39553833         0.00000000       0.00000000       0.00000000          1
H         8.07545370       2.64036545      14.15284169         0.00000000       0.00000000       0.00000000          1
H         7.64929424       0.99583193      11.93514143         0.00000000       0.00000000       0.00000000          1
H         6.46940508       3.52564774      12.04543128         0.00000000       0.00000000       0.00000000          1
H         4.88843680       1.23525098      12.28812980         0.00000000       0.00000000       0.00000000          1
H         5.31458892       2.87978531      14.50583018         0.00000000       0.00000000       0.00000000          1
6
pbc=[F, F, F] list_num_par=6 frozen=false iter=20000 energy=-1.26974174 Lattice="15.00000000 0.00000000 0.00000000 0.00000000 15.00000000 0.00000000 0.00000000 0.00000000 15.00000000" energy_frozen_part=0.00000000 Properties=species:S:1:pos:R:3:velocities:R:3:Z:I:1
H         6.49440886       0.34980246      14.39536758         0.00000000       0.00000000       0.00000000          1
H         8.07545917       2.64014130      14.15263526         0.00000000       0.00000000       0.00000000          1
H         7.64904705       0.99572381      11.93490238         0.00000000       0.00000000       0.00000000          1
H         6.46927176       3.52558350      12.04540115         0.00000000       0.00000000       0.00000000          1
H         4.88821978       1.23524698      12.28813011         0.00000000       0.00000000       0.00000000          1
H         5.31463407       2.87966851      14.50586388         0.00000000       0.00000000       0.00000000          1
6
pbc=[F, F, F] list_num_par=6 frozen=false iter=20000 energy=-1.26974174 Lattice="15.00000000 0.00000000 0.00000000 0.00000000 15.00000000 0.00000000 0.00000000 0.00000000 15.00000000" energy_frozen_part=0.00000000 Properties=species:S:1:pos:R:3:velocities:R:3:Z:I:1
H         6.49449072       0.34996241      14.39555315         0.00000000       0.00000000       0.00000000          1
H         8.07547660       2.64034912      14.15284238         0.00000000       0.00000000       0.00000000          1
H         7.64929016       0.99582053      11.93515181         0.00000000       0.00000000       0.00000000          1
H         6.46941963       3.52564759      12.04545228         0.00000000       0.00000000       0.00000000          1
H         4.88843155       1.23526020      12.28815595         0.00000000       0.00000000       0.00000000          1
H         5.31461848       2.87978650      14.50585238         0.00000000       0.00000000       0.00000000          1
6
pbc=[F, F, F] list_num_par=6 frozen=false iter=20000 energy=-1.26974174 Lattice="15.00000000 0.00000000 0.00000000 0.00000000 15.00000000 0.00000000 0.00000000 0.00000000 15.00000000" energy_frozen_part=0.00000000 Properties=species:S:1:pos:R:3:velocities:R:3:Z:I:1
H         6.49482745       0.35038173      14.39541950         0.00000000       0.00000000       0.00000000          1
H         8.07542963       2.64099908      14.15237021         0.00000000       0.00000000       0.00000000          1
H         7.64939306       0.99614694      11.93488203         0.00000000       0.00000000       0.00000000          1
H         6.46911657       3.52579146      12.04495689         0.00000000       0.00000000       0.00000000          1
H         4.88851364       1.23517540      12.28800578         0.00000000       0.00000000       0.00000000          1
H         5.31454747       2.88002246      14.50549509         0.00000000       0.00000000       0.00000000          1
6
pbc=[F, F, F] list_num_par=6 frozen=false iter=20000 energy=-1.26974174 Lattice="15.00000000 0.00000000 0.00000000 0.00000000 15.00000000 0.00000000 0.00000000 0.00000000 15.00000000" energy_frozen_part=0.00000000 Properties=species:S:1:pos:R:3:velocities:R:3:Z:I:1
H         6.49429634       0.34983845      14.39540668         0.00000000       0.00000000       0.00000000          1
H         8.07540399       2.64012302      14.15254673         0.00000000       0.00000000       0.00000000          1
H         7.64887883       0.99563406      11.93488918         0.00000000       0.00000000       0.00000000          1
H         6.46918129       3.52553833      12.04533020         0.00000000       0.00000000       0.00000000          1
H         4.88807216       1.23525322      12.28818891         0.00000000       0.00000000       0.00000000          1
H         5.31460181       2.87974072      14.50585525         0.00000000       0.00000000       0.00000000          1
6
pbc=[F, F, F] list_num_par=6 frozen=false iter=20000 energy=-1.26974174 Lattice="15.00000000 0.00000000 0.00000000 0.00000000 15.00000000 0.00000000 0.00000000 0.00000000 15.00000000" energy_frozen_part=0.00000000 Properties=species:S:1:pos:R:3:velocities:R:3:Z:I:1
H         6.24496650       0.45554585      14.66542939         0.00000000       0.00000000       0.00000000          1
H         7.77633892       2.77040834      14.34825791         0.00000000       0.00000000       0.00000000          1
H         7.81151214       0.79133809      12.37688112         0.00000000       0.00000000       0.00000000          1
H         6.55829281       3.23773337      11.87798553         0.00000000       0.00000000       0.00000000          1
H         5.02691639       0.92287159      12.19515949         0.00000000       0.00000000       0.00000000          1
H         4.99174871       2.90194295      14.16653507         0.00000000       0.00000000       0.00000000          1
6
pbc=[F, F, F] list_num_par=6 frozen=false iter=20000 energy=-1.26974174 Lattice="15.00000000 0.00000000 0.00000000 0.00000000 15.00000000 0.00000000 0.00000000 0.00000000 15.00000000" energy_frozen_part=0.00000000 Properties=species:S:1:pos:R:3:velocities:R:3:Z:I:1
H         6.49477178       0.35038088      14.39538360         0.00000000       0.00000000       0.00000000          1
H         8.07538385       2.64099502      14.15242175         0.00000000       0.00000000       0.00000000          1
H         7.64937265       0.99622296      11.93488082         0.00000000       0.00000000       0.00000000          1
H         6.46910323       3.52586999      12.04501868         0.00000000       0.00000000       0.00000000          1
H         4.88849240       1.23525292      12.28797775         0.00000000       0.00000000       0.00000000          1
H         5.31450416       2.88003376      14.50552224         0.00000000       0.00000000       0.00000000          1
6
pbc=[F, F, F] list_num_par=6 frozen=false iter=20000 energy=-1.26974174 Lattice="15.00000000 0.00000000 0.00000000 0.00000000 15.00000000 0.00000000 0.00000000 0.00000000 15.00000000" energy_frozen_part=0.00000000 Properties=species:S:1:pos:R:3:velocities:R:3:Z:I:1
H         6.49481271       0.35038285      14.39540929         0.00000000       0.00000000       0.00000000          1
H         8.07542219       2.64099513      14.15236212         0.00000000       0.00000000       0.00000000          1
H         7.64938413       0.99614742      11.93487525         0.00000000       0.00000000       0.00000000          1
H         6.46910991       3.52579858      12.04495000         0.00000000       0.00000000       0.00000000          1
H         4.88850684       1.23518586      12.28800193         0.00000000       0.00000000       0.00000000          1
H         5.31454700       2.88003270      14.50549249         0.00000000       0.00000000       0.00000000          1
6
pbc=[F, F, F] list_num_par=6 frozen=false iter=20000 energy=-1.26974174 Lattice="15.00000000 0.00000000 0.00000000 0.00000000 15.00000000 0.00000000 0.00000000 0.00000000 15.00000000" energy_frozen_part=0.00000000 Properties=species:S:1:pos:R:3:velocities:R:3:Z:I:1
H         6.49476467       0.35039678      14.39539021         0.00000000       0.00000000       0.00000000          1
H         8.07537871       2.64100386      14.15243060         0.00000000       0.00000000       0.00000000          1
H         7.64937196       0.99621931      11.93488737         0.00000000       0.00000000       0.00000000          1
H         6.46911009       3.52586951      12.04501486         0.00000000       0.00000000       0.00000000          1
H         4.88848838       1.23526401      12.28798167         0.00000000       0.00000000       0.00000000          1
H         5.31449872       2.88004914      14.50551805         0.00000000       0.00000000       0.00000000          1
6
pbc=[F, F, F] list_num_par=6 frozen=false iter=20000 energy=-1.26974174 Lattice="15.00000000 0.00000000 0.00000000 0.00000000 15.00000000 0.00000000 0.00000000 0.00000000 15.00000000" energy_frozen_part=0.00000000 Properties=species:S:1:pos:R:3:velocities:R:3:Z:I:1
H         6.49446871       0.34996698      14.39553717         0.00000000       0.00000000       0.00000000          1
H         8.07544108       2.64036143      14.15285592         0.00000000       0.00000000       0.00000000          1
H         7.64930844       0.99583279      11.93515013         0.00000000       0.00000000       0.00000000          1
H         6.46941584       3.52564783      12.04543171         0.00000000       0.00000000       0.00000000          1
H         4.88843872       1.23524814      12.28811093         0.00000000       0.00000000       0.00000000          1
H         5.31457396       2.87978308      14.50581492         0.00000000       0.00000000       0.00000000          1
6
pbc=[F, F, F] list_num_par=6 frozen=false iter=20000 energy=-1.26974174 Lattice="15.00000000 0.00000000 0.00000000 0.00000000 15.00000000 0.00000000 0.00000000 0.00000000 15.00000000" energy_frozen_part=0.00000000 Properties=species:S:1:pos:R:3:velocities:R:3:Z:I:1
H         6.49447772       0.34996893      14.39554834         0.00000000       0.00000000       0.00000000          1
H         8.07545361       2.64036115      14.15284700         0.00000000       0.00000000       0.00000000          1
H         7.64929158       0.99582912      11.93515236         0.00000000       0.00000000       0.00000000          1
H         6.46940523       3.52564537      12.04543717         0.00000000       0.00000000       0.00000000          1
H         4.88842720       1.23524842      12.28814030         0.00000000       0.00000000       0.00000000          1
H         5.31459353       2.87978818      14.50583532         0.00000000       0.00000000       0.00000000          1
6
pbc=[F, F, F] list_num_par=6 frozen=false iter=20000 energy=-1.26974174 Lattice="15.00000000 0.00000000 0.00000000 0.00000000 15.00000000 0.00000000 0.00000000 0.00000000 15.00000000" energy_frozen_part=0.00000000 Properties=species:S:1:pos:R:3:velocities:R:3:Z:I:1
H         6.49430906       0.34982530      14.39541676         0.00000000       0.00000000       0.00000000          1
H         8.07540609       2.64011952      14.15256892         0.00000000       0.00000000       0.00000000          1
H         7.64888743       0.99564290      11.93489508         0.00000000       0.00000000       0.00000000          1
H         6.46917629       3.52553955      12.04535325         0.00000000       0.00000000       0.00000000          1
H         4.88808288       1.23524704      12.28820807         0.00000000       0.00000000       0.00000000          1
H         5.31460190       2.87972646      14.50587640         0.00000000       0.00000000       0.00000000          1
6
pbc=[F, F, F] list_num_par=6 frozen=false iter=20000 energy=-1.26974174 Lattice="15.00000000 0.00000000 0.00000000 0.00000000 15.00000000 0.00000000 0.00000000 0.00000000 15.00000000" energy_frozen_part=0.00000000 Properties=species:S:1:pos:R:3:velocities:R:3:Z:I:1
H         6.49450474       0.34996526      14.39554307         0.00000000       0.00000000       0.00000000          1
H         8.07548150       2.64035614      14.15283353         0.00000000       0.00000000       0.00000000          1
H         7.64929557       0.99582623      11.93513822         0.00000000       0.00000000       0.00000000          1
H         6.46942312       3.52564689      12.04543680         0.00000000       0.00000000       0.00000000          1
H         4.88843663       1.23525899      12.28814922         0.00000000       0.00000000       0.00000000          1
H         5.31462500       2.87978757      14.50584243         0.00000000       0.00000000       0.00000000          1
6
pbc=[F, F, F] list_num_par=6 frozen=false iter=20000 energy=-1.26974174 Lattice="15.00000000 0.00000000 0.00000000 0.00000000 15.00000000 0.00000000 0.00000000 0.00000000 15.00000000" energy_frozen_part=0.00000000 Properties=species:S:1:pos:R:3:velocities:R:3:Z:I:1
H         6.24494856       0.45553345      14.66543044         0.00000000       0.00000000       0.00000000          1
H         7.77634714       2.77038556      14.34829612         0.00000000       0.00000000       0.00000000          1
H         7.81152165       0.79133639      12.37689980         0.00000000       0.00000000       0.00000000          1
H         6.55832279       3.23774553      11.87801952         0.00000000       0.00000000       0.00000000          1
H         5.02693055       0.92289859      12.19515072         0.00000000       0.00000000       0.00000000          1
H         4.99175786       2.90194393      14.16655321         0.00000000       0.00000000       0.00000000          1
6
pbc=[F, F, F] list_num_par=6 frozen=false iter=20000 energy=-1.26974174 Lattice="15.00000000 0.00000000 0.00000000 0.00000000 15.00000000 0.00000000 0.00000000 0.00000000 15.00000000" energy_frozen_part=0.00000000 Properties=species:S:1:pos:R:3:velocities:R:3:Z:I:1
H         6.49482882       0.35034729      14.39539591         0.00000000       0.00000000       0.00000000          1
H         8.07545768       2.64094821      14.15240844         0.00000000       0.00000000       0.00000000          1
H         7.64939928       0.99616343      11.93487244         0.00000000       0.00000000       0.00000000          1
H         6.46915844       3.52581962      12.04502176         0.00000000       0.00000000       0.00000000          1
H         4.88852520       1.23522038      12.28801403         0.00000000       0.00000000       0.00000000          1
H         5.31457958       2.88000421      14.50554131         0.00000000       0.00000000       0.00000000          1
6
pbc=[F, F, F] list_num_par=6 frozen=false iter=20000 energy=-1.26974174 Lattice="15.00000000 0.00000000 0.00000000 0.00000000 15.00000000 0.00000000 0.00000000 0.00000000 15.00000000" energy_frozen_part=0.00000000 Properties=species:S:1:pos:R:3:velocities:R:3:Z:I:1
H         6.49447560       0.34996797      14.39552972         0.00000000       0.00000000       0.00000000          1
H         8.07544434       2.64036865      14.15284499         0.00000000       0.00000000       0.00000000          1
H         7.64930657       0.99583300      11.93514359         0.00000000       0.00000000       0.00000000          1
H         6.46941260       3.52565059      12.04543235         0.00000000       0.00000000       0.00000000          1
H         4.88843966       1.23525721      12.28811374         0.00000000       0.00000000       0.00000000          1
H         5.31458258       2.87978282      14.50582048         0.00000000       0.00000000       0.00000000          1
6
pbc=[F, F, F] list_num_par=6 frozen=false iter=20000 energy=-1.26974174 Lattice="15.00000000 0.00000000 0.00000000 0.00000000 15.00000000 0.00000000 0.00000000 0.00000000 15.00000000" energy_frozen_part=0.00000000 Properties=species:S:1:pos:R:3:velocities:R:3:Z:I:1
H         6.49480147       0.35037407      14.39542379         0.00000000       0.00000000       0.00000000          1
H         8.07540539       2.64098994      14.15238792         0.00000000       0.00000000       0.00000000          1
H         7.64938963       0.99614208      11.93489503         0.00000000       0.00000000       0.00000000          1
H         6.46911052       3.52579224      12.04496192         0.00000000       0.00000000       0.00000000          1
H         4.88850852       1.23517568      12.28799640         0.00000000       0.00000000       0.00000000          1
H         5.31452378       2.88002529      14.50548585         0.00000000       0.00000000       0.00000000          1
6
pbc=[F, F, F] list_num_par=6 frozen=false iter=20000 energy=-1.26974174 Lattice="15.00000000 0.00000000 0.00000000 0.00000000 15.00000000 0.00000000 0.00000000 0.00000000 15.00000000" energy_frozen_part=0.00000000 Properties=species:S:1:pos:R:3:velocities:R:3:Z:I:1
H         6.24495272       0.45552409      14.66543137         0.00000000       0.00000000       0.00000000          1
H         7.77634291       2.77037875      14.34830411         0.00000000       0.00000000       0.00000000          1
H         7.81150834       0.79134605      12.37689291         0.00000000       0.00000000       0.00000000          1
H         6.55830944       3.23775118      11.87803067         0.00000000       0.00000000       0.00000000          1
H         5.02691781       0.92289311      12.19515884         0.00000000       0.00000000       0.00000000          1
H         4.99175245       2.90193593      14.16657079         0.00000000       0.00000000       0.00000000          1
6
pbc=[F, F, F] list_num_par=6 frozen=false iter=20000 energy=-1.26974174 Lattice="15.00000000 0.00000000 0.00000000 0.00000000 15.00000000 0.00000000 0.00000000 0.00000000 15.00000000" energy_frozen_part=0.00000000 Properties=species:S:1:pos:R:3:velocities:R:3:Z:I:1
H         6.24497293       0.45555732      14.66543629         0.00000000       0.00000000       0.00000000          1
H         7.77634542       2.77041538      14.34826089         0.00000000       0.00000000       0.00000000          1
H         7.81151717       0.79134080      12.37688825         0.00000000       0.00000000       0.00000000          1
H         6.55829978       3.23773233      11.87798508         0.00000000       0.00000000       0.00000000          1
H         5.02692322       0.92286873      12.19516170         0.00000000       0.00000000       0.00000000          1
H         4.99174927       2.90194415      14.16653698         0.00000000       0.00000000       0.00000000          1
6
pbc=[F, F, F] list_num_par=6 frozen=false iter=20000 energy=-1.26974174 Lattice="15.00000000 0.00000000 0.00000000 0.00000000 15.00000000 0.00000000 0.00000000 0.00000000 15.00000000" energy_frozen_part=0.00000000 Properties=species:S:1:pos:R:3:velocities:R:3:Z:I:1
H         6.49442191       0.34980111      14.39535874         0.00000000       0.00000000       0.00000000          1
H         8.07544757       2.64015429      14.15262750         0.00000000       0.00000000       0.00000000          1
H         7.64900152       0.99575853      11.93488430         0.00000000       0.00000000       0.00000000          1
H         6.46921208       3.52561060      12.04543313         0.00000000       0.00000000       0.00000000          1
H         4.88818335       1.23526226      12.28817018         0.00000000       0.00000000       0.00000000          1
H         5.31463135       2.87965517      14.50591294         0.00000000       0.00000000       0.00000000          1
6
pbc=[F, F, F] list_num_par=6 frozen=false iter=20000 energy=-1.26974174 Lattice="15.00000000 0.00000000 0.00000000 0.00000000 15.00000000 0.00000000 0.00000000 0.00000000 15.00000000" energy_frozen_part=0.00000000 Properties=species:S:1:pos:R:3:velocities:R:3:Z:I:1
H         6.24495978       0.45554027      14.66542989         0.00000000       0.00000000       0.00000000          1
H         7.77632658       2.77040431      14.34825346         0.00000000       0.00000000       0.00000000          1
H         7.81150020       0.79133768      12.37687631         0.00000000       0.00000000       0.00000000          1
H         6.55827562       3.23772648      11.87798278         0.00000000       0.00000000       0.00000000          1
H         5.02690100       0.92286576      12.19516233         0.00000000       0.00000000       0.00000000          1
H         4.99173539       2.90193352      14.16653795         0.00000000       0.00000000       0.00000000          1
6
pbc=[F, F, F] list_num_par=6 frozen=false iter=20000 energy=-1.26974174 Lattice="15.00000000 0.00000000 0.00000000 0.00000000 15.00000000 0.00000000 0.00000000 0.00000000 15.00000000" energy_frozen_part=0.00000000 Properties=species:S:1:pos:R:3:velocities:R:3:Z:I:1
H         6.49449245       0.34996670      14.39555124         0.00000000       0.00000000       0.00000000          1
H         8.07547511       2.64035454      14.15283592         0.00000000       0.00000000       0.00000000          1
H         7.64930028       0.99581339      11.93515035         0.00000000       0.00000000       0.00000000          1
H         6.46942283       3.52564198      12.04543644         0.00000000       0.00000000       0.00000000          1
H         4.88843806       1.23525681      12.28815162         0.00000000       0.00000000       0.00000000          1
H         5.31461872       2.87979032      14.50584152         0.00000000       0.00000000       0.00000000          1
6
pbc=[F, F, F] list_num_par=6 frozen=false iter=20000 energy=-1.26974174 Lattice="15.00000000 0.00000000 0.00000000 0.00000000 15.00000000 0.00000000 0.00000000 0.00000000 15.00000000" energy_frozen_part=0.00000000 Properties=species:S:1:pos:R:3:velocities:R:3:Z:I:1
H         6.49449763       0.34996168      14.39555801         0.00000000       0.00000000       0.00000000          1
H         8.07548044       2.64034525      14.15284756         0.00000000       0.00000000       0.00000000          1
H         7.64929547       0.99581744      11.93515177         0.00000000       0.00000000       0.00000000          1
H         6.46942450       3.52564516      12.04545009         0.00000000       0.00000000       0.00000000          1
H         4.88844338       1.23525696      12.28816428         0.00000000       0.00000000       0.00000000          1
H         5.31462275       2.87978763      14.50585736         0.00000000       0.00000000       0.00000000          1
6
pbc=[F, F, F] list_num_par=6 frozen=false iter=20000 energy=-1.26974174 Lattice="15.00000000 0.00000000 0.00000000 0.00000000 15.00000000 0.00000000 0.00000000 0.00000000 15.00000000" energy_frozen_part=0.00000000 Properties=species:S:1:pos:R:3:velocities:R:3:Z:I:1
H         6.49480716       0.35037605      14.39541991         0.00000000       0.00000000       0.00000000          1
H         8.07540891       2.64098878      14.15238286         0.00000000       0.00000000       0.00000000          1
H         7.64939544       0.99614344      11.93489208         0.00000000       0.00000000       0.00000000          1
H         6.46911182       3.52578497      12.04495890         0.00000000       0.00000000       0.00000000          1
H         4.88851027       1.23517350      12.28799808         0.00000000       0.00000000       0.00000000          1
H         5.31453185       2.88002191      14.50549274         0.00000000       0.00000000       0.00000000          1
6
pbc=[F, F, F] list_num_par=6 frozen=false iter=20000 energy=-1.26974174 Lattice="15.00000000 0.00000000 0.00000000 0.00000000 15.00000000 0.00000000 0.00000000 0.00000000 15.00000000" energy_frozen_part=0.00000000 Properties=species:S:1:pos:R:3:velocities:R:3:Z:I:1
H         6.49447359       0.34996448      14.39553162         0.00000000       0.00000000       0.00000000          1
H         8.07544688       2.64036547      14.15284398         0.00000000       0.00000000       0.00000000          1
H         7.64930719       0.99583419      11.93514611         0.00000000       0.00000000       0.00000000          1
H         6.46941515       3.52565175      12.04542559         0.00000000       0.00000000       0.00000000          1
H         4.88844162       1.23525810      12.28811251         0.00000000       0.00000000       0.00000000          1
H         5.31458575       2.87978659      14.50581686         0.00000000       0.00000000       0.00000000          1
6
pbc=[F, F, F] list_num_par=6 frozen=false iter=20000 energy=-1.26974174 Lattice="15.00000000 0.00000000 0.00000000 0.00000000 15.00000000 0.00000000 0.00000000 0.00000000 15.00000000" energy_frozen_part=0.00000000 Properties=species:S:1:pos:R:3:velocities:R:3:Z:I:1
H         6.49440027       0.34991163      14.39560704         0.00000000       0.00000000       0.00000000          1
H         8.07537981       2.64029536      14.15288588         0.00000000       0.00000000       0.00000000          1
H         7.64920365       0.99575174      11.93519959         0.00000000       0.00000000       0.00000000          1
H         6.46932325       3.52557082      12.04548298         0.00000000       0.00000000       0.00000000          1
H         4.88834209       1.23519073      12.28820416         0.00000000       0.00000000       0.00000000          1
H         5.31451797       2.87973327      14.50589151         0.00000000       0.00000000       0.00000000          1
6
pbc=[F, F, F] list_num_par=6 frozen=false iter=20000 energy=-1.26974174 Lattice="15.00000000 0.00000000 0.00000000 0.00000000 15.00000000 0.00000000 0.00000000 0.00000000 15.00000000" energy_frozen_part=0.00000000 Properties=species:S:1:pos:R:3:velocities:R:3:Z:I:1
H         6.49448932       0.34995375      14.39554580         0.00000000       0.00000000       0.00000000          1
H         8.07546561       2.64034066      14.15281677         0.00000000       0.00000000       0.00000000          1
H         7.64926212       0.99580692      11.93512774         0.00000000       0.00000000       0.00000000          1
H         6.46939030       3.52563501      12.04543295         0.00000000       0.00000000       0.00000000          1
H         4.88841148       1.23524897      12.28816767         0.00000000       0.00000000       0.00000000          1
H         5.31461446       2.87978160      14.50585588         0.00000000       0.00000000       0.00000000          1
6
pbc=[F, F, F] list_num_par=6 frozen=false iter=20000 energy=-1.26974174 Lattice="15.00000000 0.00000000 0.00000000 0.00000000 15.00000000 0.00000000 0.00000000 0.00000000 15.00000000" energy_frozen_part=0.00000000 Properties=species:S:1:pos:R:3:velocities:R:3:Z:I:1
H         6.49483296       0.35038099      14.39542081         0.00000000       0.00000000       0.00000000          1
H         8.07542962       2.64099785      14.15236327         0.00000000       0.00000000       0.00000000          1
H         7.64939501       0.99613942      11.93487966         0.00000000       0.00000000       0.00000000          1
H         6.46911256       3.52578512      12.04495484         0.00000000       0.00000000       0.00000000          1
H         4.88852071       1.23517039      12.28801396         0.00000000       0.00000000       0.00000000          1
H         5.31455256       2.88002437      14.50549776         0.00000000       0.00000000       0.00000000          1
6
pbc=[F, F, F] list_num_par=6 frozen=false iter=20000 energy=-1.26974174 Lattice="15.00000000 0.00000000 0.00000000 0.00000000 15.00000000 0.00000000 0.00000000 0.00000000 15.00000000" energy_frozen_part=0.00000000 Properties=species:S:1:pos:R:3:velocities:R:3:Z:I:1
H         6.49449179       0.34995388      14.39553218         0.00000000       0.00000000       0.00000000          1
H         8.07546969       2.64034162      14.15281369         0.00000000       0.00000000       0.00000000          1
H         7.64927493       0.99580883      11.93511895         0.00000000       0.00000000       0.00000000          1
H         6.46939367       3.52562676      12.04542468         0.00000000       0.00000000       0.00000000          1
H         4.88841872       1.23524208      12.28814773         0.00000000       0.00000000       0.00000000          1
H         5.31460924       2.87977470      14.50583755         0.00000000       0.00000000       0.00000000          1
6
pbc=[F, F, F] list_num_par=6 frozen=false iter=20000 energy=-1.26974174 Lattice="15.00000000 0.00000000 0.00000000 0.00000000 15.00000000 0.00000000 0.00000000 0.00000000 15.00000000" energy_frozen_part=0.00000000 Properties=species:S:1:pos:R:3:velocities:R:3:Z:I:1
H         6.49477070       0.35039489      14.39538707         0.00000000       0.00000000       0.00000000          1
H         8.07538316       2.64101039      14.15242744         0.00000000       0.00000000       0.00000000          1
H         7.64937334       0.99622638      11.93488657         0.00000000       0.00000000       0.00000000          1
H         6.46910464       3.52587190      12.04501509         0.00000000       0.00000000       0.00000000          1
H         4.88849396       1.23525225      12.28798007         0.00000000       0.00000000       0.00000000          1
H         5.31449758       2.88004146      14.50551649         0.00000000       0.00000000       0.00000000          1
6
pbc=[F, F, F] list_num_par=6 frozen=false iter=20000 energy=-1.26974174 Lattice="15.00000000 0.00000000 0.00000000 0.00000000 15.00000000 0.00000000 0.00000000 0.00000000 15.00000000" energy_frozen_part=0.00000000 Properties=species:S:1:pos:R:3:velocities:R:3:Z:I:1
H         6.24495279       0.45552595      14.66542731         0.00000000       0.00000000       0.00000000          1
H         7.77635242       2.77037999      14.34830244         0.00000000       0.00000000       0.00000000          1
H         7.81152272       0.79133483      12.37689746         0.00000000       0.00000000       0.00000000          1
H         6.55832341       3.23774071      11.87802288         0.00000000       0.00000000       0.00000000          1
H         5.02693119       0.92288671      12.19514943         0.00000000       0.00000000       0.00000000          1
H         4.99175947       2.90193577      14.16655435         0.00000000       0.00000000       0.00000000          1
6
pbc=[F, F, F] list_num_par=6 frozen=false iter=20000 energy=-1.26974174 Lattice="15.00000000 0.00000000 0.00000000 0.00000000 15.00000000 0.00000000 0.00000000 0.00000000 15.00000000" energy_frozen_part=0.00000000 Properties=species:S:1:pos:R:3:velocities:R:3:Z:I:1
H         6.49447413       0.34995178      14.39554547         0.00000000       0.00000000       0.00000000          1
H         8.07546950       2.64032958      14.15281493         0.00000000       0.00000000       0.00000000          1
H         7.64926295       0.99579710      11.93512907         0.00000000       0.00000000       0.00000000          1
H         6.46939803       3.52562671      12.04543226         0.00000000       0.00000000       0.00000000          1
H         4.88840672       1.23524552      12.28815763         0.00000000       0.00000000       0.00000000          1
H         5.31461082       2.87977821      14.50584796         0.00000000       0.00000000       0.00000000          1
6
pbc=[F, F, F] list_num_par=6 frozen=false iter=20000 energy=-1.26974174 Lattice="15.00000000 0.00000000 0.00000000 0.00000000 15.00000000 0.00000000 0.00000000 0.00000000 15.00000000" energy_frozen_part=0.00000000 Properties=species:S:1:pos:R:3:velocities:R:3:Z:I:1
H         6.49481382       0.35037603      14.39541150         0.00000000       0.00000000       0.00000000          1
H         8.07542299       2.64098976      14.15237430         0.00000000       0.00000000       0.00000000          1
H         7.64940497       0.99614117      11.93488230         0.00000000       0.00000000       0.00000000          1
H         6.46912482       3.52578742      12.04494807         0.00000000       0.00000000       0.00000000          1
H         4.88852145       1.23517601      12.28798557         0.00000000       0.00000000       0.00000000          1
H         5.31454364       2.88002221      14.50548034         0.00000000       0.00000000       0.00000000          1
6
pbc=[F, F, F] list_num_par=6 frozen=false iter=20000 energy=-1.26974174 Lattice="15.00000000 0.00000000 0.00000000 0.00000000 15.00000000 0.00000000 0.00000000 0.00000000 15.00000000" energy_frozen_part=0.00000000 Properties=species:S:1:pos:R:3:velocities:R:3:Z:I:1
H         6.49443369       0.34979848      14.39536612         0.00000000       0.00000000       0.00000000          1
H         8.07546075       2.64015707      14.15263946         0.00000000       0.00000000       0.00000000          1
H         7.64906062       0.99574003      11.93490066         0.00000000       0.00000000       0.00000000          1
H         6.46925972       3.52559007      12.04541105         0.00000000       0.00000000       0.00000000          1
H         4.88823335       1.23523537      12.28813396         0.00000000       0.00000000       0.00000000          1
H         5.31463443       2.87965319      14.50587318         0.00000000       0.00000000       0.00000000          1
6
pbc=[F, F, F] list_num_par=6 frozen=false iter=20000 energy=-1.26974174 Lattice="15.00000000 0.00000000 0.00000000 0.00000000 15.00000000 0.00000000 0.00000000 0.00000000 15.00000000" energy_frozen_part=0.00000000 Properties=species:S:1:pos:R:3:velocities:R:3:Z:I:1
H         6.49442713       0.34980268      14.39544307         0.00000000       0.00000000       0.00000000          1
H         8.07549085       2.64012359      14.15264910         0.00000000       0.00000000       0.00000000          1
H         7.64896822       0.99571156      11.93493015         0.00000000       0.00000000       0.00000000          1
H         6.46922727       3.52559311      12.04548558         0.00000000       0.00000000       0.00000000          1
H         4.88816731       1.23527247      12.28827855         0.00000000       0.00000000       0.00000000          1
H         5.31468984       2.87968023      14.50599786         0.00000000       0.00000000       0.00000000          1
6
pbc=[F, F, F] list_num_par=6 frozen=false iter=20000 energy=-1.26974174 Lattice="15.00000000 0.00000000 0.00000000 0.00000000 15.00000000 0.00000000 0.00000000 0.00000000 15.00000000" energy_frozen_part=0.00000000 Properties=species:S:1:pos:R:3:velocities:R:3:Z:I:1
H         6.49444776       0.34995223      14.39555686         0.00000000       0.00000000       0.00000000          1
H         8.07542240       2.64034509      14.15287797         0.00000000       0.00000000       0.00000000          1
H         7.64928584       0.99581712      11.93516868         0.00000000       0.00000000       0.00000000          1
H         6.46939848       3.52563829      12.04545859         0.00000000       0.00000000       0.00000000          1
H         4.88842402       1.23524104      12.28813408         0.00000000       0.00000000       0.00000000          1
H         5.31455354       2.87977271      14.50583993         0.00000000       0.00000000       0.00000000          1
6
pbc=[F, F, F] list_num_par=6 frozen=false iter=20000 energy=-1.26974174 Lattice="15.00000000 0.00000000 0.00000000 0.00000000 15.00000000 0.00000000 0.00000000 0.00000000 15.00000000" energy_frozen_part=0.00000000 Properties=species:S:1:pos:R:3:velocities:R:3:Z:I:1
H         6.49443502       0.34980527      14.39538514         0.00000000       0.00000000       0.00000000          1
H         8.07545509       2.64016135      14.15262774         0.00000000       0.00000000       0.00000000          1
H         7.64904396       0.99572447      11.93490455         0.00000000       0.00000000       0.00000000          1
H         6.46924946       3.52557835      12.04539497         0.00000000       0.00000000       0.00000000          1
H         4.88822394       1.23522206      12.28815469         0.00000000       0.00000000       0.00000000          1
H         5.31463277       2.87965942      14.50587403         0.00000000       0.00000000       0.00000000          1
6
pbc=[F, F, F] list_num_par=6 frozen=false iter=20000 energy=-1.26974174 Lattice="15.00000000 0.00000000 0.00000000 0.00000000 15.00000000 0.00000000 0.00000000 0.00000000 15.00000000" energy_frozen_part=0.00000000 Properties=species:S:1:pos:R:3:velocities:R:3:Z:I:1
H         6.49445204       0.34994631      14.39555840         0.00000000       0.00000000       0.00000000          1
H         8.07542639       2.64034618      14.15288566         0.00000000       0.00000000       0.00000000          1
H         7.64929695       0.99582420      11.93517692         0.00000000       0.00000000       0.00000000          1
H         6.46939634       3.52563493      12.04546466         0.00000000       0.00000000       0.00000000          1
H         4.88842807       1.23523713      12.28813712         0.00000000       0.00000000       0.00000000          1
H         5.31456245       2.87976536      14.50584583         0.00000000       0.00000000       0.00000000          1
6
pbc=[F, F, F] list_num_par=6 frozen=false iter=20000 energy=-1.26974174 Lattice="15.00000000 0.00000000 0.00000000 0.00000000 15.00000000 0.00000000 0.00000000 0.00000000 15.00000000" energy_frozen_part=0.00000000 Properties=species:S:1:pos:R:3:velocities:R:3:Z:I:1
H         6.49447669       0.34997414      14.39553757         0.00000000       0.00000000       0.00000000          1
H         8.07545264       2.64036550      14.15284781         0.00000000       0.00000000       0.00000000          1
H         7.64930224       0.99583242      11.93514628         0.00000000       0.00000000       0.00000000          1
H         6.46941239       3.52564766      12.04543573         0.00000000       0.00000000       0.00000000          1
H         4.88844068       1.23525595      12.28812103         0.00000000       0.00000000       0.00000000          1
H         5.31458513       2.87978857      14.50582438         0.00000000       0.00000000       0.00000000          1
6
pbc=[F, F, F] list_num_par=6 frozen=false iter=20000 energy=-1.26974174 Lattice="15.00000000 0.00000000 0.00000000 0.00000000 15.00000000 0.00000000 0.00000000 0.00000000 15.00000000" energy_frozen_part=0.00000000 Properties=species:S:1:pos:R:3:velocities:R:3:Z:I:1
H         6.49476453       0.35038546      14.39538526         0.00000000       0.00000000       0.00000000          1
H         8.07538535       2.64100049      14.15242802         0.00000000       0.00000000       0.00000000          1
H         7.64937491       0.99622183      11.93488184         0.00000000       0.00000000       0.00000000          1
H         6.46911151       3.52587194      12.04502080         0.00000000       0.00000000       0.00000000          1
H         4.88848969       1.23526086      12.28797937         0.00000000       0.00000000       0.00000000          1
H         5.31450393       2.88003640      14.50552474         0.00000000       0.00000000       0.00000000          1
6
pbc=[F, F, F] list_num_par=6 frozen=false iter=20000 energy=-1.26974174 Lattice="15.00000000 0.00000000 0.00000000 0.00000000 15.00000000 0.00000000 0.00000000 0.00000000 15.00000000" energy_frozen_part=0.00000000 Properties=species:S:1:pos:R:3:velocities:R:3:Z:I:1
H         6.49443696       0.34979137      14.39535799         0.00000000       0.00000000       0.00000000          1
H         8.07545149       2.64015142      14.15263157         0.00000000       0.00000000       0.00000000          1
H         7.64903462       0.99574539      11.93488613         0.00000000       0.00000000       0.00000000          1
H         6.46924050       3.52559767      12.04542048         0.00000000       0.00000000       0.00000000          1
H         4.88821593       1.23523766      12.28814879         0.00000000       0.00000000       0.00000000          1
H         5.31463056       2.87964196      14.50589040         0.00000000       0.00000000       0.00000000          1
6
pbc=[F, F, F] list_num_par=6 frozen=false iter=20000 energy=-1.26974174 Lattice="15.00000000 0.00000000 0.00000000 0.00000000 15.00000000 0.00000000 0.00000000 0.00000000 15.00000000" energy_frozen_part=0.00000000 Properties=species:S:1:pos:R:3:velocities:R:3:Z:I:1
H         6.24495057       0.45553782      14.66542871         0.00000000       0.00000000       0.00000000          1
H         7.77634958       2.77038847      14.34830041         0.00000000       0.00000000       0.00000000          1
H         7.81152286       0.79134669      12.37689738         0.00000000       0.00000000       0.00000000          1
H         6.55832590       3.23775211      11.87802013         0.00000000       0.00000000       0.00000000          1
H         5.02692787       0.92290395      12.19515129         0.00000000       0.00000000       0.00000000          1
H         4.99175515       2.90194950      14.16655415         0.00000000       0.00000000       0.00000000          1
6
pbc=[F, F, F] list_num_par=6 frozen=false iter=20000 energy=-1.26974174 Lattice="15.00000000 0.00000000 0.00000000 0.00000000 15.00000000 0.00000000 0.00000000 0.00000000 15.00000000" energy_frozen_part=0.00000000 Properties=species:S:1:pos:R:3:velocities:R:3:Z:I:1
H         6.24496910       0.45553955      14.66542767         0.00000000       0.00000000       0.00000000          1
H         7.77633612       2.77040821      14.34825630         0.00000000       0.00000000       0.00000000          1
H         7.81150854       0.79134579      12.37687345         0.00000000       0.00000000       0.00000000          1
H         6.55828314       3.23773070      11.87798360         0.00000000       0.00000000       0.00000000          1
H         5.02691080       0.92286639      12.19515954         0.00000000       0.00000000       0.00000000          1
H         4.99174164       2.90193102      14.16653955         0.00000000       0.00000000       0.00000000          1
6
pbc=[F, F, F] list_num_par=6 frozen=false iter=20000 energy=-1.26974174 Lattice="15.00000000 0.00000000 0.00000000 0.00000000 15.00000000 0.00000000 0.00000000 0.00000000 15.00000000" energy_frozen_part=0.00000000 Properties=species:S:1:pos:R:3:velocities:R:3:Z:I:1
H         6.49483285       0.35034885      14.39539294         0.00000000       0.00000000       0.00000000          1
H         8.07545762       2.64094754      14.15240789         0.00000000       0.00000000       0.00000000          1
H         7.64941043       0.99616784      11.93487283         0.00000000       0.00000000       0.00000000          1
H         6.46915767       3.52582051      12.04501927         0.00000000       0.00000000       0.00000000          1
H         4.88853260       1.23521634      12.28800406         0.00000000       0.00000000       0.00000000          1
H         5.31458166       2.88000724      14.50553823         0.00000000       0.00000000       0.00000000          1
6
pbc=[F, F, F] list_num_par=6 frozen=false iter=20000 energy=-1.26974174 Lattice="15.00000000 0.00000000 0.00000000 0.00000000 15.00000000 0.00000000 0.00000000 0.00000000 15.00000000" energy_frozen_part=0.00000000 Properties=species:S:1:pos:R:3:velocities:R:3:Z:I:1
H         6.24496248       0.45552968      14.66543892         0.00000000       0.00000000       0.00000000          1
H         7.77635215       2.77037906      14.34829188         0.00000000       0.00000000       0.00000000          1
H         7.81152026       0.79132808      12.37689835         0.00000000       0.00000000       0.00000000          1
H         6.55832805       3.23773265      11.87801482         0.00000000       0.00000000       0.00000000          1
H         5.02692939       0.92288015      12.19515941         0.00000000       0.00000000       0.00000000          1
H         4.99176062       2.90193370      14.16655019         0.00000000       0.00000000       0.00000000          1
6
pbc=[F, F, F] list_num_par=6 frozen=false iter=20000 energy=-1.26974174 Lattice="15.00000000 0.00000000 0.00000000 0.00000000 15.00000000 0.00000000 0.00000000 0.00000000 15.00000000" energy_frozen_part=0.00000000 Properties=species:S:1:pos:R:3:velocities:R:3:Z:I:1
H         6.49481185       0.35038495      14.39541594         0.00000000       0.00000000       0.00000000          1
H         8.07541436       2.64099492      14.15237507         0.00000000       0.00000000       0.00000000          1
H         7.64938813       0.99615125      11.93487959         0.00000000       0.00000000       0.00000000          1
H         6.46911219       3.52579438      12.04495741         0.00000000       0.00000000       0.00000000          1
H         4.88850860       1.23518325      12.28800504         0.00000000       0.00000000       0.00000000          1
H         5.31453582       2.88003304      14.50549469         0.00000000       0.00000000       0.00000000          1
6
pbc=[F, F, F] list_num_par=6 frozen=false iter=20000 energy=-1.26974174 Lattice="15.00000000 0.00000000 0.00000000 0.00000000 15.00000000 0.00000000 0.00000000 0.00000000 15.00000000" energy_frozen_part=0.00000000 Properties=species:S:1:pos:R:3:velocities:R:3:Z:I:1
H         6.49443445       0.34979490      14.39537041         0.00000000       0.00000000       0.00000000          1
H         8.07545694       2.64014843      14.15263629         0.00000000       0.00000000       0.00000000          1
H         7.64904770       0.99573107      11.93489933         0.00000000       0.00000000       0.00000000          1
H         6.46924975       3.52558268      12.04540800         0.00000000       0.00000000       0.00000000          1
H         4.88822742       1.23523125      12.28814931         0.00000000       0.00000000       0.00000000          1
H         5.31463737       2.87964773      14.50588470         0.00000000       0.00000000       0.00000000          1
6
pbc=[F, F, F] list_num_par=6 frozen=false iter=20000 energy=-1.26974174 Lattice="15.00000000 0.00000000 0.00000000 0.00000000 15.00000000 0.00000000 0.00000000 0.00000000 15.00000000" energy_frozen_part=0.00000000 Properties=species:S:1:pos:R:3:velocities:R:3:Z:I:1
H         6.49447310       0.34997431      14.39553305         0.00000000       0.00000000       0.00000000          1
H         8.07544796       2.64036938      14.15283660         0.00000000       0.00000000       0.00000000          1
H         7.64928883       0.99583251      11.93514200         0.00000000       0.00000000       0.00000000          1
H         6.46940570       3.52565393      12.04542869         0.00000000       0.00000000       0.00000000          1
H         4.88842900       1.23526450      12.28812518         0.00000000       0.00000000       0.00000000          1
H         5.31458899       2.87979657      14.50582230         0.00000000       0.00000000       0.00000000          1
6
pbc=[F, F, F] list_num_par=6 frozen=false iter=20000 energy=-1.26974174 Lattice="15.00000000 0.00000000 0.00000000 0.00000000 15.00000000 0.00000000 0.00000000 0.00000000 15.00000000" energy_frozen_part=0.00000000 Properties=species:S:1:pos:R:3:velocities:R:3:Z:I:1
H         6.49443240       0.34980088      14.39536479         0.00000000       0.00000000       0.00000000          1
H         8.07545994       2.64015562      14.15263734         0.00000000       0.00000000       0.00000000          1
H         7.64906130       0.99574081      11.93490556         0.00000000       0.00000000       0.00000000          1
H         6.46926307       3.52559341      12.04540775         0.00000000       0.00000000       0.00000000          1
H         4.88823796       1.23523470      12.28813257         0.00000000       0.00000000       0.00000000          1
H         5.31463619       2.87965373      14.50586999         0.00000000       0.00000000       0.00000000          1
6
pbc=[F, F, F] list_num_par=6 frozen=false iter=20000 energy=-1.26974174 Lattice="15.00000000 0.00000000 0.00000000 0.00000000 15.00000000 0.00000000 0.00000000 0.00000000 15.00000000" energy_frozen_part=0.00000000 Properties=species:S:1:pos:R:3:velocities:R:3:Z:I:1
H         6.49481456       0.35038236      14.39541996         0.00000000       0.00000000       0.00000000          1
H         8.07541910       2.64098997      14.15237385         0.00000000       0.00000000       0.00000000          1
H         7.64939425       0.99613607      11.93488546         0.00000000       0.00000000       0.00000000          1
H         6.46912208       3.52578812      12.04494884         0.00000000       0.00000000       0.00000000          1
H         4.88851949       1.23517508      12.28799798         0.00000000       0.00000000       0.00000000          1
H         5.31453883       2.88003268      14.50548020         0.00000000       0.00000000       0.00000000          1
6
pbc=[F, F, F] list_num_par=6 frozen=false iter=20000 energy=-1.26974174 Lattice="15.00000000 0.00000000 0.00000000 0.00000000 15.00000000 0.00000000 0.00000000 0.00000000 15.00000000" energy_frozen_part=0.00000000 Properties=species:S:1:pos:R:3:velocities:R:3:Z:I:1
H         6.49431406       0.34982018      14.39541843         0.00000000       0.00000000       0.00000000          1
H         8.07540332       2.64012079      14.15258060         0.00000000       0.00000000       0.00000000          1
H         7.64889642       0.99564927      11.93490172         0.00000000       0.00000000       0.00000000          1
H         6.46918509       3.52554273      12.04536699         0.00000000       0.00000000       0.00000000          1
H         4.88808816       1.23524363      12.28820060         0.00000000       0.00000000       0.00000000          1
H         5.31459715       2.87971237      14.50587882         0.00000000       0.00000000       0.00000000          1
6
pbc=[F, F, F] list_num_par=6 frozen=false iter=20000 energy=-1.26974174 Lattice="15.00000000 0.00000000 0.00000000 0.00000000 15.00000000 0.00000000 0.00000000 0.00000000 15.00000000" energy_frozen_part=0.00000000 Properties=species:S:1:pos:R:3:velocities:R:3:Z:I:1
H         6.49448351       0.34995742      14.39554459         0.00000000       0.00000000       0.00000000          1
H         8.07547006       2.64033622      14.15281670         0.00000000       0.00000000       0.00000000          1
H         7.64926811       0.99580237      11.93512881         0.00000000       0.00000000       0.00000000          1
H         6.46939519       3.52563437      12.04543355         0.00000000       0.00000000       0.00000000          1
H         4.88841318       1.23524980      12.28816122         0.00000000       0.00000000       0.00000000          1
H         5.31461732       2.87978452      14.50585227         0.00000000       0.00000000       0.00000000          1
6
pbc=[F, F, F] list_num_par=6 frozen=false iter=20000 energy=-1.26974174 Lattice="15.00000000 0.00000000 0.00000000 0.00000000 15.00000000 0.00000000 0.00000000 0.00000000 15.00000000" energy_frozen_part=0.00000000 Properties=species:S:1:pos:R:3:velocities:R:3:Z:I:1
H         6.49443629       0.34980108      14.39535939         0.00000000       0.00000000       0.00000000          1
H         8.07546905       2.64014502      14.15262571         0.00000000       0.00000000       0.00000000          1
H         7.64905662       0.99573167      11.93488816         0.00000000       0.00000000       0.00000000          1
H         6.46926734       3.52558875      12.04540407         0.00000000       0.00000000       0.00000000          1
H         4.88823453       1.23524389      12.28813534         0.00000000       0.00000000       0.00000000          1
H         5.31464618       2.87966033      14.50587061         0.00000000       0.00000000       0.00000000          1
6
pbc=[F, F, F] list_num_par=6 frozen=false iter=20000 energy=-1.26974174 Lattice="15.00000000 0.00000000 0.00000000 0.00000000 15.00000000 0.00000000 0.00000000 0.00000000 15.00000000" energy_frozen_part=0.00000000 Properties=species:S:1:pos:R:3:velocities:R:3:Z:I:1
H         6.49446289       0.34996391      14.39548490         0.00000000       0.00000000       0.00000000          1
H         8.07548512       2.64032281      14.15278080         0.00000000       0.00000000       0.00000000          1
H         7.64924129       0.99582846      11.93507574         0.00000000       0.00000000       0.00000000          1
H         6.46941229       3.52566946      12.04541648         0.00000000       0.00000000       0.00000000          1
H         4.88838803       1.23531014      12.28812456         0.00000000       0.00000000       0.00000000          1
H         5.31463820       2.87981108      14.50583063         0.00000000       0.00000000       0.00000000          1
6
pbc=[F, F, F] list_num_par=6 frozen=false iter=20000 energy=-1.26974174 Lattice="15.00000000 0.00000000 0.00000000 0.00000000 15.00000000 0.00000000 0.00000000 0.00000000 15.00000000" energy_frozen_part=0.00000000 Properties=species:S:1:pos:R:3:velocities:R:3:Z:I:1
H         6.49431687       0.34982011      14.39540516         0.00000000       0.00000000       0.00000000          1
H         8.07542214       2.64010848      14.15260256         0.00000000       0.00000000       0.00000000          1
H         7.64890631       0.99567422      11.93489964         0.00000000       0.00000000       0.00000000          1
H         6.46920603       3.52556885      12.04540324         0.00000000       0.00000000       0.00000000          1
H         4.88809968       1.23528023      12.28820244         0.00000000       0.00000000       0.00000000          1
H         5.31461276       2.87971687      14.50590245         0.00000000       0.00000000       0.00000000          1
6
pbc=[F, F, F] list_num_par=6 frozen=false iter=20000 energy=-1.26974174 Lattice="15.00000000 0.00000000 0.00000000 0.00000000 15.00000000 0.00000000 0.00000000 0.00000000 15.00000000" energy_frozen_part=0.00000000 Properties=species:S:1:pos:R:3:velocities:R:3:Z:I:1
H         6.24493967       0.45552523      14.66542401         0.00000000       0.00000000       0.00000000          1
H         7.77633385       2.77037735      14.34829051         0.00000000       0.00000000       0.00000000          1
H         7.81150574       0.79133184      12.37688778         0.00000000       0.00000000       0.00000000          1
H         6.55831039       3.23773551      11.87801131         0.00000000       0.00000000       0.00000000          1
H         5.02691882       0.92288289      12.19514132         0.00000000       0.00000000       0.00000000          1
H         4.99174575       2.90192833      14.16654598         0.00000000       0.00000000       0.00000000          1
6
pbc=[F, F, F] list_num_par=6 frozen=false iter=20000 energy=-1.26974174 Lattice="15.00000000 0.00000000 0.00000000 0.00000000 15.00000000 0.00000000 0.00000000 0.00000000 15.00000000" energy_frozen_part=0.00000000 Properties=species:S:1:pos:R:3:velocities:R:3:Z:I:1
H         6.49450722       0.34997766      14.39554119         0.00000000       0.00000000       0.00000000          1
H         8.07549291       2.64036400      14.15282767         0.00000000       0.00000000       0.00000000          1
H         7.64930307       0.99583177      11.93513369         0.00000000       0.00000000       0.00000000          1
H         6.46942907       3.52565428      12.04543148         0.00000000       0.00000000       0.00000000          1
H         4.88844797       1.23527375      12.28814630         0.00000000       0.00000000       0.00000000          1
H         5.31463475       2.87980120      14.50584212         0.00000000       0.00000000       0.00000000          1
6
pbc=[F, F, F] list_num_par=6 frozen=false iter=20000 energy=-1.26974174 Lattice="15.00000000 0.00000000 0.00000000 0.00000000 15.00000000 0.00000000 0.00000000 0.00000000 15.00000000" energy_frozen_part=0.00000000 Properties=species:S:1:pos:R:3:velocities:R:3:Z:I:1
H         6.49445324       0.34979189      14.39535653         0.00000000       0.00000000       0.00000000          1
H         8.07546984       2.64015253      14.15261496         0.00000000       0.00000000       0.00000000          1
H         7.64905179       0.99573427      11.93488302         0.00000000       0.00000000       0.00000000          1
H         6.46924911       3.52558378      12.04540277         0.00000000       0.00000000       0.00000000          1
H         4.88823040       1.23522021      12.28814926         0.00000000       0.00000000       0.00000000          1
H         5.31464821       2.87964093      14.50587987         0.00000000       0.00000000       0.00000000          1
6
pbc=[F, F, F] list_num_par=6 frozen=false iter=20000 energy=-1.26974174 Lattice="15.00000000 0.00000000 0.00000000 0.00000000 15.00000000 0.00000000 0.00000000 0.00000000 15.00000000" energy_frozen_part=0.00000000 Properties=species:S:1:pos:R:3:velocities:R:3:Z:I:1
H         6.49430939       0.34983044      14.39541511         0.00000000       0.00000000       0.00000000          1
H         8.07539875       2.64012591      14.15256190         0.00000000       0.00000000       0.00000000          1
H         7.64889415       0.99564512      11.93489488         0.00000000       0.00000000       0.00000000          1
H         6.46917621       3.52553845      12.04534610         0.00000000       0.00000000       0.00000000          1
H         4.88808349       1.23524060      12.28819817         0.00000000       0.00000000       0.00000000          1
H         5.31459131       2.87972309      14.50586306         0.00000000       0.00000000       0.00000000          1
6
pbc=[F, F, F] list_num_par=6 frozen=false iter=20000 energy=-1.26974174 Lattice="15.00000000 0.00000000 0.00000000 0.00000000 15.00000000 0.00000000 0.00000000 0.00000000 15.00000000" energy_frozen_part=0.00000000 Properties=species:S:1:pos:R:3:velocities:R:3:Z:I:1
H         6.49430012       0.34983040      14.39541238         0.00000000       0.00000000       0.00000000          1
H         8.07540459       2.64011435      14.15256303         0.00000000       0.00000000       0.00000000          1
H         7.64888548       0.99564177      11.93489581         0.00000000       0.00000000       0.00000000          1
H         6.46918244       3.52553827      12.04534410         0.00000000       0.00000000       0.00000000          1
H         4.88807907       1.23525297      12.28819597         0.00000000       0.00000000       0.00000000          1
H         5.31460073       2.87973104      14.50586749         0.00000000       0.00000000       0.00000000          1
6
pbc=[F, F, F] list_num_par=6 frozen=false iter=20000 energy=-1.26974174 Lattice="15.00000000 0.00000000 0.00000000 0.00000000 15.00000000 0.00000000 0.00000000 0.00000000 15.00000000" energy_frozen_part=0.00000000 Properties=species:S:1:pos:R:3:velocities:R:3:Z:I:1
H         6.24494951       0.45553128      14.66542890         0.00000000       0.00000000       0.00000000          1
H         7.77633844       2.77038583      14.34830294         0.00000000       0.00000000       0.00000000          1
H         7.81150814       0.79134877      12.37689128         0.00000000       0.00000000       0.00000000          1
H         6.55830911       3.23775356      11.87803055         0.00000000       0.00000000       0.00000000          1
H         5.02691436       0.92290509      12.19515630         0.00000000       0.00000000       0.00000000          1
H         4.99175065       2.90193835      14.16656892         0.00000000       0.00000000       0.00000000          1
6
pbc=[F, F, F] list_num_par=6 frozen=false iter=20000 energy=-1.26974174 Lattice="15.00000000 0.00000000 0.00000000 0.00000000 15.00000000 0.00000000 0.00000000 0.00000000 15.00000000" energy_frozen_part=0.00000000 Properties=species:S:1:pos:R:3:velocities:R:3:Z:I:1
H         6.24498148       0.45552444      14.66541417         0.00000000       0.00000000       0.00000000          1
H         7.77635561       2.77038208      14.34825416         0.00000000       0.00000000       0.00000000          1
H         7.81150963       0.79133735      12.37685202         0.00000000       0.00000000       0.00000000          1
H         6.55829257       3.23773589      11.87799790         0.00000000       0.00000000       0.00000000          1
H         5.02691180       0.92287750      12.19515602         0.00000000       0.00000000       0.00000000          1
H         4.99176064       2.90192673      14.16655558         0.00000000       0.00000000       0.00000000          1
6
pbc=[F, F, F] list_num_par=6 frozen=false iter=20000 energy=-1.26974174 Lattice="15.00000000 0.00000000 0.00000000 0.00000000 15.00000000 0.00000000 0.00000000 0.00000000 15.00000000" energy_frozen_part=0.00000000 Properties=species:S:1:pos:R:3:velocities:R:3:Z:I:1
H         6.49448141       0.34996522      14.39553671         0.00000000       0.00000000       0.00000000          1
H         8.07544964       2.64036046      14.15284565         0.00000000       0.00000000       0.00000000          1
H         7.64929481       0.99583190      11.93514177         0.00000000       0.00000000       0.00000000          1
H         6.46940361       3.52565168      12.04543717         0.00000000       0.00000000       0.00000000          1
H         4.88843435       1.23525339      12.28812921         0.00000000       0.00000000       0.00000000          1
H         5.31458657       2.87977988      14.50583625         0.00000000       0.00000000       0.00000000          1
6
pbc=[F, F, F] list_num_par=6 frozen=false iter=20000 energy=-1.26974174 Lattice="15.00000000 0.00000000 0.00000000 0.00000000 15.00000000 0.00000000 0.00000000 0.00000000 15.00000000" energy_frozen_part=0.00000000 Properties=species:S:1:pos:R:3:velocities:R:3:Z:I:1
H         6.49480603       0.35038476      14.39542027         0.00000000       0.00000000       0.00000000          1
H         8.07541193       2.64099621      14.15237294         0.00000000       0.00000000       0.00000000          1
H         7.64939177       0.99614197      11.93488810         0.00000000       0.00000000       0.00000000          1
H         6.46910938       3.52579001      12.04495496         0.00000000       0.00000000       0.00000000          1
H         4.88850798       1.23518032      12.28799788         0.00000000       0.00000000       0.00000000          1
H         5.31453209       2.88003036      14.50549126         0.00000000       0.00000000       0.00000000          1
6
pbc=[F, F, F] list_num_par=6 frozen=false iter=20000 energy=-1.26974174 Lattice="15.00000000 0.00000000 0.00000000 0.00000000 15.00000000 0.00000000 0.00000000 0.00000000 15.00000000" energy_frozen_part=0.00000000 Properties=species:S:1:pos:R:3:velocities:R:3:Z:I:1
H         6.49440015       0.34990736      14.39559993         0.00000000       0.00000000       0.00000000          1
H         8.07538121       2.64029099      14.15287910         0.00000000       0.00000000       0.00000000          1
H         7.64920557       0.99574195      11.93519260         0.00000000       0.00000000       0.00000000          1
H         6.46932937       3.52556747      12.04547364         0.00000000       0.00000000       0.00000000          1
H         4.88834682       1.23518726      12.28819560         0.00000000       0.00000000       0.00000000          1
H         5.31451881       2.87973250      14.50588283         0.00000000       0.00000000       0.00000000          1
6
pbc=[F, F, F] list_num_par=6 frozen=false iter=20000 energy=-1.26974174 Lattice="15.00000000 0.00000000 0.00000000 0.00000000 15.00000000 0.00000000 0.00000000 0.00000000 15.00000000" energy_frozen_part=0.00000000 Properties=species:S:1:pos:R:3:velocities:R:3:Z:I:1
H         6.49442463       0.34980732      14.39537021         0.00000000       0.00000000       0.00000000          1
H         8.07545494       2.64015626      14.15263268         0.00000000       0.00000000       0.00000000          1
H         7.64905819       0.99573494      11.93490295         0.00000000       0.00000000       0.00000000          1
H         6.46926201       3.52559197      12.04540186         0.00000000       0.00000000       0.00000000          1
H         4.88823497       1.23524280      12.28813350         0.00000000       0.00000000       0.00000000          1
H         5.31463133       2.87966172      14.50586932         0.00000000       0.00000000       0.00000000          1
6
pbc=[F, F, F] list_num_par=6 frozen=false iter=20000 energy=-1.26974174 Lattice="15.00000000 0.00000000 0.00000000 0.00000000 15.00000000 0.00000000 0.00000000 0.00000000 15.00000000" energy_frozen_part=0.00000000 Properties=species:S:1:pos:R:3:velocities:R:3:Z:I:1
H         6.24496983       0.45555071      14.66543537         0.00000000       0.00000000       0.00000000          1
H         7.77634017       2.77040999      14.34825556         0.00000000       0.00000000       0.00000000          1
H         7.81149899       0.79133960      12.37687519         0.00000000       0.00000000       0.00000000          1
H         6.55827808       3.23772824      11.87798732         0.00000000       0.00000000       0.00000000          1
H         5.02690035       0.92287167      12.19516737         0.00000000       0.00000000       0.00000000          1
H         4.99174501       2.90193786      14.16654569         0.00000000       0.00000000       0.00000000          1
6
pbc=[F, F, F] list_num_par=6 frozen=false iter=20000 energy=-1.26974174 Lattice="15.00000000 0.00000000 0.00000000 0.00000000 15.00000000 0.00000000 0.00000000 0.00000000 15.00000000" energy_frozen_part=0.00000000 Properties=species:S:1:pos:R:3:velocities:R:3:Z:I:1
H         6.49430252       0.34983176      14.39541551         0.00000000       0.00000000       0.00000000          1
H         8.07541278       2.64011422      14.15256749         0.00000000       0.00000000       0.00000000          1
H         7.64889127       0.99564030      11.93489882         0.00000000       0.00000000       0.00000000          1
H         6.46919462       3.52554213      12.04535333         0.00000000       0.00000000       0.00000000          1
H         4.88808085       1.23525712      12.28819695         0.00000000       0.00000000       0.00000000          1
H         5.31460656       2.87973402      14.50586593         0.00000000       0.00000000       0.00000000          1
6
pbc=[F, F, F] list_num_par=6 frozen=false iter=20000 energy=-1.26974174 Lattice="15.00000000 0.00000000 0.00000000 0.00000000 15.00000000 0.00000000 0.00000000 0.00000000 15.00000000" energy_frozen_part=0.00000000 Properties=species:S:1:pos:R:3:velocities:R:3:Z:I:1
H         6.49476543       0.35039423      14.39539023         0.00000000       0.00000000       0.00000000          1
H         8.07538535       2.64100026      14.15242689         0.00000000       0.00000000       0.00000000          1
H         7.64936700       0.99622008      11.93488526         0.00000000       0.00000000       0.00000000          1
H         6.46911164       3.52587189      12.04501567         0.00000000       0.00000000       0.00000000          1
H         4.88848865       1.23526297      12.28798428         0.00000000       0.00000000       0.00000000          1
H         5.31450535       2.88004466      14.50551888         0.00000000       0.00000000       0.00000000          1
6
pbc=[F, F, F] list_num_par=6 frozen=false iter=20000 energy=-1.26974174 Lattice="15.00000000 0.00000000 0.00000000 0.00000000 15.00000000 0.00000000 0.00000000 0.00000000 15.00000000" energy_frozen_part=0.00000000 Properties=species:S:1:pos:R:3:velocities:R:3:Z:I:1
H         6.49448313       0.34995923      14.39554587         0.00000000       0.00000000       0.00000000          1
H         8.07547031       2.64033876      14.15281349         0.00000000       0.00000000       0.00000000          1
H         7.64926440       0.99580361      11.93513121         0.00000000       0.00000000       0.00000000          1
H         6.46939205       3.52562962      12.04543205         0.00000000       0.00000000       0.00000000          1
H         4.88840658       1.23525175      12.28816408         0.00000000       0.00000000       0.00000000          1
H         5.31461437       2.87978355      14.50585181         0.00000000       0.00000000       0.00000000          1
6
pbc=[F, F, F] list_num_par=6 frozen=false iter=20000 energy=-1.26974174 Lattice="15.00000000 0.00000000 0.00000000 0.00000000 15.00000000 0.00000000 0.00000000 0.00000000 15.00000000" energy_frozen_part=0.00000000 Properties=species:S:1:pos:R:3:velocities:R:3:Z:I:1
H         6.49450767       0.34997554      14.39554520         0.00000000       0.00000000       0.00000000          1
H         8.07549227       2.64035932      14.15282818         0.00000000       0.00000000       0.00000000          1
H         7.64929939       0.99582642      11.93513446         0.00000000       0.00000000       0.00000000          1
H         6.46943260       3.52565280      12.04543838         0.00000000       0.00000000       0.00000000          1
H         4.88844758       1.23526790      12.28815121         0.00000000       0.00000000       0.00000000          1
H         5.31463510       2.87980367      14.50584264         0.00000000       0.00000000       0.00000000          1
6
pbc=[F, F, F] list_num_par=6 frozen=false iter=20000 energy=-1.26974174 Lattice="15.00000000 0.00000000 0.00000000 0.00000000 15.00000000 0.00000000 0.00000000 0.00000000 15.00000000" energy_frozen_part=0.00000000 Properties=species:S:1:pos:R:3:velocities:R:3:Z:I:1
H         6.49442131       0.34980250      14.39536760         0.00000000       0.00000000       0.00000000          1
H         8.07545030       2.64015532      14.15264671         0.00000000       0.00000000       0.00000000          1
H         7.64905748       0.99573510      11.93491008         0.00000000       0.00000000       0.00000000          1
H         6.46926314       3.52558851      12.04541273         0.00000000       0.00000000       0.00000000          1
H         4.88823032       1.23523880      12.28812756         0.00000000       0.00000000       0.00000000          1
H         5.31462399       2.87965033      14.50587020         0.00000000       0.00000000       0.00000000          1
6
pbc=[F, F, F] list_num_par=6 frozen=false iter=20000 energy=-1.26974174 Lattice="15.00000000 0.00000000 0.00000000 0.00000000 15.00000000 0.00000000 0.00000000 0.00000000 15.00000000" energy_frozen_part=0.00000000 Properties=species:S:1:pos:R:3:velocities:R:3:Z:I:1
H         6.24495545       0.45552171      14.66540923         0.00000000       0.00000000       0.00000000          1
H         7.77634607       2.77037782      14.34828849         0.00000000       0.00000000       0.00000000          1
H         7.81150655       0.79134404      12.37686897         0.00000000       0.00000000       0.00000000          1
H         6.55830712       3.23775393      11.87801842         0.00000000       0.00000000       0.00000000          1
H         5.02691048       0.92289918      12.19514616         0.00000000       0.00000000       0.00000000          1
H         4.99175532       2.90192911      14.16655980         0.00000000       0.00000000       0.00000000          1
6
pbc=[F, F, F] list_num_par=6 frozen=false iter=20000 energy=-1.26974174 Lattice="15.00000000 0.00000000 0.00000000 0.00000000 15.00000000 0.00000000 0.00000000 0.00000000 15.00000000" energy_frozen_part=0.00000000 Properties=species:S:1:pos:R:3:velocities:R:3:Z:I:1
H         6.24495789       0.45551263      14.66540776         0.00000000       0.00000000       0.00000000          1
H         7.77633945       2.77037691      14.34829012         0.00000000       0.00000000       0.00000000          1
H         7.81150893       0.79134824      12.37686621         0.00000000       0.00000000       0.00000000          1
H         6.55830581       3.23775903      11.87802231         0.00000000       0.00000000       0.00000000          1
H         5.02692144       0.92289563      12.19514060         0.00000000       0.00000000       0.00000000          1
H         4.99174982       2.90192066      14.16656091         0.00000000       0.00000000       0.00000000          1
6
pbc=[F, F, F] list_num_par=6 frozen=false iter=20000 energy=-1.26974174 Lattice="15.00000000 0.00000000 0.00000000 0.00000000 15.00000000 0.00000000 0.00000000 0.00000000 15.00000000" energy_frozen_part=0.00000000 Properties=species:S:1:pos:R:3:velocities:R:3:Z:I:1
H         6.49474341       0.35040350      14.39540064         0.00000000       0.00000000       0.00000000          1
H         8.07536900       2.64101166      14.15244604         0.00000000       0.00000000       0.00000000          1
H         7.64937277       0.99622431      11.93490312         0.00000000       0.00000000       0.00000000          1
H         6.46911085       3.52587519      12.04502416         0.00000000       0.00000000       0.00000000          1
H         4.88848524       1.23527249      12.28797933         0.00000000       0.00000000       0.00000000          1
H         5.31448546       2.88006118      14.50551961         0.00000000       0.00000000       0.00000000          1
6
pbc=[F, F, F] list_num_par=6 frozen=false iter=20000 energy=-1.26974174 Lattice="15.00000000 0.00000000 0.00000000 0.00000000 15.00000000 0.00000000 0.00000000 0.00000000 15.00000000" energy_frozen_part=0.00000000 Properties=species:S:1:pos:R:3:velocities:R:3:Z:I:1
H         6.24495709       0.45553090      14.66542209         0.00000000       0.00000000       0.00000000          1
H         7.77635289       2.77038320      14.34827930         0.00000000       0.00000000       0.00000000          1
H         7.81152160       0.79133342      12.37688907         0.00000000       0.00000000       0.00000000          1
H         6.55832626       3.23773790      11.87799728         0.00000000       0.00000000       0.00000000          1
H         5.02693017       0.92288665      12.19514234         0.00000000       0.00000000       0.00000000          1
H         4.99176248       2.90193950      14.16653607         0.00000000       0.00000000       0.00000000          1
6
pbc=[F, F, F] list_num_par=6 frozen=false iter=20000 energy=-1.26974174 Lattice="15.00000000 0.00000000 0.00000000 0.00000000 15.00000000 0.00000000 0.00000000 0.00000000 15.00000000" energy_frozen_part=0.00000000 Properties=species:S:1:pos:R:3:velocities:R:3:Z:I:1
H         6.49448483       0.34997473      14.39554991         0.00000000       0.00000000       0.00000000          1
H         8.07544851       2.64037153      14.15284267         0.00000000       0.00000000       0.00000000          1
H         7.64928644       0.99583678      11.93515022         0.00000000       0.00000000       0.00000000          1
H         6.46938888       3.52565209      12.04544090         0.00000000       0.00000000       0.00000000          1
H         4.88842770       1.23525676      12.28815001         0.00000000       0.00000000       0.00000000          1
H         5.31458816       2.87978964      14.50584442         0.00000000       0.00000000       0.00000000          1
6
pbc=[F, F, F] list_num_par=6 frozen=false iter=20000 energy=-1.26974174 Lattice="15.00000000 0.00000000 0.00000000 0.00000000 15.00000000 0.00000000 0.00000000 0.00000000 15.00000000" energy_frozen_part=0.00000000 Properties=species:S:1:pos:R:3:velocities:R:3:Z:I:1
H         6.49442804       0.34980388      14.39536394         0.00000000       0.00000000       0.00000000          1
H         8.07545960       2.64015831      14.15263310         0.00000000       0.00000000       0.00000000          1
H         7.64905868       0.99573153      11.93490045         0.00000000       0.00000000       0.00000000          1
H         6.46926666       3.52558951      12.04540071         0.00000000       0.00000000       0.00000000          1
H         4.88823579       1.23524128      12.28813082         0.00000000       0.00000000       0.00000000          1
H         5.31463518       2.87966079      14.50586926         0.00000000       0.00000000       0.00000000          1
6
pbc=[F, F, F] list_num_par=6 frozen=false iter=20000 energy=-1.26974174 Lattice="15.00000000 0.00000000 0.00000000 0.00000000 15.00000000 0.00000000 0.00000000 0.00000000 15.00000000" energy_frozen_part=0.00000000 Properties=species:S:1:pos:R:3:velocities:R:3:Z:I:1
H         6.49443006       0.34979940      14.39535688         0.00000000       0.00000000       0.00000000          1
H         8.07545042       2.64015655      14.15262200         0.00000000       0.00000000       0.00000000          1
H         7.64900965       0.99576376      11.93487094         0.00000000       0.00000000       0.00000000          1
H         6.46921167       3.52561255      12.04543078         0.00000000       0.00000000       0.00000000          1
H         4.88819206       1.23525287      12.28816704         0.00000000       0.00000000       0.00000000          1
H         5.31463357       2.87965100      14.50590828         0.00000000       0.00000000       0.00000000          1
6
pbc=[F, F, F] list_num_par=6 frozen=false iter=20000 energy=-1.26974174 Lattice="15.00000000 0.00000000 0.00000000 0.00000000 15.00000000 0.00000000 0.00000000 0.00000000 15.00000000" energy_frozen_part=0.00000000 Properties=species:S:1:pos:R:3:velocities:R:3:Z:I:1
H         6.24496279       0.45554474      14.66542557         0.00000000       0.00000000       0.00000000          1
H         7.77633211       2.77040625      14.34824509         0.00000000       0.00000000       0.00000000          1
H         7.81149851       0.79133277      12.37687211         0.00000000       0.00000000       0.00000000          1
H         6.55827484       3.23772402      11.87797273         0.00000000       0.00000000       0.00000000          1
H         5.02690289       0.92286529      12.19515398         0.00000000       0.00000000       0.00000000          1
H         4.99174058       2.90193787      14.16653065         0.00000000       0.00000000       0.00000000          1
6
pbc=[F, F, F] list_num_par=6 frozen=false iter=20000 energy=-1.26974174 Lattice="15.00000000 0.00000000 0.00000000 0.00000000 15.00000000 0.00000000 0.00000000 0.00000000 15.00000000" energy_frozen_part=0.00000000 Properties=species:S:1:pos:R:3:velocities:R:3:Z:I:1
H         6.24496170       0.45554726      14.66543107         0.00000000       0.00000000       0.00000000          1
H         7.77633573       2.77041039      14.34825522         0.00000000       0.00000000       0.00000000          1
H         7.81150188       0.79133269      12.37688166         0.00000000       0.00000000       0.00000000          1
H         6.55828312       3.23772425      11.87798511         0.00000000       0.00000000       0.00000000          1
H         5.02690671       0.92286894      12.19516238         0.00000000       0.00000000       0.00000000          1
H         4.99174077       2.90193747      14.16653891         0.00000000       0.00000000       0.00000000          1
6
pbc=[F, F, F] list_num_par=6 frozen=false iter=20000 energy=-1.26974174 Lattice="15.00000000 0.00000000 0.00000000 0.00000000 15.00000000 0.00000000 0.00000000 0.00000000 15.00000000" energy_frozen_part=0.00000000 Properties=species:S:1:pos:R:3:velocities:R:3:Z:I:1
H         6.49449930       0.34995150      14.39553679         0.00000000       0.00000000       0.00000000          1
H         8.07547242       2.64034442      14.15281988         0.00000000       0.00000000       0.00000000          1
H         7.64928233       0.99581601      11.93512712         0.00000000       0.00000000       0.00000000          1
H         6.46939689       3.52562994      12.04543146         0.00000000       0.00000000       0.00000000          1
H         4.88842279       1.23523574      12.28815192         0.00000000       0.00000000       0.00000000          1
H         5.31461575       2.87977321      14.50584435         0.00000000       0.00000000       0.00000000          1
6
pbc=[F, F, F] list_num_par=6 frozen=false iter=20000 energy=-1.26974174 Lattice="15.00000000 0.00000000 0.00000000 0.00000000 15.00000000 0.00000000 0.00000000 0.00000000 15.00000000" energy_frozen_part=0.00000000 Properties=species:S:1:pos:R:3:velocities:R:3:Z:I:1
H         6.49439386       0.34991340      14.39560286         0.00000000       0.00000000       0.00000000          1
H         8.07538078       2.64029733      14.15288993         0.00000000       0.00000000       0.00000000          1
H         7.64920220       0.99575705      11.93519932         0.00000000       0.00000000       0.00000000          1
H         6.46932852       3.52558335      12.04548539         0.00000000       0.00000000       0.00000000          1
H         4.88834651       1.23519814      12.28820306         0.00000000       0.00000000       0.00000000          1
H         5.31452137       2.87974184      14.50589214         0.00000000       0.00000000       0.00000000          1
6
pbc=[F, F, F] list_num_par=6 frozen=false iter=20000 energy=-1.26974174 Lattice="15.00000000 0.00000000 0.00000000 0.00000000 15.00000000 0.00000000 0.00000000 0.00000000 15.00000000" energy_frozen_part=0.00000000 Properties=species:S:1:pos:R:3:velocities:R:3:Z:I:1
H         6.49443376       0.34979229      14.39536698         0.00000000       0.00000000       0.00000000          1
H         8.07546471       2.64014152      14.15264338         0.00000000       0.00000000       0.00000000          1
H         7.64905725       0.99573127      11.93490401         0.00000000       0.00000000       0.00000000          1
H         6.46926131       3.52558580      12.04541921         0.00000000       0.00000000       0.00000000          1
H         4.88823380       1.23523229      12.28814428         0.00000000       0.00000000       0.00000000          1
H         5.31464549       2.87964472      14.50588669         0.00000000       0.00000000       0.00000000          1
6
pbc=[F, F, F] list_num_par=6 frozen=false iter=20000 energy=-1.26974174 Lattice="15.00000000 0.00000000 0.00000000 0.00000000 15.00000000 0.00000000 0.00000000 0.00000000 15.00000000" energy_frozen_part=0.00000000 Properties=species:S:1:pos:R:3:velocities:R:3:Z:I:1
H         6.24494124       0.45552475      14.66542504         0.00000000       0.00000000       0.00000000          1
H         7.77633601       2.77037968      14.34829471         0.00000000       0.00000000       0.00000000          1
H         7.81151037       0.79133406      12.37689075         0.00000000       0.00000000       0.00000000          1
H         6.55831361       3.23774025      11.87801646         0.00000000       0.00000000       0.00000000          1
H         5.02692042       0.92288756      12.19514613         0.00000000       0.00000000       0.00000000          1
H         4.99175056       2.90193386      14.16654849         0.00000000       0.00000000       0.00000000          1
6
pbc=[F, F, F] list_num_par=6 frozen=false iter=20000 energy=-1.26974174 Lattice="15.00000000 0.00000000 0.00000000 0.00000000 15.00000000 0.00000000 0.00000000 0.00000000 15.00000000" energy_frozen_part=0.00000000 Properties=species:S:1:pos:R:3:velocities:R:3:Z:I:1
H         6.49442935       0.34979609      14.39537435         0.00000000       0.00000000       0.00000000          1
H         8.07545989       2.64014931      14.15263981         0.00000000       0.00000000       0.00000000          1
H         7.64904739       0.99573167      11.93490422         0.00000000       0.00000000       0.00000000          1
H         6.46925732       3.52558732      12.04541662         0.00000000       0.00000000       0.00000000          1
H         4.88822761       1.23524054      12.28814898         0.00000000       0.00000000       0.00000000          1
H         5.31463983       2.87965144      14.50588382         0.00000000       0.00000000       0.00000000          1
6
pbc=[F, F, F] list_num_par=6 frozen=false iter=20000 energy=-1.26974174 Lattice="15.00000000 0.00000000 0.00000000 0.00000000 15.00000000 0.00000000 0.00000000 0.00000000 15.00000000" energy_frozen_part=0.00000000 Properties=species:S:1:pos:R:3:velocities:R:3:Z:I:1
H         6.24494417       0.45552526      14.66542697         0.00000000       0.00000000       0.00000000          1
H         7.77633834       2.77037743      14.34830039         0.00000000       0.00000000       0.00000000          1
H         7.81151513       0.79133744      12.37689821         0.00000000       0.00000000       0.00000000          1
H         6.55831603       3.23774236      11.87801951         0.00000000       0.00000000       0.00000000          1
H         5.02692287       0.92289190      12.19514791         0.00000000       0.00000000       0.00000000          1
H         4.99174893       2.90192946      14.16655452         0.00000000       0.00000000       0.00000000          1
6
pbc=[F, F, F] list_num_par=6 frozen=false iter=20000 energy=-1.26974174 Lattice="15.00000000 0.00000000 0.00000000 0.00000000 15.00000000 0.00000000 0.00000000 0.00000000 15.00000000" energy_frozen_part=0.00000000 Properties=species:S:1:pos:R:3:velocities:R:3:Z:I:1
H         6.49443489       0.34979617      14.39535993         0.00000000       0.00000000       0.00000000          1
H         8.07546869       2.64014564      14.15262185         0.00000000       0.00000000       0.00000000          1
H         7.64904899       0.99572947      11.93489032         0.00000000       0.00000000       0.00000000          1
H         6.46925403       3.52558393      12.04540470         0.00000000       0.00000000       0.00000000          1
H         4.88822724       1.23523698      12.28814286         0.00000000       0.00000000       0.00000000          1
H         5.31464544       2.87965028      14.50587742         0.00000000       0.00000000       0.00000000          1
6
pbc=[F, F, F] list_num_par=6 frozen=false iter=20000 energy=-1.26974174 Lattice="15.00000000 0.00000000 0.00000000 0.00000000 15.00000000 0.00000000 0.00000000 0.00000000 15.00000000" energy_frozen_part=0.00000000 Properties=species:S:1:pos:R:3:velocities:R:3:Z:I:1
H         6.24496822       0.45553800      14.66542487         0.00000000       0.00000000       0.00000000          1
H         7.77633582       2.77040260      14.34826682         0.00000000       0.00000000       0.00000000          1
H         7.81151150       0.79134064      12.37687756         0.00000000       0.00000000       0.00000000          1
H         6.55828684       3.23772749      11.87799250         0.00000000       0.00000000       0.00000000          1
H         5.02691389       0.92286477      12.19515917         0.00000000       0.00000000       0.00000000          1
H         4.99174166       2.90192841      14.16654190         0.00000000       0.00000000       0.00000000          1
6
pbc=[F, F, F] list_num_par=6 frozen=false iter=20000 energy=-1.26974174 Lattice="15.00000000 0.00000000 0.00000000 0.00000000 15.00000000 0.00000000 0.00000000 0.00000000 15.00000000" energy_frozen_part=0.00000000 Properties=species:S:1:pos:R:3:velocities:R:3:Z:I:1
H         6.49444640       0.34994625      14.39555742         0.00000000       0.00000000       0.00000000          1
H         8.07541852       2.64034488      14.15288030         0.00000000       0.00000000       0.00000000          1
H         7.64928650       0.99581435      11.93517174         0.00000000       0.00000000       0.00000000          1
H         6.46939840       3.52563399      12.04545908         0.00000000       0.00000000       0.00000000          1
H         4.88842358       1.23523848      12.28813361         0.00000000       0.00000000       0.00000000          1
H         5.31455452       2.87976678      14.50583877         0.00000000       0.00000000       0.00000000          1
6
pbc=[F, F, F] list_num_par=6 frozen=false iter=20000 energy=-1.26974174 Lattice="15.00000000 0.00000000 0.00000000 0.00000000 15.00000000 0.00000000 0.00000000 0.00000000 15.00000000" energy_frozen_part=0.00000000 Properties=species:S:1:pos:R:3:velocities:R:3:Z:I:1
H         6.49476811       0.35040006      14.39538752         0.00000000       0.00000000       0.00000000          1
H         8.07538654       2.64100488      14.15242087         0.00000000       0.00000000       0.00000000          1
H         7.64936840       0.99622184      11.93488168         0.00000000       0.00000000       0.00000000          1
H         6.46910487       3.52587227      12.04501522         0.00000000       0.00000000       0.00000000          1
H         4.88848525       1.23526290      12.28798642         0.00000000       0.00000000       0.00000000          1
H         5.31450495       2.88005305      14.50552051         0.00000000       0.00000000       0.00000000          1
6
pbc=[F, F, F] list_num_par=6 frozen=false iter=20000 energy=-1.26974174 Lattice="15.00000000 0.00000000 0.00000000 0.00000000 15.00000000 0.00000000 0.00000000 0.00000000 15.00000000" energy_frozen_part=0.00000000 Properties=species:S:1:pos:R:3:velocities:R:3:Z:I:1
H         6.24494979       0.45552625      14.66543559         0.00000000       0.00000000       0.00000000          1
H         7.77634919       2.77037950      14.34831472         0.00000000       0.00000000       0.00000000          1
H         7.81151352       0.79134291      12.37690593         0.00000000       0.00000000       0.00000000          1
H         6.55832136       3.23775596      11.87803852         0.00000000       0.00000000       0.00000000          1
H         5.02692351       0.92290289      12.19515711         0.00000000       0.00000000       0.00000000          1
H         4.99175727       2.90193649      14.16657421         0.00000000       0.00000000       0.00000000          1
6
pbc=[F, F, F] list_num_par=6 frozen=false iter=20000 energy=-1.26974174 Lattice="15.00000000 0.00000000 0.00000000 0.00000000 15.00000000 0.00000000 0.00000000 0.00000000 15.00000000" energy_frozen_part=0.00000000 Properties=species:S:1:pos:R:3:velocities:R:3:Z:I:1
H         6.49442402       0.34980004      14.39536169         0.00000000       0.00000000       0.00000000          1
H         8.07545743       2.64014414      14.15262891         0.00000000       0.00000000       0.00000000          1
H         7.64905481       0.99572935      11.93489493         0.00000000       0.00000000       0.00000000          1
H         6.46926882       3.52558896      12.04539708         0.00000000       0.00000000       0.00000000          1
H         4.88823202       1.23523870      12.28812809         0.00000000       0.00000000       0.00000000          1
H         5.31463541       2.87965919      14.50586145         0.00000000       0.00000000       0.00000000          1
6
pbc=[F, F, F] list_num_par=6 frozen=false iter=20000 energy=-1.26974174 Lattice="15.00000000 0.00000000 0.00000000 0.00000000 15.00000000 0.00000000 0.00000000 0.00000000 15.00000000" energy_frozen_part=0.00000000 Properties=species:S:1:pos:R:3:velocities:R:3:Z:I:1
H         6.24494840       0.45551663      14.66540885         0.00000000       0.00000000       0.00000000          1
H         7.77634671       2.77036806      14.34829679         0.00000000       0.00000000       0.00000000          1
H         7.81150605       0.79134498      12.37686881         0.00000000       0.00000000       0.00000000          1
H         6.55830980       3.23775535      11.87802653         0.00000000       0.00000000       0.00000000          1
H         5.02691219       0.92290499      12.19514436         0.00000000       0.00000000       0.00000000          1
H         4.99175344       2.90193114      14.16656781         0.00000000       0.00000000       0.00000000          1
6
pbc=[F, F, F] list_num_par=6 frozen=false iter=20000 energy=-1.26974174 Lattice="15.00000000 0.00000000 0.00000000 0.00000000 15.00000000 0.00000000 0.00000000 0.00000000 15.00000000" energy_frozen_part=0.00000000 Properties=species:S:1:pos:R:3:velocities:R:3:Z:I:1
H         6.49444074       0.34979784      14.39537837         0.00000000       0.00000000       0.00000000          1
H         8.07545908       2.64015242      14.15262446         0.00000000       0.00000000       0.00000000          1
H         7.64904527       0.99572235      11.93489891         0.00000000       0.00000000       0.00000000          1
H         6.46924514       3.52557299      12.04540127         0.00000000       0.00000000       0.00000000          1
H         4.88821993       1.23521843      12.28815682         0.00000000       0.00000000       0.00000000          1
H         5.31463571       2.87964718      14.50587712         0.00000000       0.00000000       0.00000000          1
6
pbc=[F, F, F] list_num_par=6 frozen=false iter=20000 energy=-1.26974174 Lattice="15.00000000 0.00000000 0.00000000 0.00000000 15.00000000 0.00000000 0.00000000 0.00000000 15.00000000" energy_frozen_part=0.00000000 Properties=species:S:1:pos:R:3:velocities:R:3:Z:I:1
H         6.49430828       0.34982210      14.39541579         0.00000000       0.00000000       0.00000000          1
H         8.07539798       2.64012302      14.15258278         0.00000000       0.00000000       0.00000000          1
H         7.64889870       0.99565031      11.93490248         0.00000000       0.00000000       0.00000000          1
H         6.46917826       3.52554286      12.04536311         0.00000000       0.00000000       0.00000000          1
H         4.88809013       1.23523940      12.28819954         0.00000000       0.00000000       0.00000000          1
H         5.31459115       2.87971277      14.50587464         0.00000000       0.00000000       0.00000000          1
6
pbc=[F, F, F] list_num_par=6 frozen=false iter=20000 energy=-1.26974174 Lattice="15.00000000 0.00000000 0.00000000 0.00000000 15.00000000 0.00000000 0.00000000 0.00000000 15.00000000" energy_frozen_part=0.00000000 Properties=species:S:1:pos:R:3:velocities:R:3:Z:I:1
H         6.49449574       0.34996760      14.39555430         0.00000000       0.00000000       0.00000000          1
H         8.07547300       2.64035358      14.15283983         0.00000000       0.00000000       0.00000000          1
H         7.64928812       0.99582273      11.93514641         0.00000000       0.00000000       0.00000000          1
H         6.46940976       3.52564636      12.04544405         0.00000000       0.00000000       0.00000000          1
H         4.88842934       1.23525867      12.28816264         0.00000000       0.00000000       0.00000000          1
H         5.31461444       2.87979474      14.50585443         0.00000000       0.00000000       0.00000000          1
6
pbc=[F, F, F] list_num_par=6 frozen=false iter=20000 energy=-1.26974174 Lattice="15.00000000 0.00000000 0.00000000 0.00000000 15.00000000 0.00000000 0.00000000 0.00000000 15.00000000" energy_frozen_part=0.00000000 Properties=species:S:1:pos:R:3:velocities:R:3:Z:I:1
H         6.49447674       0.34997351      14.39553767         0.00000000       0.00000000       0.00000000          1
H         8.07545127       2.64036419      14.15284161         0.00000000       0.00000000       0.00000000          1
H         7.64929355       0.99583275      11.93514131         0.00000000       0.00000000       0.00000000          1
H         6.46940631       3.52565010      12.04542980         0.00000000       0.00000000       0.00000000          1
H         4.88843366       1.23525904      12.28812707         0.00000000       0.00000000       0.00000000          1
H         5.31459165       2.87979527      14.50582761         0.00000000       0.00000000       0.00000000          1
6
pbc=[F, F, F] list_num_par=6 frozen=false iter=20000 energy=-1.26974174 Lattice="15.00000000 0.00000000 0.00000000 0.00000000 15.00000000 0.00000000 0.00000000 0.00000000 15.00000000" energy_frozen_part=0.00000000 Properties=species:S:1:pos:R:3:velocities:R:3:Z:I:1
H         6.49447279       0.34997378      14.39550055         0.00000000       0.00000000       0.00000000          1
H         8.07548862       2.64033280      14.15277016         0.00000000       0.00000000       0.00000000          1
H         7.64922798       0.99582748      11.93507317         0.00000000       0.00000000       0.00000000          1
H         6.46939340       3.52566560      12.04541865         0.00000000       0.00000000       0.00000000          1
H         4.88838163       1.23530389      12.28814914         0.00000000       0.00000000       0.00000000          1
H         5.31464208       2.87981252      14.50584514         0.00000000       0.00000000       0.00000000          1
6
pbc=[F, F, F] list_num_par=6 frozen=false iter=20000 energy=-1.26974174 Lattice="15.00000000 0.00000000 0.00000000 0.00000000 15.00000000 0.00000000 0.00000000 0.00000000 15.00000000" energy_frozen_part=0.00000000 Properties=species:S:1:pos:R:3:velocities:R:3:Z:I:1
H         6.49430440       0.34983575      14.39541890         0.00000000       0.00000000       0.00000000          1
H         8.07539667       2.64012908      14.15256803         0.00000000       0.00000000       0.00000000          1
H         7.64889368       0.99564489      11.93490024         0.00000000       0.00000000       0.00000000          1
H         6.46917763       3.52553471      12.04534246         0.00000000       0.00000000       0.00000000          1
H         4.88808558       1.23523455      12.28819032         0.00000000       0.00000000       0.00000000          1
H         5.31458503       2.87972726      14.50585706         0.00000000       0.00000000       0.00000000          1
6
pbc=[F, F, F] list_num_par=6 frozen=false iter=20000 energy=-1.26974174 Lattice="15.00000000 0.00000000 0.00000000 0.00000000 15.00000000 0.00000000 0.00000000 0.00000000 15.00000000" energy_frozen_part=0.00000000 Properties=species:S:1:pos:R:3:velocities:R:3:Z:I:1
H         6.24498351       0.45552046      14.66541366         0.00000000       0.00000000       0.00000000          1
H         7.77635850       2.77038218      14.34825498         0.00000000       0.00000000       0.00000000          1
H         7.81150487       0.79134058      12.37684830         0.00000000       0.00000000       0.00000000          1
H         6.55828684       3.23774000      11.87799825         0.00000000       0.00000000       0.00000000          1
H         5.02691262       0.92287784      12.19515793         0.00000000       0.00000000       0.00000000          1
H         4.99176203       2.90191626      14.16656156         0.00000000       0.00000000       0.00000000          1
6
pbc=[F, F, F] list_num_par=6 frozen=false iter=20000 energy=-1.26974174 Lattice="15.00000000 0.00000000 0.00000000 0.00000000 15.00000000 0.00000000 0.00000000 0.00000000 15.00000000" energy_frozen_part=0.00000000 Properties=species:S:1:pos:R:3:velocities:R:3:Z:I:1
H         6.24497222       0.45551334      14.66542979         0.00000000       0.00000000       0.00000000          1
H         7.77635367       2.77037339      14.34830188         0.00000000       0.00000000       0.00000000          1
H         7.81152891       0.79132996      12.37689448         0.00000000       0.00000000       0.00000000          1
H         6.55832566       3.23773575      11.87802732         0.00000000       0.00000000       0.00000000          1
H         5.02693778       0.92287915      12.19515779         0.00000000       0.00000000       0.00000000          1
H         4.99176379       2.90191431      14.16656628         0.00000000       0.00000000       0.00000000          1
6
pbc=[F, F, F] list_num_par=6 frozen=false iter=20000 energy=-1.26974174 Lattice="15.00000000 0.00000000 0.00000000 0.00000000 15.00000000 0.00000000 0.00000000 0.00000000 15.00000000" energy_frozen_part=0.00000000 Properties=species:S:1:pos:R:3:velocities:R:3:Z:I:1
H         6.49441700       0.34979556      14.39536248         0.00000000       0.00000000       0.00000000          1
H         8.07546258       2.64013860      14.15263448         0.00000000       0.00000000       0.00000000          1
H         7.64905151       0.99572375      11.93489828         0.00000000       0.00000000       0.00000000          1
H         6.46927821       3.52558387      12.04540110         0.00000000       0.00000000       0.00000000          1
H         4.88822905       1.23524410      12.28812775         0.00000000       0.00000000       0.00000000          1
H         5.31463642       2.87965874      14.50586470         0.00000000       0.00000000       0.00000000          1
6
pbc=[F, F, F] list_num_par=6 frozen=false iter=20000 energy=-1.26974174 Lattice="15.00000000 0.00000000 0.00000000 0.00000000 15.00000000 0.00000000 0.00000000 0.00000000 15.00000000" energy_frozen_part=0.00000000 Properties=species:S:1:pos:R:3:velocities:R:3:Z:I:1
H         6.49448583       0.34994636      14.39553308         0.00000000       0.00000000       0.00000000          1
H         8.07546877       2.64033681      14.15280302         0.00000000       0.00000000       0.00000000          1
H         7.64926002       0.99579812      11.93511648         0.00000000       0.00000000       0.00000000          1
H         6.46939008       3.52562257      12.04542192         0.00000000       0.00000000       0.00000000          1
H         4.88840732       1.23523819      12.28815227         0.00000000       0.00000000       0.00000000          1
H         5.31461359       2.87977211      14.50584070         0.00000000       0.00000000       0.00000000          1
6
pbc=[F, F, F] list_num_par=6 frozen=false iter=20000 energy=-1.26974174 Lattice="15.00000000 0.00000000 0.00000000 0.00000000 15.00000000 0.00000000 0.00000000 0.00000000 15.00000000" energy_frozen_part=0.00000000 Properties=species:S:1:pos:R:3:velocities:R:3:Z:I:1
H         6.49447080       0.34997144      14.39553628         0.00000000       0.00000000       0.00000000          1
H         8.07544641       2.64036845      14.15283856         0.00000000       0.00000000       0.00000000          1
H         7.64929656       0.99582750      11.93514446         0.00000000       0.00000000       0.00000000          1
H         6.46940982       3.52565025      12.04542563         0.00000000       0.00000000       0.00000000          1
H         4.88843539       1.23525667      12.28811972         0.00000000       0.00000000       0.00000000          1
H         5.31458157       2.87979017      14.50581903         0.00000000       0.00000000       0.00000000          1
6
pbc=[F, F, F] list_num_par=6 frozen=false iter=20000 energy=-1.26974174 Lattice="15.00000000 0.00000000 0.00000000 0.00000000 15.00000000 0.00000000 0.00000000 0.00000000 15.00000000" energy_frozen_part=0.00000000 Properties=species:S:1:pos:R:3:velocities:R:3:Z:I:1
H         6.24496087       0.45551434      14.66541680         0.00000000       0.00000000       0.00000000          1
H         7.77634307       2.77037674      14.34829204         0.00000000       0.00000000       0.00000000          1
H         7.81151813       0.79134883      12.37687647         0.00000000       0.00000000       0.00000000          1
H         6.55830990       3.23775284      11.87802345         0.00000000       0.00000000       0.00000000          1
H         5.02692737       0.92289167      12.19514331         0.00000000       0.00000000       0.00000000          1
H         4.99175289       2.90192136      14.16655985         0.00000000       0.00000000       0.00000000          1
6
pbc=[F, F, F] list_num_par=6 frozen=false iter=20000 energy=-1.26974174 Lattice="15.00000000 0.00000000 0.00000000 0.00000000 15.00000000 0.00000000 0.00000000 0.00000000 15.00000000" energy_frozen_part=0.00000000 Properties=species:S:1:pos:R:3:velocities:R:3:Z:I:1
H         6.49438921       0.34977303      14.39537858         0.00000000       0.00000000       0.00000000          1
H         8.07544885       2.64009788      14.15265184         0.00000000       0.00000000       0.00000000          1
H         7.64900220       0.99570543      11.93490537         0.00000000       0.00000000       0.00000000          1
H         6.46924437       3.52557562      12.04544487         0.00000000       0.00000000       0.00000000          1
H         4.88818360       1.23524651      12.28817040         0.00000000       0.00000000       0.00000000          1
H         5.31463033       2.87964260      14.50591537         0.00000000       0.00000000       0.00000000          1
6
pbc=[F, F, F] list_num_par=6 frozen=false iter=20000 energy=-1.26974174 Lattice="15.00000000 0.00000000 0.00000000 0.00000000 15.00000000 0.00000000 0.00000000 0.00000000 15.00000000" energy_frozen_part=0.00000000 Properties=species:S:1:pos:R:3:velocities:R:3:Z:I:1
H         6.49439274       0.34991036      14.39560019         0.00000000       0.00000000       0.00000000          1
H         8.07537647       2.64029901      14.15289777         0.00000000       0.00000000       0.00000000          1
H         7.64920661       0.99576588      11.93520249         0.00000000       0.00000000       0.00000000          1
H         6.46932608       3.52558892      12.04549332         0.00000000       0.00000000       0.00000000          1
H         4.88834885       1.23520028      12.28819257         0.00000000       0.00000000       0.00000000          1
H         5.31451374       2.87973608      14.50588970         0.00000000       0.00000000       0.00000000          1
6
pbc=[F, F, F] list_num_par=6 frozen=false iter=20000 energy=-1.26974174 Lattice="15.00000000 0.00000000 0.00000000 0.00000000 15.00000000 0.00000000 0.00000000 0.00000000 15.00000000" energy_frozen_part=0.00000000 Properties=species:S:1:pos:R:3:velocities:R:3:Z:I:1
H         6.49446108       0.34997466      14.39554200         0.00000000       0.00000000       0.00000000          1
H         8.07542982       2.64037603      14.15284922         0.00000000       0.00000000       0.00000000          1
H         7.64928937       0.99584269      11.93515113         0.00000000       0.00000000       0.00000000          1
H         6.46939011       3.52565763      12.04543612         0.00000000       0.00000000       0.00000000          1
H         4.88842572       1.23525804      12.28812560         0.00000000       0.00000000       0.00000000          1
H         5.31456371       2.87979250      14.50582395         0.00000000       0.00000000       0.00000000          1
6
pbc=[F, F, F] list_num_par=6 frozen=false iter=20000 energy=-1.26974174 Lattice="15.00000000 0.00000000 0.00000000 0.00000000 15.00000000 0.00000000 0.00000000 0.00000000 15.00000000" energy_frozen_part=0.00000000 Properties=species:S:1:pos:R:3:velocities:R:3:Z:I:1
H         6.24496136       0.45553365      14.66542169         0.00000000       0.00000000       0.00000000          1
H         7.77634877       2.77038778      14.34827310         0.00000000       0.00000000       0.00000000          1
H         7.81151804       0.79133720      12.37688155         0.00000000       0.00000000       0.00000000          1
H         6.55831132       3.23773587      11.87799668         0.00000000       0.00000000       0.00000000          1
H         5.02692821       0.92287623      12.19514631         0.00000000       0.00000000       0.00000000          1
H         4.99175533       2.90193109      14.16653809         0.00000000       0.00000000       0.00000000          1
6
pbc=[F, F, F] list_num_par=6 frozen=false iter=20000 energy=-1.26974174 Lattice="15.00000000 0.00000000 0.00000000 0.00000000 15.00000000 0.00000000 0.00000000 0.00000000 15.00000000" energy_frozen_part=0.00000000 Properties=species:S:1:pos:R:3:velocities:R:3:Z:I:1
H         6.49448875       0.34995404      14.39555105         0.00000000       0.00000000       0.00000000          1
H         8.07546815       2.64034017      14.15281938         0.00000000       0.00000000       0.00000000          1
H         7.64927004       0.99580025      11.93513602         0.00000000       0.00000000       0.00000000          1
H         6.46939215       3.52562516      12.04542872         0.00000000       0.00000000       0.00000000          1
H         4.88841491       1.23523990      12.28816001         0.00000000       0.00000000       0.00000000          1
H         5.31461233       2.87978019      14.50584471         0.00000000       0.00000000       0.00000000          1
6
pbc=[F, F, F] list_num_par=6 frozen=false iter=20000 energy=-1.26974174 Lattice="15.00000000 0.00000000 0.00000000 0.00000000 15.00000000 0.00000000 0.00000000 0.00000000 15.00000000" energy_frozen_part=0.00000000 Properties=species:S:1:pos:R:3:velocities:R:3:Z:I:1
H         6.49443254       0.34979582      14.39537598         0.00000000       0.00000000       0.00000000          1
H         8.07546338       2.64014607      14.15263038         0.00000000       0.00000000       0.00000000          1
H         7.64904788       0.99572011      11.93489912         0.00000000       0.00000000       0.00000000          1
H         6.46925392       3.52557517      12.04540743         0.00000000       0.00000000       0.00000000          1
H         4.88822574       1.23522731      12.28815032         0.00000000       0.00000000       0.00000000          1
H         5.31463946       2.87965044      14.50588061         0.00000000       0.00000000       0.00000000          1
6
pbc=[F, F, F] list_num_par=6 frozen=false iter=20000 energy=-1.26974174 Lattice="15.00000000 0.00000000 0.00000000 0.00000000 15.00000000 0.00000000 0.00000000 0.00000000 15.00000000" energy_frozen_part=0.00000000 Properties=species:S:1:pos:R:3:velocities:R:3:Z:I:1
H         6.24494765       0.45552066      14.66539843         0.00000000       0.00000000       0.00000000          1
H         7.77634335       2.77037597      14.34828875         0.00000000       0.00000000       0.00000000          1
H         7.81150447       0.79135262      12.37686215         0.00000000       0.00000000       0.00000000          1
H         6.55830718       3.23776399      11.87802216         0.00000000       0.00000000       0.00000000          1
H         5.02690832       0.92291061      12.19513433         0.00000000       0.00000000       0.00000000          1
H         4.99175071       2.90193347      14.16655706         0.00000000       0.00000000       0.00000000          1
6
pbc=[F, F, F] list_num_par=6 frozen=false iter=20000 energy=-1.26974174 Lattice="15.00000000 0.00000000 0.00000000 0.00000000 15.00000000 0.00000000 0.00000000 0.00000000 15.00000000" energy_frozen_part=0.00000000 Properties=species:S:1:pos:R:3:velocities:R:3:Z:I:1
H         6.49431667       0.34982437      14.39541578         0.00000000       0.00000000       0.00000000          1
H         8.07540144       2.64012611      14.15257453         0.00000000       0.00000000       0.00000000          1
H         7.64889581       0.99565167      11.93490036         0.00000000       0.00000000       0.00000000          1
H         6.46917629       3.52554229      12.04535880         0.00000000       0.00000000       0.00000000          1
H         4.88808714       1.23524555      12.28820472         0.00000000       0.00000000       0.00000000          1
H         5.31459634       2.87971805      14.50587655         0.00000000       0.00000000       0.00000000          1
6
pbc=[F, F, F] list_num_par=6 frozen=false iter=20000 energy=-1.26974174 Lattice="15.00000000 0.00000000 0.00000000 0.00000000 15.00000000 0.00000000 0.00000000 0.00000000 15.00000000" energy_frozen_part=0.00000000 Properties=species:S:1:pos:R:3:velocities:R:3:Z:I:1
H         6.49481995       0.35037910      14.39542823         0.00000000       0.00000000       0.00000000          1
H         8.07540530       2.64100368      14.15237910         0.00000000       0.00000000       0.00000000          1
H         7.64939370       0.99614421      11.93489355         0.00000000       0.00000000       0.00000000          1
H         6.46910046       3.52578200      12.04495540         0.00000000       0.00000000       0.00000000          1
H         4.88851204       1.23515933      12.28800725         0.00000000       0.00000000       0.00000000          1
H         5.31452592       2.88001957      14.50549411         0.00000000       0.00000000       0.00000000          1
6
pbc=[F, F, F] list_num_par=6 frozen=false iter=20000 energy=-1.26974174 Lattice="15.00000000 0.00000000 0.00000000 0.00000000 15.00000000 0.00000000 0.00000000 0.00000000 15.00000000" energy_frozen_part=0.00000000 Properties=species:S:1:pos:R:3:velocities:R:3:Z:I:1
H         6.24494665       0.45552813      14.66543142         0.00000000       0.00000000       0.00000000          1
H         7.77634279       2.77038069      14.34831106         0.00000000       0.00000000       0.00000000          1
H         7.81151312       0.79134648      12.37689590         0.00000000       0.00000000       0.00000000          1
H         6.55831664       3.23775665      11.87803529         0.00000000       0.00000000       0.00000000          1
H         5.02692158       0.92290077      12.19515714         0.00000000       0.00000000       0.00000000          1
H         4.99175187       2.90193551      14.16657034         0.00000000       0.00000000       0.00000000          1
6
pbc=[F, F, F] list_num_par=6 frozen=false iter=20000 energy=-1.26974174 Lattice="15.00000000 0.00000000 0.00000000 0.00000000 15.00000000 0.00000000 0.00000000 0.00000000 15.00000000" energy_frozen_part=0.00000000 Properties=species:S:1:pos:R:3:velocities:R:3:Z:I:1
H         6.49448478       0.34996809      14.39555667         0.00000000       0.00000000       0.00000000          1
H         8.07545837       2.64036275      14.15284693         0.00000000       0.00000000       0.00000000          1
H         7.64929780       0.99582371      11.93515503         0.00000000       0.00000000       0.00000000          1
H         6.46940570       3.52564262      12.04543450         0.00000000       0.00000000       0.00000000          1
H         4.88843627       1.23524646      12.28814750         0.00000000       0.00000000       0.00000000          1
H         5.31459729       2.87979309      14.50583475         0.00000000       0.00000000       0.00000000          1
