6
iter=20000 frozen=false energy=-1.26974174 energy_frozen_part=0.00000000 Lattice="15.00000000 0.00000000 0.00000000 0.00000000 15.00000000 0.00000000 0.00000000 0.00000000 15.00000000" pbc=[F, F, F] list_num_par=6 Properties=species:S:1:pos:R:3:Z:I:1:velocities:R:3
H         9.40752304       8.13284356       2.37349790          1         0.00000000       0.00000000       0.00000000
H        12.47713408       9.50937495       4.44502414          1         0.00000000       0.00000000       0.00000000
H        10.85301331       7.24110634       4.59153253          1         0.00000000       0.00000000       0.00000000
H        12.18270914       7.85569422       2.21277772          1         0.00000000       0.00000000       0.00000000
H         9.70194555       9.78651701       4.60574833          1         0.00000000       0.00000000       0.00000000
H        11.03164352      10.40111251       2.22699289          1         0.00000000       0.00000000       0.00000000
6
iter=20000 frozen=false energy=-1.26974174 energy_frozen_part=0.00000000 Lattice="15.00000000 0.00000000 0.00000000 0.00000000 15.00000000 0.00000000 0.00000000 0.00000000 15.00000000" pbc=[F, F, F] list_num_par=6 Properties=species:S:1:pos:R:3:Z:I:1:velocities:R:3
H         9.40652446       8.11446565       2.36769207          1         0.00000000       0.00000000       0.00000000
H        12.43105078       9.58835466       4.43855442          1         0.00000000       0.00000000       0.00000000
H        10.85404335       7.28879193       4.60984711          1         0.00000000       0.00000000       0.00000000
H        12.18804473       7.89365388       2.23101496          1         0.00000000       0.00000000       0.00000000
H         9.64953406       9.80915263       4.57523515          1         0.00000000       0.00000000       0.00000000
H        10.98354207      10.41401860       2.19640040          1         0.00000000       0.00000000       0.00000000
6
iter=20000 frozen=false energy=-1.26974174 energy_frozen_part=0.00000000 Lattice="15.00000000 0.00000000 0.00000000 0.00000000 15.00000000 0.00000000 0.00000000 0.00000000 15.00000000" pbc=[F, F, F] list_num_par=6 Properties=species:S:1:pos:R:3:Z:I:1:velocities:R:3
H         9.40659614       8.11435056       2.36771441          1         0.00000000       0.00000000       0.00000000
H        12.43094018       9.58849810       4.43865442          1         0.00000000       0.00000000       0.00000000
H        10.85411695       7.28880862       4.60990772          1         0.00000000       0.00000000       0.00000000
H        12.18813404       7.89377824       2.23110455          1         0.00000000       0.00000000       0.00000000
H         9.64939826       9.80907507       4.57524892          1         0.00000000       0.00000000       0.00000000
H        10.98342479      10.41404541       2.19645805          1         0.00000000       0.00000000       0.00000000
6
iter=20000 frozen=false energy=-1.26974174 energy_frozen_part=0.00000000 Lattice="15.00000000 0.00000000 0.00000000 0.00000000 15.00000000 0.00000000 0.00000000 0.00000000 15.00000000" pbc=[F, F, F] list_num_par=6 Properties=species:S:1:pos:R:3:Z:I:1:velocities:R:3
H         9.40656461       8.11438777       2.36772614          1         0.00000000       0.00000000       0.00000000
H        12.43104915       9.58844958       4.43852248          1         0.00000000       0.00000000       0.00000000
H        10.85412872       7.28882781       4.60988320          1         0.00000000       0.00000000       0.00000000
H        12.18809301       7.89369635       2.23102339          1         0.00000000       0.00000000       0.00000000
H         9.64951921       9.80914970       4.57522898          1         0.00000000       0.00000000       0.00000000
H        10.98347315      10.41401310       2.19636832          1         0.00000000       0.00000000       0.00000000
6
iter=20000 frozen=false energy=-1.26974174 energy_frozen_part=0.00000000 Lattice="15.00000000 0.00000000 0.00000000 0.00000000 15.00000000 0.00000000 0.00000000 0.00000000 15.00000000" pbc=[F, F, F] list_num_par=6 Properties=species:S:1:pos:R:3:Z:I:1:velocities:R:3
H         9.40717960       8.13387861       2.37347447          1         0.00000000       0.00000000       0.00000000
H        12.47667450       9.51000189       4.44544970          1         0.00000000       0.00000000       0.00000000
H        10.85190527       7.24219615       4.59202240          1         0.00000000       0.00000000       0.00000000
H        12.18233003       7.85595605       2.21346588          1         0.00000000       0.00000000       0.00000000
H         9.70153046       9.78793106       4.60546275          1         0.00000000       0.00000000       0.00000000
H        11.03194918      10.40167770       2.22689647          1         0.00000000       0.00000000       0.00000000
6
iter=20000 frozen=false energy=-1.26974174 energy_frozen_part=0.00000000 Lattice="15.00000000 0.00000000 0.00000000 0.00000000 15.00000000 0.00000000 0.00000000 0.00000000 15.00000000" pbc=[F, F, F] list_num_par=6 Properties=species:S:1:pos:R:3:Z:I:1:velocities:R:3
H         9.40655511       8.11438496       2.36774520          1         0.00000000       0.00000000       0.00000000
H        12.43103807       9.58844656       4.43854569          1         0.00000000       0.00000000       0.00000000
H        10.85411844       7.28882585       4.60990709          1         0.00000000       0.00000000       0.00000000
H        12.18807777       7.89368280       2.23104957          1         0.00000000       0.00000000       0.00000000
H         9.64950779       9.80914510       4.57523364          1         0.00000000       0.00000000       0.00000000
H        10.98347571      10.41399966       2.19637841          1         0.00000000       0.00000000       0.00000000
6
iter=20000 frozen=false energy=-1.26974174 energy_frozen_part=0.00000000 Lattice="15.00000000 0.00000000 0.00000000 0.00000000 15.00000000 0.00000000 0.00000000 0.00000000 15.00000000" pbc=[F, F, F] list_num_par=6 Properties=species:S:1:pos:R:3:Z:I:1:velocities:R:3
H         9.40753403       8.13283806       2.37348041          1         0.00000000       0.00000000       0.00000000
H        12.47712988       9.50938679       4.44502031          1         0.00000000       0.00000000       0.00000000
H        10.85301306       7.24110763       4.59151651          1         0.00000000       0.00000000       0.00000000
H        12.18271717       7.85571366       2.21276446          1         0.00000000       0.00000000       0.00000000
H         9.70194015       9.78651516       4.60573966          1         0.00000000       0.00000000       0.00000000
H        11.03163862      10.40111685       2.22698824          1         0.00000000       0.00000000       0.00000000
6
iter=20000 frozen=false energy=-1.26974174 energy_frozen_part=0.00000000 Lattice="15.00000000 0.00000000 0.00000000 0.00000000 15.00000000 0.00000000 0.00000000 0.00000000 15.00000000" pbc=[F, F, F] list_num_par=6 Properties=species:S:1:pos:R:3:Z:I:1:velocities:R:3
H         9.40654044       8.11440754       2.36774123          1         0.00000000       0.00000000       0.00000000
H        12.43101755       9.58843548       4.43857061          1         0.00000000       0.00000000       0.00000000
H        10.85408363       7.28882964       4.60991209          1         0.00000000       0.00000000       0.00000000
H        12.18806520       7.89369047       2.23106581          1         0.00000000       0.00000000       0.00000000
H         9.64949630       9.80915546       4.57525012          1         0.00000000       0.00000000       0.00000000
H        10.98347810      10.41401485       2.19640684          1         0.00000000       0.00000000       0.00000000
6
iter=20000 frozen=false energy=-1.26974174 energy_frozen_part=0.00000000 Lattice="15.00000000 0.00000000 0.00000000 0.00000000 15.00000000 0.00000000 0.00000000 0.00000000 15.00000000" pbc=[F, F, F] list_num_par=6 Properties=species:S:1:pos:R:3:Z:I:1:velocities:R:3
H         9.40654086       8.11446516       2.36767723          1         0.00000000       0.00000000       0.00000000
H        12.43105229       9.58836267       4.43855530          1         0.00000000       0.00000000       0.00000000
H        10.85406513       7.28878097       4.60981270          1         0.00000000       0.00000000       0.00000000
H        12.18806862       7.89370022       2.23099059          1         0.00000000       0.00000000       0.00000000
H         9.64953053       9.80913671       4.57523579          1         0.00000000       0.00000000       0.00000000
H        10.98352957      10.41404771       2.19640944          1         0.00000000       0.00000000       0.00000000
6
iter=20000 frozen=false energy=-1.26974174 energy_frozen_part=0.00000000 Lattice="15.00000000 0.00000000 0.00000000 0.00000000 15.00000000 0.00000000 0.00000000 0.00000000 15.00000000" pbc=[F, F, F] list_num_par=6 Properties=species:S:1:pos:R:3:Z:I:1:velocities:R:3
H         9.40656645       8.11439292       2.36772547          1         0.00000000       0.00000000       0.00000000
H        12.43103006       9.58843938       4.43857030          1         0.00000000       0.00000000       0.00000000
H        10.85410957       7.28882217       4.60989451          1         0.00000000       0.00000000       0.00000000
H        12.18809881       7.89369011       2.23105382          1         0.00000000       0.00000000       0.00000000
H         9.64950057       9.80913962       4.57522902          1         0.00000000       0.00000000       0.00000000
H        10.98349259      10.41400679       2.19638817          1         0.00000000       0.00000000       0.00000000
6
iter=20000 frozen=false energy=-1.26974174 energy_frozen_part=0.00000000 Lattice="15.00000000 0.00000000 0.00000000 0.00000000 15.00000000 0.00000000 0.00000000 0.00000000 15.00000000" pbc=[F, F, F] list_num_par=6 Properties=species:S:1:pos:R:3:Z:I:1:velocities:R:3
H         9.40653402       8.11441594       2.36775896          1         0.00000000       0.00000000       0.00000000
H        12.43101588       9.58846309       4.43856455          1         0.00000000       0.00000000       0.00000000
H        10.85411102       7.28883452       4.60991179          1         0.00000000       0.00000000       0.00000000
H        12.18805929       7.89372320       2.23105462          1         0.00000000       0.00000000       0.00000000
H         9.64948693       9.80915194       4.57527704          1         0.00000000       0.00000000       0.00000000
H        10.98344110      10.41403944       2.19642007          1         0.00000000       0.00000000       0.00000000
6
iter=20000 frozen=false energy=-1.26974174 energy_frozen_part=0.00000000 Lattice="15.00000000 0.00000000 0.00000000 0.00000000 15.00000000 0.00000000 0.00000000 0.00000000 15.00000000" pbc=[F, F, F] list_num_par=6 Properties=species:S:1:pos:R:3:Z:I:1:velocities:R:3
H         9.40653566       8.11440893       2.36774204          1         0.00000000       0.00000000       0.00000000
H        12.43101576       9.58844943       4.43855832          1         0.00000000       0.00000000       0.00000000
H        10.85409143       7.28883314       4.60989942          1         0.00000000       0.00000000       0.00000000
H        12.18806194       7.89369885       2.23104758          1         0.00000000       0.00000000       0.00000000
H         9.64948556       9.80915591       4.57524581          1         0.00000000       0.00000000       0.00000000
H        10.98345645      10.41402064       2.19639692          1         0.00000000       0.00000000       0.00000000
6
iter=20000 frozen=false energy=-1.26974174 energy_frozen_part=0.00000000 Lattice="15.00000000 0.00000000 0.00000000 0.00000000 15.00000000 0.00000000 0.00000000 0.00000000 15.00000000" pbc=[F, F, F] list_num_par=6 Properties=species:S:1:pos:R:3:Z:I:1:velocities:R:3
H         9.40653761       8.11441023       2.36775539          1         0.00000000       0.00000000       0.00000000
H        12.43101961       9.58845338       4.43855993          1         0.00000000       0.00000000       0.00000000
H        10.85410311       7.28883119       4.60990429          1         0.00000000       0.00000000       0.00000000
H        12.18805938       7.89372017       2.23104876          1         0.00000000       0.00000000       0.00000000
H         9.64949337       9.80915011       4.57526857          1         0.00000000       0.00000000       0.00000000
H        10.98344471      10.41403164       2.19640642          1         0.00000000       0.00000000       0.00000000
6
iter=20000 frozen=false energy=-1.26974174 energy_frozen_part=0.00000000 Lattice="15.00000000 0.00000000 0.00000000 0.00000000 15.00000000 0.00000000 0.00000000 0.00000000 15.00000000" pbc=[F, F, F] list_num_par=6 Properties=species:S:1:pos:R:3:Z:I:1:velocities:R:3
H         9.40654382       8.11446649       2.36767727          1         0.00000000       0.00000000       0.00000000
H        12.43104972       9.58836772       4.43854891          1         0.00000000       0.00000000       0.00000000
H        10.85406013       7.28878718       4.60982424          1         0.00000000       0.00000000       0.00000000
H        12.18806296       7.89369000       2.23098920          1         0.00000000       0.00000000       0.00000000
H         9.64953294       9.80914190       4.57523084          1         0.00000000       0.00000000       0.00000000
H        10.98353024      10.41404389       2.19639953          1         0.00000000       0.00000000       0.00000000
6
iter=20000 frozen=false energy=-1.26974174 energy_frozen_part=0.00000000 Lattice="15.00000000 0.00000000 0.00000000 0.00000000 15.00000000 0.00000000 0.00000000 0.00000000 15.00000000" pbc=[F, F, F] list_num_par=6 Properties=species:S:1:pos:R:3:Z:I:1:velocities:R:3
H         9.40656008       8.11440967       2.36772946          1         0.00000000       0.00000000       0.00000000
H        12.43103275       9.58844675       4.43855070          1         0.00000000       0.00000000       0.00000000
H        10.85412252       7.28882041       4.60988549          1         0.00000000       0.00000000       0.00000000
H        12.18808521       7.89371165       2.23103356          1         0.00000000       0.00000000       0.00000000
H         9.64950822       9.80914049       4.57524865          1         0.00000000       0.00000000       0.00000000
H        10.98346979      10.41403401       2.19640256          1         0.00000000       0.00000000       0.00000000
6
iter=20000 frozen=false energy=-1.26974174 energy_frozen_part=0.00000000 Lattice="15.00000000 0.00000000 0.00000000 0.00000000 15.00000000 0.00000000 0.00000000 0.00000000 15.00000000" pbc=[F, F, F] list_num_par=6 Properties=species:S:1:pos:R:3:Z:I:1:velocities:R:3
H         9.40649210       8.11443901       2.36766363          1         0.00000000       0.00000000       0.00000000
H        12.43097185       9.58843264       4.43853322          1         0.00000000       0.00000000       0.00000000
H        10.85402391       7.28882452       4.60982924          1         0.00000000       0.00000000       0.00000000
H        12.18802251       7.89372179       2.23099640          1         0.00000000       0.00000000       0.00000000
H         9.64944708       9.80915803       4.57519894          1         0.00000000       0.00000000       0.00000000
H        10.98343785      10.41404444       2.19636392          1         0.00000000       0.00000000       0.00000000
6
iter=20000 frozen=false energy=-1.26974174 energy_frozen_part=0.00000000 Lattice="15.00000000 0.00000000 0.00000000 0.00000000 15.00000000 0.00000000 0.00000000 0.00000000 15.00000000" pbc=[F, F, F] list_num_par=6 Properties=species:S:1:pos:R:3:Z:I:1:velocities:R:3
H         9.40656624       8.11444019       2.36766149          1         0.00000000       0.00000000       0.00000000
H        12.43106771       9.58827156       4.43860005          1         0.00000000       0.00000000       0.00000000
H        10.85402181       7.28872579       4.60983326          1         0.00000000       0.00000000       0.00000000
H        12.18808976       7.89360343       2.23103839          1         0.00000000       0.00000000       0.00000000
H         9.64954678       9.80910430       4.57522605          1         0.00000000       0.00000000       0.00000000
H        10.98360481      10.41398713       2.19643065          1         0.00000000       0.00000000       0.00000000
6
iter=20000 frozen=false energy=-1.26974174 energy_frozen_part=0.00000000 Lattice="15.00000000 0.00000000 0.00000000 0.00000000 15.00000000 0.00000000 0.00000000 0.00000000 15.00000000" pbc=[F, F, F] list_num_par=6 Properties=species:S:1:pos:R:3:Z:I:1:velocities:R:3
H         9.40659625       8.11435248       2.36770163          1         0.00000000       0.00000000       0.00000000
H        12.43093500       9.58848786       4.43865939          1         0.00000000       0.00000000       0.00000000
H        10.85409958       7.28880533       4.60991231          1         0.00000000       0.00000000       0.00000000
H        12.18813918       7.89376926       2.23111869          1         0.00000000       0.00000000       0.00000000
H         9.64939432       9.80907846       4.57524552          1         0.00000000       0.00000000       0.00000000
H        10.98343367      10.41404474       2.19645650          1         0.00000000       0.00000000       0.00000000
6
iter=20000 frozen=false energy=-1.26974174 energy_frozen_part=0.00000000 Lattice="15.00000000 0.00000000 0.00000000 0.00000000 15.00000000 0.00000000 0.00000000 0.00000000 15.00000000" pbc=[F, F, F] list_num_par=6 Properties=species:S:1:pos:R:3:Z:I:1:velocities:R:3
H         9.40655779       8.11438430       2.36773161          1         0.00000000       0.00000000       0.00000000
H        12.43102839       9.58844973       4.43855666          1         0.00000000       0.00000000       0.00000000
H        10.85411972       7.28882307       4.60989899          1         0.00000000       0.00000000       0.00000000
H        12.18809244       7.89370178       2.23104653          1         0.00000000       0.00000000       0.00000000
H         9.64949741       9.80913165       4.57524016          1         0.00000000       0.00000000       0.00000000
H        10.98347082      10.41401702       2.19639244          1         0.00000000       0.00000000       0.00000000
6
iter=20000 frozen=false energy=-1.26974174 energy_frozen_part=0.00000000 Lattice="15.00000000 0.00000000 0.00000000 0.00000000 15.00000000 0.00000000 0.00000000 0.00000000 15.00000000" pbc=[F, F, F] list_num_par=6 Properties=species:S:1:pos:R:3:Z:I:1:velocities:R:3
H         9.40660215       8.11434940       2.36771311          1         0.00000000       0.00000000       0.00000000
H        12.43095148       9.58849918       4.43864141          1         0.00000000       0.00000000       0.00000000
H        10.85412818       7.28880431       4.60989932          1         0.00000000       0.00000000       0.00000000
H        12.18813858       7.89377594       2.23109792          1         0.00000000       0.00000000       0.00000000
H         9.64941340       9.80906701       4.57525670          1         0.00000000       0.00000000       0.00000000
H        10.98342146      10.41404112       2.19644596          1         0.00000000       0.00000000       0.00000000
6
iter=20000 frozen=false energy=-1.26974174 energy_frozen_part=0.00000000 Lattice="15.00000000 0.00000000 0.00000000 0.00000000 15.00000000 0.00000000 0.00000000 0.00000000 15.00000000" pbc=[F, F, F] list_num_par=6 Properties=species:S:1:pos:R:3:Z:I:1:velocities:R:3
H         9.40656330       8.11438937       2.36771688          1         0.00000000       0.00000000       0.00000000
H        12.43102625       9.58844486       4.43855049          1         0.00000000       0.00000000       0.00000000
H        10.85412912       7.28880697       4.60987425          1         0.00000000       0.00000000       0.00000000
H        12.18809180       7.89371574       2.23102785          1         0.00000000       0.00000000       0.00000000
H         9.64949976       9.80911778       4.57523658          1         0.00000000       0.00000000       0.00000000
H        10.98346448      10.41402277       2.19639892          1         0.00000000       0.00000000       0.00000000
6
iter=20000 frozen=false energy=-1.26974174 energy_frozen_part=0.00000000 Lattice="15.00000000 0.00000000 0.00000000 0.00000000 15.00000000 0.00000000 0.00000000 0.00000000 15.00000000" pbc=[F, F, F] list_num_par=6 Properties=species:S:1:pos:R:3:Z:I:1:velocities:R:3
H         9.40656102       8.11446792       2.36765376          1         0.00000000       0.00000000       0.00000000
H        12.43107045       9.58834505       4.43855687          1         0.00000000       0.00000000       0.00000000
H        10.85406335       7.28877317       4.60980461          1         0.00000000       0.00000000       0.00000000
H        12.18808310       7.89367392       2.23098839          1         0.00000000       0.00000000       0.00000000
H         9.64955150       9.80913214       4.57521883          1         0.00000000       0.00000000       0.00000000
H        10.98356435      10.41403620       2.19639723          1         0.00000000       0.00000000       0.00000000
6
iter=20000 frozen=false energy=-1.26974174 energy_frozen_part=0.00000000 Lattice="15.00000000 0.00000000 0.00000000 0.00000000 15.00000000 0.00000000 0.00000000 0.00000000 15.00000000" pbc=[F, F, F] list_num_par=6 Properties=species:S:1:pos:R:3:Z:I:1:velocities:R:3
H         9.40717751       8.13389638       2.37346787          1         0.00000000       0.00000000       0.00000000
H        12.47667155       9.50997982       4.44545527          1         0.00000000       0.00000000       0.00000000
H        10.85188119       7.24219137       4.59201868          1         0.00000000       0.00000000       0.00000000
H        12.18232045       7.85593211       2.21345979          1         0.00000000       0.00000000       0.00000000
H         9.70153030       9.78793330       4.60545810          1         0.00000000       0.00000000       0.00000000
H        11.03196898      10.40167447       2.22689614          1         0.00000000       0.00000000       0.00000000
6
iter=20000 frozen=false energy=-1.26974174 energy_frozen_part=0.00000000 Lattice="15.00000000 0.00000000 0.00000000 0.00000000 15.00000000 0.00000000 0.00000000 0.00000000 15.00000000" pbc=[F, F, F] list_num_par=6 Properties=species:S:1:pos:R:3:Z:I:1:velocities:R:3
H         9.40656160       8.11439515       2.36772300          1         0.00000000       0.00000000       0.00000000
H        12.43102844       9.58844280       4.43855217          1         0.00000000       0.00000000       0.00000000
H        10.85411837       7.28880911       4.60988422          1         0.00000000       0.00000000       0.00000000
H        12.18808349       7.89371070       2.23102990          1         0.00000000       0.00000000       0.00000000
H         9.64949994       9.80912423       4.57524482          1         0.00000000       0.00000000       0.00000000
H        10.98346836      10.41402679       2.19639953          1         0.00000000       0.00000000       0.00000000
6
iter=20000 frozen=false energy=-1.26974174 energy_frozen_part=0.00000000 Lattice="15.00000000 0.00000000 0.00000000 0.00000000 15.00000000 0.00000000 0.00000000 0.00000000 15.00000000" pbc=[F, F, F] list_num_par=6 Properties=species:S:1:pos:R:3:Z:I:1:velocities:R:3
H         9.40654353       8.11442430       2.36773863          1         0.00000000       0.00000000       0.00000000
H        12.43102547       9.58845213       4.43856328          1         0.00000000       0.00000000       0.00000000
H        10.85408701       7.28884433       4.60990989          1         0.00000000       0.00000000       0.00000000
H        12.18806517       7.89369360       2.23105859          1         0.00000000       0.00000000       0.00000000
H         9.64950098       9.80917382       4.57523619          1         0.00000000       0.00000000       0.00000000
H        10.98348905      10.41402843       2.19638453          1         0.00000000       0.00000000       0.00000000
6
iter=20000 frozen=false energy=-1.26974174 energy_frozen_part=0.00000000 Lattice="15.00000000 0.00000000 0.00000000 0.00000000 15.00000000 0.00000000 0.00000000 0.00000000 15.00000000" pbc=[F, F, F] list_num_par=6 Properties=species:S:1:pos:R:3:Z:I:1:velocities:R:3
H         9.40658418       8.11434675       2.36771246          1         0.00000000       0.00000000       0.00000000
H        12.43092499       9.58850503       4.43865430          1         0.00000000       0.00000000       0.00000000
H        10.85409520       7.28882097       4.60992095          1         0.00000000       0.00000000       0.00000000
H        12.18812725       7.89376348       2.23112432          1         0.00000000       0.00000000       0.00000000
H         9.64938679       9.80909719       4.57523691          1         0.00000000       0.00000000       0.00000000
H        10.98342393      10.41403164       2.19644327          1         0.00000000       0.00000000       0.00000000
6
iter=20000 frozen=false energy=-1.26974174 energy_frozen_part=0.00000000 Lattice="15.00000000 0.00000000 0.00000000 0.00000000 15.00000000 0.00000000 0.00000000 0.00000000 15.00000000" pbc=[F, F, F] list_num_par=6 Properties=species:S:1:pos:R:3:Z:I:1:velocities:R:3
H         9.40653865       8.11442198       2.36772667          1         0.00000000       0.00000000       0.00000000
H        12.43100883       9.58843868       4.43857169          1         0.00000000       0.00000000       0.00000000
H        10.85407151       7.28882529       4.60989511          1         0.00000000       0.00000000       0.00000000
H        12.18806515       7.89370888       2.23105408          1         0.00000000       0.00000000       0.00000000
H         9.64948698       9.80915759       4.57524247          1         0.00000000       0.00000000       0.00000000
H        10.98346752      10.41403323       2.19640445          1         0.00000000       0.00000000       0.00000000
6
iter=20000 frozen=false energy=-1.26974174 energy_frozen_part=0.00000000 Lattice="15.00000000 0.00000000 0.00000000 0.00000000 15.00000000 0.00000000 0.00000000 0.00000000 15.00000000" pbc=[F, F, F] list_num_par=6 Properties=species:S:1:pos:R:3:Z:I:1:velocities:R:3
H         9.40718208       8.13388556       2.37347111          1         0.00000000       0.00000000       0.00000000
H        12.47667561       9.50999607       4.44545175          1         0.00000000       0.00000000       0.00000000
H        10.85189783       7.24220280       4.59202755          1         0.00000000       0.00000000       0.00000000
H        12.18232948       7.85595056       2.21346262          1         0.00000000       0.00000000       0.00000000
H         9.70152353       9.78793615       4.60546316          1         0.00000000       0.00000000       0.00000000
H        11.03195278      10.40168052       2.22690198          1         0.00000000       0.00000000       0.00000000
6
iter=20000 frozen=false energy=-1.26974174 energy_frozen_part=0.00000000 Lattice="15.00000000 0.00000000 0.00000000 0.00000000 15.00000000 0.00000000 0.00000000 0.00000000 15.00000000" pbc=[F, F, F] list_num_par=6 Properties=species:S:1:pos:R:3:Z:I:1:velocities:R:3
H         9.40654132       8.11445960       2.36767394          1         0.00000000       0.00000000       0.00000000
H        12.43104907       9.58835905       4.43855076          1         0.00000000       0.00000000       0.00000000
H        10.85406125       7.28878381       4.60981721          1         0.00000000       0.00000000       0.00000000
H        12.18806291       7.89368168       2.23099429          1         0.00000000       0.00000000       0.00000000
H         9.64952351       9.80913712       4.57523729          1         0.00000000       0.00000000       0.00000000
H        10.98352667      10.41403363       2.19640872          1         0.00000000       0.00000000       0.00000000
6
iter=20000 frozen=false energy=-1.26974174 energy_frozen_part=0.00000000 Lattice="15.00000000 0.00000000 0.00000000 0.00000000 15.00000000 0.00000000 0.00000000 0.00000000 15.00000000" pbc=[F, F, F] list_num_par=6 Properties=species:S:1:pos:R:3:Z:I:1:velocities:R:3
H         9.40650024       8.11443300       2.36765248          1         0.00000000       0.00000000       0.00000000
H        12.43095321       9.58842466       4.43856233          1         0.00000000       0.00000000       0.00000000
H        10.85401417       7.28880744       4.60982882          1         0.00000000       0.00000000       0.00000000
H        12.18802761       7.89371592       2.23101799          1         0.00000000       0.00000000       0.00000000
H         9.64942007       9.80913098       4.57520056          1         0.00000000       0.00000000       0.00000000
H        10.98344399      10.41404522       2.19639010          1         0.00000000       0.00000000       0.00000000
6
iter=20000 frozen=false energy=-1.26974174 energy_frozen_part=0.00000000 Lattice="15.00000000 0.00000000 0.00000000 0.00000000 15.00000000 0.00000000 0.00000000 0.00000000 15.00000000" pbc=[F, F, F] list_num_par=6 Properties=species:S:1:pos:R:3:Z:I:1:velocities:R:3
H         9.40659820       8.11436387       2.36772026          1         0.00000000       0.00000000       0.00000000
H        12.43094227       9.58849986       4.43866064          1         0.00000000       0.00000000       0.00000000
H        10.85411837       7.28880804       4.60991247          1         0.00000000       0.00000000       0.00000000
H        12.18814448       7.89379099       2.23111682          1         0.00000000       0.00000000       0.00000000
H         9.64940598       9.80907701       4.57526726          1         0.00000000       0.00000000       0.00000000
H        10.98342242      10.41405558       2.19646888          1         0.00000000       0.00000000       0.00000000
6
iter=20000 frozen=false energy=-1.26974174 energy_frozen_part=0.00000000 Lattice="15.00000000 0.00000000 0.00000000 0.00000000 15.00000000 0.00000000 0.00000000 0.00000000 15.00000000" pbc=[F, F, F] list_num_par=6 Properties=species:S:1:pos:R:3:Z:I:1:velocities:R:3
H         9.40650979       8.11450569       2.36766199          1         0.00000000       0.00000000       0.00000000
H        12.43103960       9.58832850       4.43856048          1         0.00000000       0.00000000       0.00000000
H        10.85401760       7.28877083       4.60979373          1         0.00000000       0.00000000       0.00000000
H        12.18802471       7.89368661       2.23097956          1         0.00000000       0.00000000       0.00000000
H         9.64952665       9.80914801       4.57524220          1         0.00000000       0.00000000       0.00000000
H        10.98353564      10.41406773       2.19642495          1         0.00000000       0.00000000       0.00000000
6
iter=20000 frozen=false energy=-1.26974174 energy_frozen_part=0.00000000 Lattice="15.00000000 0.00000000 0.00000000 0.00000000 15.00000000 0.00000000 0.00000000 0.00000000 15.00000000" pbc=[F, F, F] list_num_par=6 Properties=species:S:1:pos:R:3:Z:I:1:velocities:R:3
H         9.40653281       8.11447203       2.36766321          1         0.00000000       0.00000000       0.00000000
H        12.43105331       9.58834816       4.43854303          1         0.00000000       0.00000000       0.00000000
H        10.85404957       7.28877743       4.60980814          1         0.00000000       0.00000000       0.00000000
H        12.18805499       7.89368785       2.23098145          1         0.00000000       0.00000000       0.00000000
H         9.64953871       9.80914008       4.57522893          1         0.00000000       0.00000000       0.00000000
H        10.98353171      10.41404263       2.19639971          1         0.00000000       0.00000000       0.00000000
6
iter=20000 frozen=false energy=-1.26974174 energy_frozen_part=0.00000000 Lattice="15.00000000 0.00000000 0.00000000 0.00000000 15.00000000 0.00000000 0.00000000 0.00000000 15.00000000" pbc=[F, F, F] list_num_par=6 Properties=species:S:1:pos:R:3:Z:I:1:velocities:R:3
H         9.40654614       8.11440695       2.36773374          1         0.00000000       0.00000000       0.00000000
H        12.43102452       9.58842770       4.43856987          1         0.00000000       0.00000000       0.00000000
H        10.85408030       7.28882276       4.60990223          1         0.00000000       0.00000000       0.00000000
H        12.18807133       7.89368716       2.23106368          1         0.00000000       0.00000000       0.00000000
H         9.64949296       9.80915248       4.57524613          1         0.00000000       0.00000000       0.00000000
H        10.98347870      10.41401439       2.19640109          1         0.00000000       0.00000000       0.00000000
6
iter=20000 frozen=false energy=-1.26974174 energy_frozen_part=0.00000000 Lattice="15.00000000 0.00000000 0.00000000 0.00000000 15.00000000 0.00000000 0.00000000 0.00000000 15.00000000" pbc=[F, F, F] list_num_par=6 Properties=species:S:1:pos:R:3:Z:I:1:velocities:R:3
H         9.40653867       8.11444551       2.36767467          1         0.00000000       0.00000000       0.00000000
H        12.43104727       9.58836151       4.43854945          1         0.00000000       0.00000000       0.00000000
H        10.85407229       7.28877356       4.60982416          1         0.00000000       0.00000000       0.00000000
H        12.18806334       7.89368473       2.23099196          1         0.00000000       0.00000000       0.00000000
H         9.64952714       9.80911937       4.57524205          1         0.00000000       0.00000000       0.00000000
H        10.98351105      10.41403048       2.19641090          1         0.00000000       0.00000000       0.00000000
6
iter=20000 frozen=false energy=-1.26974174 energy_frozen_part=0.00000000 Lattice="15.00000000 0.00000000 0.00000000 0.00000000 15.00000000 0.00000000 0.00000000 0.00000000 15.00000000" pbc=[F, F, F] list_num_par=6 Properties=species:S:1:pos:R:3:Z:I:1:velocities:R:3
H         9.40654581       8.11442567       2.36772427          1         0.00000000       0.00000000       0.00000000
H        12.43101328       9.58845309       4.43857414          1         0.00000000       0.00000000       0.00000000
H        10.85408735       7.28883426       4.60989186          1         0.00000000       0.00000000       0.00000000
H        12.18807761       7.89371657       2.23105964          1         0.00000000       0.00000000       0.00000000
H         9.64948700       9.80915208       4.57524406          1         0.00000000       0.00000000       0.00000000
H        10.98347314      10.41403662       2.19640063          1         0.00000000       0.00000000       0.00000000
6
iter=20000 frozen=false energy=-1.26974174 energy_frozen_part=0.00000000 Lattice="15.00000000 0.00000000 0.00000000 0.00000000 15.00000000 0.00000000 0.00000000 0.00000000 15.00000000" pbc=[F, F, F] list_num_par=6 Properties=species:S:1:pos:R:3:Z:I:1:velocities:R:3
H         9.40651261       8.11445754       2.36770075          1         0.00000000       0.00000000       0.00000000
H        12.43099937       9.58841201       4.43857859          1         0.00000000       0.00000000       0.00000000
H        10.85400126       7.28883643       4.60988883          1         0.00000000       0.00000000       0.00000000
H        12.18803500       7.89368270       2.23106406          1         0.00000000       0.00000000       0.00000000
H         9.64947429       9.80919376       4.57521408          1         0.00000000       0.00000000       0.00000000
H        10.98349987      10.41403179       2.19638959          1         0.00000000       0.00000000       0.00000000
6
iter=20000 frozen=false energy=-1.26974174 energy_frozen_part=0.00000000 Lattice="15.00000000 0.00000000 0.00000000 0.00000000 15.00000000 0.00000000 0.00000000 0.00000000 15.00000000" pbc=[F, F, F] list_num_par=6 Properties=species:S:1:pos:R:3:Z:I:1:velocities:R:3
H         9.40654436       8.11440780       2.36773940          1         0.00000000       0.00000000       0.00000000
H        12.43099134       9.58843733       4.43862589          1         0.00000000       0.00000000       0.00000000
H        10.85405328       7.28883127       4.60992905          1         0.00000000       0.00000000       0.00000000
H        12.18807703       7.89369900       2.23110564          1         0.00000000       0.00000000       0.00000000
H         9.64946129       9.80915379       4.57525982          1         0.00000000       0.00000000       0.00000000
H        10.98348143      10.41402556       2.19643903          1         0.00000000       0.00000000       0.00000000
6
iter=20000 frozen=false energy=-1.26974174 energy_frozen_part=0.00000000 Lattice="15.00000000 0.00000000 0.00000000 0.00000000 15.00000000 0.00000000 0.00000000 0.00000000 15.00000000" pbc=[F, F, F] list_num_par=6 Properties=species:S:1:pos:R:3:Z:I:1:velocities:R:3
H         9.40653877       8.11441163       2.36775421          1         0.00000000       0.00000000       0.00000000
H        12.43101642       9.58846214       4.43857724          1         0.00000000       0.00000000       0.00000000
H        10.85410831       7.28883090       4.60990921          1         0.00000000       0.00000000       0.00000000
H        12.18806344       7.89373008       2.23105222          1         0.00000000       0.00000000       0.00000000
H         9.64949223       9.80914701       4.57527227          1         0.00000000       0.00000000       0.00000000
H        10.98344404      10.41404088       2.19641856          1         0.00000000       0.00000000       0.00000000
6
iter=20000 frozen=false energy=-1.26974174 energy_frozen_part=0.00000000 Lattice="15.00000000 0.00000000 0.00000000 0.00000000 15.00000000 0.00000000 0.00000000 0.00000000 15.00000000" pbc=[F, F, F] list_num_par=6 Properties=species:S:1:pos:R:3:Z:I:1:velocities:R:3
H         9.40718891       8.13388713       2.37346954          1         0.00000000       0.00000000       0.00000000
H        12.47667745       9.50999417       4.44545697          1         0.00000000       0.00000000       0.00000000
H        10.85190471       7.24219729       4.59202055          1         0.00000000       0.00000000       0.00000000
H        12.18233898       7.85595668       2.21345921          1         0.00000000       0.00000000       0.00000000
H         9.70153442       9.78792491       4.60546019          1         0.00000000       0.00000000       0.00000000
H        11.03196208      10.40168365       2.22690605          1         0.00000000       0.00000000       0.00000000
6
iter=20000 frozen=false energy=-1.26974174 energy_frozen_part=0.00000000 Lattice="15.00000000 0.00000000 0.00000000 0.00000000 15.00000000 0.00000000 0.00000000 0.00000000 15.00000000" pbc=[F, F, F] list_num_par=6 Properties=species:S:1:pos:R:3:Z:I:1:velocities:R:3
H         9.40654333       8.11445998       2.36766226          1         0.00000000       0.00000000       0.00000000
H        12.43105014       9.58835496       4.43855144          1         0.00000000       0.00000000       0.00000000
H        10.85406152       7.28877312       4.60981312          1         0.00000000       0.00000000       0.00000000
H        12.18806746       7.89367809       2.23098787          1         0.00000000       0.00000000       0.00000000
H         9.64953175       9.80912819       4.57521894          1         0.00000000       0.00000000       0.00000000
H        10.98354212      10.41403222       2.19639592          1         0.00000000       0.00000000       0.00000000
6
iter=20000 frozen=false energy=-1.26974174 energy_frozen_part=0.00000000 Lattice="15.00000000 0.00000000 0.00000000 0.00000000 15.00000000 0.00000000 0.00000000 0.00000000 15.00000000" pbc=[F, F, F] list_num_par=6 Properties=species:S:1:pos:R:3:Z:I:1:velocities:R:3
H         9.40653127       8.11441601       2.36774728          1         0.00000000       0.00000000       0.00000000
H        12.43101962       9.58845499       4.43854778          1         0.00000000       0.00000000       0.00000000
H        10.85409231       7.28884317       4.60990616          1         0.00000000       0.00000000       0.00000000
H        12.18805457       7.89370955       2.23104490          1         0.00000000       0.00000000       0.00000000
H         9.64949840       9.80916527       4.57525083          1         0.00000000       0.00000000       0.00000000
H        10.98345021      10.41403126       2.19638508          1         0.00000000       0.00000000       0.00000000
6
iter=20000 frozen=false energy=-1.26974174 energy_frozen_part=0.00000000 Lattice="15.00000000 0.00000000 0.00000000 0.00000000 15.00000000 0.00000000 0.00000000 0.00000000 15.00000000" pbc=[F, F, F] list_num_par=6 Properties=species:S:1:pos:R:3:Z:I:1:velocities:R:3
H         9.40652197       8.11440896       2.36774995          1         0.00000000       0.00000000       0.00000000
H        12.43101512       9.58845631       4.43853990          1         0.00000000       0.00000000       0.00000000
H        10.85409313       7.28884547       4.60990324          1         0.00000000       0.00000000       0.00000000
H        12.18805157       7.89369827       2.23104194          1         0.00000000       0.00000000       0.00000000
H         9.64949644       9.80917010       4.57524552          1         0.00000000       0.00000000       0.00000000
H        10.98345469      10.41402118       2.19637646          1         0.00000000       0.00000000       0.00000000
6
iter=20000 frozen=false energy=-1.26974174 energy_frozen_part=0.00000000 Lattice="15.00000000 0.00000000 0.00000000 0.00000000 15.00000000 0.00000000 0.00000000 0.00000000 15.00000000" pbc=[F, F, F] list_num_par=6 Properties=species:S:1:pos:R:3:Z:I:1:velocities:R:3
H         9.40656254       8.11440802       2.36772486          1         0.00000000       0.00000000       0.00000000
H        12.43102985       9.58844003       4.43856055          1         0.00000000       0.00000000       0.00000000
H        10.85411420       7.28881839       4.60988632          1         0.00000000       0.00000000       0.00000000
H        12.18808423       7.89371104       2.23104318          1         0.00000000       0.00000000       0.00000000
H         9.64950556       9.80913255       4.57525418          1         0.00000000       0.00000000       0.00000000
H        10.98347352      10.41402940       2.19640540          1         0.00000000       0.00000000       0.00000000
6
iter=20000 frozen=false energy=-1.26974174 energy_frozen_part=0.00000000 Lattice="15.00000000 0.00000000 0.00000000 0.00000000 15.00000000 0.00000000 0.00000000 0.00000000 15.00000000" pbc=[F, F, F] list_num_par=6 Properties=species:S:1:pos:R:3:Z:I:1:velocities:R:3
H         9.40653862       8.11443233       2.36771330          1         0.00000000       0.00000000       0.00000000
H        12.43099715       9.58842237       4.43859412          1         0.00000000       0.00000000       0.00000000
H        10.85401896       7.28883442       4.60991435          1         0.00000000       0.00000000       0.00000000
H        12.18805880       7.89366863       2.23108881          1         0.00000000       0.00000000       0.00000000
H         9.64947491       9.80917961       4.57522530          1         0.00000000       0.00000000       0.00000000
H        10.98350703      10.41401632       2.19640078          1         0.00000000       0.00000000       0.00000000
6
iter=20000 frozen=false energy=-1.26974174 energy_frozen_part=0.00000000 Lattice="15.00000000 0.00000000 0.00000000 0.00000000 15.00000000 0.00000000 0.00000000 0.00000000 15.00000000" pbc=[F, F, F] list_num_par=6 Properties=species:S:1:pos:R:3:Z:I:1:velocities:R:3
H         9.40654334       8.11444885       2.36767283          1         0.00000000       0.00000000       0.00000000
H        12.43105082       9.58836421       4.43854796          1         0.00000000       0.00000000       0.00000000
H        10.85406291       7.28878035       4.60982379          1         0.00000000       0.00000000       0.00000000
H        12.18806591       7.89368308       2.23099242          1         0.00000000       0.00000000       0.00000000
H         9.64952435       9.80913335       4.57522673          1         0.00000000       0.00000000       0.00000000
H        10.98352576      10.41403001       2.19640370          1         0.00000000       0.00000000       0.00000000
6
iter=20000 frozen=false energy=-1.26974174 energy_frozen_part=0.00000000 Lattice="15.00000000 0.00000000 0.00000000 0.00000000 15.00000000 0.00000000 0.00000000 0.00000000 15.00000000" pbc=[F, F, F] list_num_par=6 Properties=species:S:1:pos:R:3:Z:I:1:velocities:R:3
H         9.40653200       8.11442665       2.36770895          1         0.00000000       0.00000000       0.00000000
H        12.43099253       9.58840917       4.43859843          1         0.00000000       0.00000000       0.00000000
H        10.85402478       7.28882441       4.60990547          1         0.00000000       0.00000000       0.00000000
H        12.18806125       7.89366339       2.23108398          1         0.00000000       0.00000000       0.00000000
H         9.64946888       9.80916973       4.57522751          1         0.00000000       0.00000000       0.00000000
H        10.98350588      10.41400841       2.19639801          1         0.00000000       0.00000000       0.00000000
6
iter=20000 frozen=false energy=-1.26974174 energy_frozen_part=0.00000000 Lattice="15.00000000 0.00000000 0.00000000 0.00000000 15.00000000 0.00000000 0.00000000 0.00000000 15.00000000" pbc=[F, F, F] list_num_par=6 Properties=species:S:1:pos:R:3:Z:I:1:velocities:R:3
H         9.40656324       8.11438336       2.36773538          1         0.00000000       0.00000000       0.00000000
H        12.43103243       9.58844520       4.43854615          1         0.00000000       0.00000000       0.00000000
H        10.85411679       7.28882013       4.60990639          1         0.00000000       0.00000000       0.00000000
H        12.18809083       7.89368437       2.23104942          1         0.00000000       0.00000000       0.00000000
H         9.64950641       9.80913477       4.57524037          1         0.00000000       0.00000000       0.00000000
H        10.98347354      10.41400676       2.19638487          1         0.00000000       0.00000000       0.00000000
6
iter=20000 frozen=false energy=-1.26974174 energy_frozen_part=0.00000000 Lattice="15.00000000 0.00000000 0.00000000 0.00000000 15.00000000 0.00000000 0.00000000 0.00000000 15.00000000" pbc=[F, F, F] list_num_par=6 Properties=species:S:1:pos:R:3:Z:I:1:velocities:R:3
H         9.40656404       8.11447057       2.36770607          1         0.00000000       0.00000000       0.00000000
H        12.43109284       9.58837346       4.43855472          1         0.00000000       0.00000000       0.00000000
H        10.85411826       7.28878447       4.60982960          1         0.00000000       0.00000000       0.00000000
H        12.18808083       7.89370747       2.23099138          1         0.00000000       0.00000000       0.00000000
H         9.64957632       9.80913214       4.57526946          1         0.00000000       0.00000000       0.00000000
H        10.98354655      10.41405589       2.19642797          1         0.00000000       0.00000000       0.00000000
6
iter=20000 frozen=false energy=-1.26974174 energy_frozen_part=0.00000000 Lattice="15.00000000 0.00000000 0.00000000 0.00000000 15.00000000 0.00000000 0.00000000 0.00000000 15.00000000" pbc=[F, F, F] list_num_par=6 Properties=species:S:1:pos:R:3:Z:I:1:velocities:R:3
H         9.40650818       8.11441477       2.36776264          1         0.00000000       0.00000000       0.00000000
H        12.43100598       9.58846613       4.43855647          1         0.00000000       0.00000000       0.00000000
H        10.85408328       7.28885226       4.60992410          1         0.00000000       0.00000000       0.00000000
H        12.18803157       7.89371610       2.23105659          1         0.00000000       0.00000000       0.00000000
H         9.64947841       9.80916733       4.57525932          1         0.00000000       0.00000000       0.00000000
H        10.98343360      10.41403472       2.19639989          1         0.00000000       0.00000000       0.00000000
6
iter=20000 frozen=false energy=-1.26974174 energy_frozen_part=0.00000000 Lattice="15.00000000 0.00000000 0.00000000 0.00000000 15.00000000 0.00000000 0.00000000 0.00000000 15.00000000" pbc=[F, F, F] list_num_par=6 Properties=species:S:1:pos:R:3:Z:I:1:velocities:R:3
H         9.40657781       8.11442855       2.36766138          1         0.00000000       0.00000000       0.00000000
H        12.43106626       9.58826604       4.43861166          1         0.00000000       0.00000000       0.00000000
H        10.85402988       7.28871859       4.60983800          1         0.00000000       0.00000000       0.00000000
H        12.18809760       7.89360313       2.23104315          1         0.00000000       0.00000000       0.00000000
H         9.64954541       9.80910261       4.57522383          1         0.00000000       0.00000000       0.00000000
H        10.98360868      10.41397937       2.19642610          1         0.00000000       0.00000000       0.00000000
6
iter=20000 frozen=false energy=-1.26974174 energy_frozen_part=0.00000000 Lattice="15.00000000 0.00000000 0.00000000 0.00000000 15.00000000 0.00000000 0.00000000 0.00000000 15.00000000" pbc=[F, F, F] list_num_par=6 Properties=species:S:1:pos:R:3:Z:I:1:velocities:R:3
H         9.40650906       8.11442720       2.36765825          1         0.00000000       0.00000000       0.00000000
H        12.43093872       9.58845162       4.43855264          1         0.00000000       0.00000000       0.00000000
H        10.85401141       7.28883091       4.60984014          1         0.00000000       0.00000000       0.00000000
H        12.18803599       7.89373476       2.23102498          1         0.00000000       0.00000000       0.00000000
H         9.64940856       9.80915270       4.57519017          1         0.00000000       0.00000000       0.00000000
H        10.98342728      10.41404965       2.19637285          1         0.00000000       0.00000000       0.00000000
6
iter=20000 frozen=false energy=-1.26974174 energy_frozen_part=0.00000000 Lattice="15.00000000 0.00000000 0.00000000 0.00000000 15.00000000 0.00000000 0.00000000 0.00000000 15.00000000" pbc=[F, F, F] list_num_par=6 Properties=species:S:1:pos:R:3:Z:I:1:velocities:R:3
H         9.40650492       8.11443095       2.36765998          1         0.00000000       0.00000000       0.00000000
H        12.43095518       9.58842264       4.43855327          1         0.00000000       0.00000000       0.00000000
H        10.85401783       7.28881137       4.60983084          1         0.00000000       0.00000000       0.00000000
H        12.18803024       7.89371721       2.23100877          1         0.00000000       0.00000000       0.00000000
H         9.64943454       9.80914144       4.57520612          1         0.00000000       0.00000000       0.00000000
H        10.98343814      10.41404321       2.19638438          1         0.00000000       0.00000000       0.00000000
6
iter=20000 frozen=false energy=-1.26974174 energy_frozen_part=0.00000000 Lattice="15.00000000 0.00000000 0.00000000 0.00000000 15.00000000 0.00000000 0.00000000 0.00000000 15.00000000" pbc=[F, F, F] list_num_par=6 Properties=species:S:1:pos:R:3:Z:I:1:velocities:R:3
H         9.40656212       8.11438523       2.36772111          1         0.00000000       0.00000000       0.00000000
H        12.43102672       9.58842689       4.43856467          1         0.00000000       0.00000000       0.00000000
H        10.85409681       7.28881271       4.60989862          1         0.00000000       0.00000000       0.00000000
H        12.18809011       7.89367811       2.23106033          1         0.00000000       0.00000000       0.00000000
H         9.64949680       9.80913971       4.57522252          1         0.00000000       0.00000000       0.00000000
H        10.98349888      10.41400149       2.19638890          1         0.00000000       0.00000000       0.00000000
6
iter=20000 frozen=false energy=-1.26974174 energy_frozen_part=0.00000000 Lattice="15.00000000 0.00000000 0.00000000 0.00000000 15.00000000 0.00000000 0.00000000 0.00000000 15.00000000" pbc=[F, F, F] list_num_par=6 Properties=species:S:1:pos:R:3:Z:I:1:velocities:R:3
H         9.40660245       8.11435894       2.36771014          1         0.00000000       0.00000000       0.00000000
H        12.43095516       9.58848674       4.43866779          1         0.00000000       0.00000000       0.00000000
H        10.85411936       7.28879973       4.60989759          1         0.00000000       0.00000000       0.00000000
H        12.18814556       7.89378493       2.23111011          1         0.00000000       0.00000000       0.00000000
H         9.64941426       9.80906642       4.57527033          1         0.00000000       0.00000000       0.00000000
H        10.98343595      10.41405003       2.19647691          1         0.00000000       0.00000000       0.00000000
6
iter=20000 frozen=false energy=-1.26974174 energy_frozen_part=0.00000000 Lattice="15.00000000 0.00000000 0.00000000 0.00000000 15.00000000 0.00000000 0.00000000 0.00000000 15.00000000" pbc=[F, F, F] list_num_par=6 Properties=species:S:1:pos:R:3:Z:I:1:velocities:R:3
H         9.40653805       8.11440745       2.36774336          1         0.00000000       0.00000000       0.00000000
H        12.43098543       9.58844391       4.43861537          1         0.00000000       0.00000000       0.00000000
H        10.85404882       7.28882588       4.60993617          1         0.00000000       0.00000000       0.00000000
H        12.18806562       7.89369272       2.23110694          1         0.00000000       0.00000000       0.00000000
H         9.64945791       9.80914889       4.57525491          1         0.00000000       0.00000000       0.00000000
H        10.98347086      10.41402094       2.19643120          1         0.00000000       0.00000000       0.00000000
6
iter=20000 frozen=false energy=-1.26974174 energy_frozen_part=0.00000000 Lattice="15.00000000 0.00000000 0.00000000 0.00000000 15.00000000 0.00000000 0.00000000 0.00000000 15.00000000" pbc=[F, F, F] list_num_par=6 Properties=species:S:1:pos:R:3:Z:I:1:velocities:R:3
H         9.40652103       8.11440204       2.36766108          1         0.00000000       0.00000000       0.00000000
H        12.43094474       9.58841904       4.43856984          1         0.00000000       0.00000000       0.00000000
H        10.85400760       7.28881293       4.60985977          1         0.00000000       0.00000000       0.00000000
H        12.18805169       7.89368078       2.23104730          1         0.00000000       0.00000000       0.00000000
H         9.64941628       9.80914079       4.57517676          1         0.00000000       0.00000000       0.00000000
H        10.98345701      10.41400739       2.19636115          1         0.00000000       0.00000000       0.00000000
6
iter=20000 frozen=false energy=-1.26974174 energy_frozen_part=0.00000000 Lattice="15.00000000 0.00000000 0.00000000 0.00000000 15.00000000 0.00000000 0.00000000 0.00000000 15.00000000" pbc=[F, F, F] list_num_par=6 Properties=species:S:1:pos:R:3:Z:I:1:velocities:R:3
H         9.40653586       8.11440659       2.36773672          1         0.00000000       0.00000000       0.00000000
H        12.43101050       9.58845221       4.43854275          1         0.00000000       0.00000000       0.00000000
H        10.85408808       7.28884442       4.60990280          1         0.00000000       0.00000000       0.00000000
H        12.18806288       7.89369891       2.23104636          1         0.00000000       0.00000000       0.00000000
H         9.64948562       9.80916861       4.57523497          1         0.00000000       0.00000000       0.00000000
H        10.98345866      10.41402118       2.19637614          1         0.00000000       0.00000000       0.00000000
6
iter=20000 frozen=false energy=-1.26974174 energy_frozen_part=0.00000000 Lattice="15.00000000 0.00000000 0.00000000 0.00000000 15.00000000 0.00000000 0.00000000 0.00000000 15.00000000" pbc=[F, F, F] list_num_par=6 Properties=species:S:1:pos:R:3:Z:I:1:velocities:R:3
H         9.40656286       8.11440194       2.36772727          1         0.00000000       0.00000000       0.00000000
H        12.43102499       9.58843209       4.43857576          1         0.00000000       0.00000000       0.00000000
H        10.85410230       7.28881719       4.60989339          1         0.00000000       0.00000000       0.00000000
H        12.18809138       7.89369301       2.23105565          1         0.00000000       0.00000000       0.00000000
H         9.64950180       9.80914045       4.57523509          1         0.00000000       0.00000000       0.00000000
H        10.98349598      10.41401689       2.19639661          1         0.00000000       0.00000000       0.00000000
6
iter=20000 frozen=false energy=-1.26974174 energy_frozen_part=0.00000000 Lattice="15.00000000 0.00000000 0.00000000 0.00000000 15.00000000 0.00000000 0.00000000 0.00000000 15.00000000" pbc=[F, F, F] list_num_par=6 Properties=species:S:1:pos:R:3:Z:I:1:velocities:R:3
H         9.40660139       8.11435086       2.36771708          1         0.00000000       0.00000000       0.00000000
H        12.43094981       9.58849481       4.43864591          1         0.00000000       0.00000000       0.00000000
H        10.85412419       7.28880474       4.60991526          1         0.00000000       0.00000000       0.00000000
H        12.18814069       7.89376234       2.23111438          1         0.00000000       0.00000000       0.00000000
H         9.64941059       9.80907297       4.57525461          1         0.00000000       0.00000000       0.00000000
H        10.98343195      10.41403531       2.19645580          1         0.00000000       0.00000000       0.00000000
6
iter=20000 frozen=false energy=-1.26974174 energy_frozen_part=0.00000000 Lattice="15.00000000 0.00000000 0.00000000 0.00000000 15.00000000 0.00000000 0.00000000 0.00000000 15.00000000" pbc=[F, F, F] list_num_par=6 Properties=species:S:1:pos:R:3:Z:I:1:velocities:R:3
H         9.40652804       8.11439471       2.36774145          1         0.00000000       0.00000000       0.00000000
H        12.43100751       9.58845198       4.43856453          1         0.00000000       0.00000000       0.00000000
H        10.85410137       7.28882455       4.60989091          1         0.00000000       0.00000000       0.00000000
H        12.18805988       7.89372495       2.23104194          1         0.00000000       0.00000000       0.00000000
H         9.64947641       9.80913024       4.57526307          1         0.00000000       0.00000000       0.00000000
H        10.98343030      10.41402632       2.19641085          1         0.00000000       0.00000000       0.00000000
6
iter=20000 frozen=false energy=-1.26974174 energy_frozen_part=0.00000000 Lattice="15.00000000 0.00000000 0.00000000 0.00000000 15.00000000 0.00000000 0.00000000 0.00000000 15.00000000" pbc=[F, F, F] list_num_par=6 Properties=species:S:1:pos:R:3:Z:I:1:velocities:R:3
H         9.40650957       8.11443923       2.36766078          1         0.00000000       0.00000000       0.00000000
H        12.43096348       9.58842610       4.43854911          1         0.00000000       0.00000000       0.00000000
H        10.85401491       7.28881974       4.60983652          1         0.00000000       0.00000000       0.00000000
H        12.18803588       7.89371128       2.23101898          1         0.00000000       0.00000000       0.00000000
H         9.64943534       9.80915197       4.57519434          1         0.00000000       0.00000000       0.00000000
H        10.98344791      10.41404509       2.19637763          1         0.00000000       0.00000000       0.00000000
6
iter=20000 frozen=false energy=-1.26974174 energy_frozen_part=0.00000000 Lattice="15.00000000 0.00000000 0.00000000 0.00000000 15.00000000 0.00000000 0.00000000 0.00000000 15.00000000" pbc=[F, F, F] list_num_par=6 Properties=species:S:1:pos:R:3:Z:I:1:velocities:R:3
H         9.40652976       8.11443285       2.36770456          1         0.00000000       0.00000000       0.00000000
H        12.43098985       9.58841071       4.43859073          1         0.00000000       0.00000000       0.00000000
H        10.85401684       7.28882643       4.60990723          1         0.00000000       0.00000000       0.00000000
H        12.18805554       7.89366794       2.23108181          1         0.00000000       0.00000000       0.00000000
H         9.64946411       9.80917243       4.57521901          1         0.00000000       0.00000000       0.00000000
H        10.98350958      10.41401487       2.19639881          1         0.00000000       0.00000000       0.00000000
6
iter=20000 frozen=false energy=-1.26974174 energy_frozen_part=0.00000000 Lattice="15.00000000 0.00000000 0.00000000 0.00000000 15.00000000 0.00000000 0.00000000 0.00000000 15.00000000" pbc=[F, F, F] list_num_par=6 Properties=species:S:1:pos:R:3:Z:I:1:velocities:R:3
H         9.40652401       8.11445757       2.36769462          1         0.00000000       0.00000000       0.00000000
H        12.43100107       9.58839934       4.43858002          1         0.00000000       0.00000000       0.00000000
H        10.85400154       7.28883342       4.60989089          1         0.00000000       0.00000000       0.00000000
H        12.18804782       7.89365999       2.23106910          1         0.00000000       0.00000000       0.00000000
H         9.64947657       9.80919521       4.57519997          1         0.00000000       0.00000000       0.00000000
H        10.98352965      10.41401792       2.19638371          1         0.00000000       0.00000000       0.00000000
6
iter=20000 frozen=false energy=-1.26974174 energy_frozen_part=0.00000000 Lattice="15.00000000 0.00000000 0.00000000 0.00000000 15.00000000 0.00000000 0.00000000 0.00000000 15.00000000" pbc=[F, F, F] list_num_par=6 Properties=species:S:1:pos:R:3:Z:I:1:velocities:R:3
H         9.40654828       8.11444582       2.36767711          1         0.00000000       0.00000000       0.00000000
H        12.43104867       9.58837879       4.43855015          1         0.00000000       0.00000000       0.00000000
H        10.85405504       7.28880255       4.60984423          1         0.00000000       0.00000000       0.00000000
H        12.18806840       7.89367068       2.23101156          1         0.00000000       0.00000000       0.00000000
H         9.64952183       9.80915045       4.57521567          1         0.00000000       0.00000000       0.00000000
H        10.98353198      10.41402019       2.19638463          1         0.00000000       0.00000000       0.00000000
6
iter=20000 frozen=false energy=-1.26974174 energy_frozen_part=0.00000000 Lattice="15.00000000 0.00000000 0.00000000 0.00000000 15.00000000 0.00000000 0.00000000 0.00000000 15.00000000" pbc=[F, F, F] list_num_par=6 Properties=species:S:1:pos:R:3:Z:I:1:velocities:R:3
H         9.40651642       8.11443269       2.36769394          1         0.00000000       0.00000000       0.00000000
H        12.43099674       9.58839890       4.43856814          1         0.00000000       0.00000000       0.00000000
H        10.85400703       7.28882175       4.60988867          1         0.00000000       0.00000000       0.00000000
H        12.18803525       7.89365071       2.23105827          1         0.00000000       0.00000000       0.00000000
H         9.64946950       9.80917719       4.57519644          1         0.00000000       0.00000000       0.00000000
H        10.98351039      10.41400493       2.19637277          1         0.00000000       0.00000000       0.00000000
6
iter=20000 frozen=false energy=-1.26974174 energy_frozen_part=0.00000000 Lattice="15.00000000 0.00000000 0.00000000 0.00000000 15.00000000 0.00000000 0.00000000 0.00000000 15.00000000" pbc=[F, F, F] list_num_par=6 Properties=species:S:1:pos:R:3:Z:I:1:velocities:R:3
H         9.40749114       8.13283860       2.37343757          1         0.00000000       0.00000000       0.00000000
H        12.47711497       9.50926583       4.44502268          1         0.00000000       0.00000000       0.00000000
H        10.85292299       7.24103748       4.59147688          1         0.00000000       0.00000000       0.00000000
H        12.18267294       7.85562523       2.21275081          1         0.00000000       0.00000000       0.00000000
H         9.70193442       9.78648266       4.60571531          1         0.00000000       0.00000000       0.00000000
H        11.03168114      10.40107120       2.22698836          1         0.00000000       0.00000000       0.00000000
6
iter=20000 frozen=false energy=-1.26974174 energy_frozen_part=0.00000000 Lattice="15.00000000 0.00000000 0.00000000 0.00000000 15.00000000 0.00000000 0.00000000 0.00000000 15.00000000" pbc=[F, F, F] list_num_par=6 Properties=species:S:1:pos:R:3:Z:I:1:velocities:R:3
H         9.40650972       8.11441552       2.36767022          1         0.00000000       0.00000000       0.00000000
H        12.43094087       9.58843070       4.43857703          1         0.00000000       0.00000000       0.00000000
H        10.85398670       7.28882790       4.60987833          1         0.00000000       0.00000000       0.00000000
H        12.18803923       7.89367980       2.23107027          1         0.00000000       0.00000000       0.00000000
H         9.64941156       9.80916396       4.57518557          1         0.00000000       0.00000000       0.00000000
H        10.98345510      10.41401177       2.19636706          1         0.00000000       0.00000000       0.00000000
6
iter=20000 frozen=false energy=-1.26974174 energy_frozen_part=0.00000000 Lattice="15.00000000 0.00000000 0.00000000 0.00000000 15.00000000 0.00000000 0.00000000 0.00000000 15.00000000" pbc=[F, F, F] list_num_par=6 Properties=species:S:1:pos:R:3:Z:I:1:velocities:R:3
H         9.40654884       8.11441184       2.36773496          1         0.00000000       0.00000000       0.00000000
H        12.43102249       9.58844521       4.43856691          1         0.00000000       0.00000000       0.00000000
H        10.85409279       7.28884252       4.60990796          1         0.00000000       0.00000000       0.00000000
H        12.18807519       7.89369688       2.23106074          1         0.00000000       0.00000000       0.00000000
H         9.64949779       9.80916456       4.57524523          1         0.00000000       0.00000000       0.00000000
H        10.98347932      10.41402210       2.19639746          1         0.00000000       0.00000000       0.00000000
6
iter=20000 frozen=false energy=-1.26974174 energy_frozen_part=0.00000000 Lattice="15.00000000 0.00000000 0.00000000 0.00000000 15.00000000 0.00000000 0.00000000 0.00000000 15.00000000" pbc=[F, F, F] list_num_par=6 Properties=species:S:1:pos:R:3:Z:I:1:velocities:R:3
H         9.40655711       8.11440234       2.36773438          1         0.00000000       0.00000000       0.00000000
H        12.43103636       9.58845438       4.43855132          1         0.00000000       0.00000000       0.00000000
H        10.85412383       7.28882420       4.60988763          1         0.00000000       0.00000000       0.00000000
H        12.18808117       7.89372393       2.23103725          1         0.00000000       0.00000000       0.00000000
H         9.64950657       9.80913847       4.57524806          1         0.00000000       0.00000000       0.00000000
H        10.98346678      10.41403667       2.19639793          1         0.00000000       0.00000000       0.00000000
6
iter=20000 frozen=false energy=-1.26974174 energy_frozen_part=0.00000000 Lattice="15.00000000 0.00000000 0.00000000 0.00000000 15.00000000 0.00000000 0.00000000 0.00000000 15.00000000" pbc=[F, F, F] list_num_par=6 Properties=species:S:1:pos:R:3:Z:I:1:velocities:R:3
H         9.40657615       8.11447356       2.36768982          1         0.00000000       0.00000000       0.00000000
H        12.43107947       9.58836722       4.43856803          1         0.00000000       0.00000000       0.00000000
H        10.85410595       7.28877728       4.60982329          1         0.00000000       0.00000000       0.00000000
H        12.18809532       7.89371527       2.23099785          1         0.00000000       0.00000000       0.00000000
H         9.64956013       9.80912920       4.57526616          1         0.00000000       0.00000000       0.00000000
H        10.98354477      10.41406188       2.19644235          1         0.00000000       0.00000000       0.00000000
6
iter=20000 frozen=false energy=-1.26974174 energy_frozen_part=0.00000000 Lattice="15.00000000 0.00000000 0.00000000 0.00000000 15.00000000 0.00000000 0.00000000 0.00000000 15.00000000" pbc=[F, F, F] list_num_par=6 Properties=species:S:1:pos:R:3:Z:I:1:velocities:R:3
H         9.40651410       8.11440423       2.36774664          1         0.00000000       0.00000000       0.00000000
H        12.43100212       9.58844102       4.43857429          1         0.00000000       0.00000000       0.00000000
H        10.85407178       7.28882207       4.60990583          1         0.00000000       0.00000000       0.00000000
H        12.18803908       7.89370070       2.23105462          1         0.00000000       0.00000000       0.00000000
H         9.64947546       9.80914190       4.57526614          1         0.00000000       0.00000000       0.00000000
H        10.98344130      10.41402039       2.19641722          1         0.00000000       0.00000000       0.00000000
6
iter=20000 frozen=false energy=-1.26974174 energy_frozen_part=0.00000000 Lattice="15.00000000 0.00000000 0.00000000 0.00000000 15.00000000 0.00000000 0.00000000 0.00000000 15.00000000" pbc=[F, F, F] list_num_par=6 Properties=species:S:1:pos:R:3:Z:I:1:velocities:R:3
H         9.40652377       8.11449005       2.36765725          1         0.00000000       0.00000000       0.00000000
H        12.43103661       9.58834096       4.43855675          1         0.00000000       0.00000000       0.00000000
H        10.85401503       7.28878520       4.60981232          1         0.00000000       0.00000000       0.00000000
H        12.18804444       7.89367748       2.23099185          1         0.00000000       0.00000000       0.00000000
H         9.64952211       9.80915712       4.57522007          1         0.00000000       0.00000000       0.00000000
H        10.98354871      10.41404952       2.19640624          1         0.00000000       0.00000000       0.00000000
6
iter=20000 frozen=false energy=-1.26974174 energy_frozen_part=0.00000000 Lattice="15.00000000 0.00000000 0.00000000 0.00000000 15.00000000 0.00000000 0.00000000 0.00000000 15.00000000" pbc=[F, F, F] list_num_par=6 Properties=species:S:1:pos:R:3:Z:I:1:velocities:R:3
H         9.40654261       8.11446806       2.36768902          1         0.00000000       0.00000000       0.00000000
H        12.43107422       9.58836302       4.43854187          1         0.00000000       0.00000000       0.00000000
H        10.85409224       7.28878086       4.60980871          1         0.00000000       0.00000000       0.00000000
H        12.18806711       7.89370095       2.23097418          1         0.00000000       0.00000000       0.00000000
H         9.64956085       9.80913338       4.57525464          1         0.00000000       0.00000000       0.00000000
H        10.98352726      10.41405050       2.19641281          1         0.00000000       0.00000000       0.00000000
6
iter=20000 frozen=false energy=-1.26974174 energy_frozen_part=0.00000000 Lattice="15.00000000 0.00000000 0.00000000 0.00000000 15.00000000 0.00000000 0.00000000 0.00000000 15.00000000" pbc=[F, F, F] list_num_par=6 Properties=species:S:1:pos:R:3:Z:I:1:velocities:R:3
H         9.40650070       8.11443835       2.36766365          1         0.00000000       0.00000000       0.00000000
H        12.43096621       9.58842231       4.43854484          1         0.00000000       0.00000000       0.00000000
H        10.85401765       7.28881062       4.60983140          1         0.00000000       0.00000000       0.00000000
H        12.18802534       7.89371753       2.23101041          1         0.00000000       0.00000000       0.00000000
H         9.64943801       9.80914312       4.57520600          1         0.00000000       0.00000000       0.00000000
H        10.98344409      10.41404346       2.19637903          1         0.00000000       0.00000000       0.00000000
6
iter=20000 frozen=false energy=-1.26974174 energy_frozen_part=0.00000000 Lattice="15.00000000 0.00000000 0.00000000 0.00000000 15.00000000 0.00000000 0.00000000 0.00000000 15.00000000" pbc=[F, F, F] list_num_par=6 Properties=species:S:1:pos:R:3:Z:I:1:velocities:R:3
H         9.40655415       8.11446389       2.36766023          1         0.00000000       0.00000000       0.00000000
H        12.43106931       9.58834333       4.43855012          1         0.00000000       0.00000000       0.00000000
H        10.85407220       7.28877714       4.60981234          1         0.00000000       0.00000000       0.00000000
H        12.18807892       7.89367139       2.23098525          1         0.00000000       0.00000000       0.00000000
H         9.64954922       9.80913672       4.57521643          1         0.00000000       0.00000000       0.00000000
H        10.98356380      10.41403095       2.19639551          1         0.00000000       0.00000000       0.00000000
6
iter=20000 frozen=false energy=-1.26974174 energy_frozen_part=0.00000000 Lattice="15.00000000 0.00000000 0.00000000 0.00000000 15.00000000 0.00000000 0.00000000 0.00000000 15.00000000" pbc=[F, F, F] list_num_par=6 Properties=species:S:1:pos:R:3:Z:I:1:velocities:R:3
H         9.40758329       8.13281599       2.37346660          1         0.00000000       0.00000000       0.00000000
H        12.47715744       9.50930824       4.44505826          1         0.00000000       0.00000000       0.00000000
H        10.85300898       7.24105338       4.59151861          1         0.00000000       0.00000000       0.00000000
H        12.18276977       7.85563623       2.21279876          1         0.00000000       0.00000000       0.00000000
H         9.70197891       9.78648769       4.60572358          1         0.00000000       0.00000000       0.00000000
H        11.03173172      10.40106574       2.22699633          1         0.00000000       0.00000000       0.00000000
6
iter=20000 frozen=false energy=-1.26974174 energy_frozen_part=0.00000000 Lattice="15.00000000 0.00000000 0.00000000 0.00000000 15.00000000 0.00000000 0.00000000 0.00000000 15.00000000" pbc=[F, F, F] list_num_par=6 Properties=species:S:1:pos:R:3:Z:I:1:velocities:R:3
H         9.40651203       8.11442461       2.36775715          1         0.00000000       0.00000000       0.00000000
H        12.43100277       9.58847942       4.43855921          1         0.00000000       0.00000000       0.00000000
H        10.85407812       7.28885894       4.60992264          1         0.00000000       0.00000000       0.00000000
H        12.18803394       7.89372357       2.23105608          1         0.00000000       0.00000000       0.00000000
H         9.64947380       9.80917782       4.57526157          1         0.00000000       0.00000000       0.00000000
H        10.98342988      10.41404452       2.19640012          1         0.00000000       0.00000000       0.00000000
6
iter=20000 frozen=false energy=-1.26974174 energy_frozen_part=0.00000000 Lattice="15.00000000 0.00000000 0.00000000 0.00000000 15.00000000 0.00000000 0.00000000 0.00000000 15.00000000" pbc=[F, F, F] list_num_par=6 Properties=species:S:1:pos:R:3:Z:I:1:velocities:R:3
H         9.40649369       8.11444550       2.36765646          1         0.00000000       0.00000000       0.00000000
H        12.43096156       9.58842258       4.43854679          1         0.00000000       0.00000000       0.00000000
H        10.85401351       7.28881388       4.60982646          1         0.00000000       0.00000000       0.00000000
H        12.18802415       7.89371650       2.23100934          1         0.00000000       0.00000000       0.00000000
H         9.64943321       9.80914858       4.57520478          1         0.00000000       0.00000000       0.00000000
H        10.98344490      10.41405110       2.19638127          1         0.00000000       0.00000000       0.00000000
6
iter=20000 frozen=false energy=-1.26974174 energy_frozen_part=0.00000000 Lattice="15.00000000 0.00000000 0.00000000 0.00000000 15.00000000 0.00000000 0.00000000 0.00000000 15.00000000" pbc=[F, F, F] list_num_par=6 Properties=species:S:1:pos:R:3:Z:I:1:velocities:R:3
H         9.40655527       8.11440948       2.36771092          1         0.00000000       0.00000000       0.00000000
H        12.43103670       9.58843995       4.43853051          1         0.00000000       0.00000000       0.00000000
H        10.85412226       7.28881582       4.60986195          1         0.00000000       0.00000000       0.00000000
H        12.18807809       7.89371106       2.23101174          1         0.00000000       0.00000000       0.00000000
H         9.64951490       9.80913650       4.57523870          1         0.00000000       0.00000000       0.00000000
H        10.98346911      10.41403031       2.19638612          1         0.00000000       0.00000000       0.00000000
6
iter=20000 frozen=false energy=-1.26974174 energy_frozen_part=0.00000000 Lattice="15.00000000 0.00000000 0.00000000 0.00000000 15.00000000 0.00000000 0.00000000 0.00000000 15.00000000" pbc=[F, F, F] list_num_par=6 Properties=species:S:1:pos:R:3:Z:I:1:velocities:R:3
H         9.40652462       8.11447808       2.36766671          1         0.00000000       0.00000000       0.00000000
H        12.43104166       9.58834773       4.43855156          1         0.00000000       0.00000000       0.00000000
H        10.85403525       7.28877801       4.60981618          1         0.00000000       0.00000000       0.00000000
H        12.18804299       7.89368243       2.23098821          1         0.00000000       0.00000000       0.00000000
H         9.64952249       9.80914825       4.57522608          1         0.00000000       0.00000000       0.00000000
H        10.98352702      10.41404389       2.19640045          1         0.00000000       0.00000000       0.00000000
6
iter=20000 frozen=false energy=-1.26974174 energy_frozen_part=0.00000000 Lattice="15.00000000 0.00000000 0.00000000 0.00000000 15.00000000 0.00000000 0.00000000 0.00000000 15.00000000" pbc=[F, F, F] list_num_par=6 Properties=species:S:1:pos:R:3:Z:I:1:velocities:R:3
H         9.40655572       8.11439998       2.36772199          1         0.00000000       0.00000000       0.00000000
H        12.43104402       9.58844763       4.43853243          1         0.00000000       0.00000000       0.00000000
H        10.85412146       7.28882467       4.60987376          1         0.00000000       0.00000000       0.00000000
H        12.18808433       7.89370164       2.23102356          1         0.00000000       0.00000000       0.00000000
H         9.64951296       9.80914194       4.57523693          1         0.00000000       0.00000000       0.00000000
H        10.98347017      10.41402018       2.19637656          1         0.00000000       0.00000000       0.00000000
6
iter=20000 frozen=false energy=-1.26974174 energy_frozen_part=0.00000000 Lattice="15.00000000 0.00000000 0.00000000 0.00000000 15.00000000 0.00000000 0.00000000 0.00000000 15.00000000" pbc=[F, F, F] list_num_par=6 Properties=species:S:1:pos:R:3:Z:I:1:velocities:R:3
H         9.40717734       8.13403263       2.37339875          1         0.00000000       0.00000000       0.00000000
H        12.47672838       9.50997298       4.44540268          1         0.00000000       0.00000000       0.00000000
H        10.85188985       7.24220783       4.59189621          1         0.00000000       0.00000000       0.00000000
H        12.18231401       7.85603450       2.21334764          1         0.00000000       0.00000000       0.00000000
H         9.70159334       9.78797537       4.60545568          1         0.00000000       0.00000000       0.00000000
H        11.03201026      10.40179189       2.22690149          1         0.00000000       0.00000000       0.00000000
6
iter=20000 frozen=false energy=-1.26974174 energy_frozen_part=0.00000000 Lattice="15.00000000 0.00000000 0.00000000 0.00000000 15.00000000 0.00000000 0.00000000 0.00000000 15.00000000" pbc=[F, F, F] list_num_par=6 Properties=species:S:1:pos:R:3:Z:I:1:velocities:R:3
H         9.40652810       8.11441177       2.36768527          1         0.00000000       0.00000000       0.00000000
H        12.43096335       9.58843400       4.43859126          1         0.00000000       0.00000000       0.00000000
H        10.85402136       7.28882032       4.60988538          1         0.00000000       0.00000000       0.00000000
H        12.18805770       7.89369508       2.23107231          1         0.00000000       0.00000000       0.00000000
H         9.64943605       9.80914188       4.57521024          1         0.00000000       0.00000000       0.00000000
H        10.98346659      10.41401956       2.19638936          1         0.00000000       0.00000000       0.00000000
6
iter=20000 frozen=false energy=-1.26974174 energy_frozen_part=0.00000000 Lattice="15.00000000 0.00000000 0.00000000 0.00000000 15.00000000 0.00000000 0.00000000 0.00000000 15.00000000" pbc=[F, F, F] list_num_par=6 Properties=species:S:1:pos:R:3:Z:I:1:velocities:R:3
H         9.40652822       8.11449224       2.36765729          1         0.00000000       0.00000000       0.00000000
H        12.43103981       9.58834406       4.43856846          1         0.00000000       0.00000000       0.00000000
H        10.85402807       7.28878273       4.60980665          1         0.00000000       0.00000000       0.00000000
H        12.18805131       7.89368664       2.23099496          1         0.00000000       0.00000000       0.00000000
H         9.64951573       9.80915265       4.57522185          1         0.00000000       0.00000000       0.00000000
H        10.98354642      10.41405432       2.19641013          1         0.00000000       0.00000000       0.00000000
6
iter=20000 frozen=false energy=-1.26974174 energy_frozen_part=0.00000000 Lattice="15.00000000 0.00000000 0.00000000 0.00000000 15.00000000 0.00000000 0.00000000 0.00000000 15.00000000" pbc=[F, F, F] list_num_par=6 Properties=species:S:1:pos:R:3:Z:I:1:velocities:R:3
H         9.40752892       8.13284077       2.37347612          1         0.00000000       0.00000000       0.00000000
H        12.47712419       9.50938098       4.44502304          1         0.00000000       0.00000000       0.00000000
H        10.85301020       7.24110148       4.59151009          1         0.00000000       0.00000000       0.00000000
H        12.18271568       7.85570914       2.21276523          1         0.00000000       0.00000000       0.00000000
H         9.70194260       9.78651157       4.60573691          1         0.00000000       0.00000000       0.00000000
H        11.03164289      10.40111316       2.22699264          1         0.00000000       0.00000000       0.00000000
6
iter=20000 frozen=false energy=-1.26974174 energy_frozen_part=0.00000000 Lattice="15.00000000 0.00000000 0.00000000 0.00000000 15.00000000 0.00000000 0.00000000 0.00000000 15.00000000" pbc=[F, F, F] list_num_par=6 Properties=species:S:1:pos:R:3:Z:I:1:velocities:R:3
H         9.40654631       8.11441594       2.36771617          1         0.00000000       0.00000000       0.00000000
H        12.43104224       9.58844199       4.43852885          1         0.00000000       0.00000000       0.00000000
H        10.85412208       7.28882476       4.60986173          1         0.00000000       0.00000000       0.00000000
H        12.18807819       7.89371205       2.23100569          1         0.00000000       0.00000000       0.00000000
H         9.64951336       9.80914077       4.57524153          1         0.00000000       0.00000000       0.00000000
H        10.98347091      10.41402756       2.19638154          1         0.00000000       0.00000000       0.00000000
6
iter=20000 frozen=false energy=-1.26974174 energy_frozen_part=0.00000000 Lattice="15.00000000 0.00000000 0.00000000 0.00000000 15.00000000 0.00000000 0.00000000 0.00000000 15.00000000" pbc=[F, F, F] list_num_par=6 Properties=species:S:1:pos:R:3:Z:I:1:velocities:R:3
H         9.40652938       8.11440986       2.36774701          1         0.00000000       0.00000000       0.00000000
H        12.43101649       9.58845818       4.43855715          1         0.00000000       0.00000000       0.00000000
H        10.85409342       7.28884125       4.60990599          1         0.00000000       0.00000000       0.00000000
H        12.18805477       7.89370175       2.23105190          1         0.00000000       0.00000000       0.00000000
H         9.64948699       9.80916390       4.57525317          1         0.00000000       0.00000000       0.00000000
H        10.98345762      10.41402076       2.19639655          1         0.00000000       0.00000000       0.00000000
6
iter=20000 frozen=false energy=-1.26974174 energy_frozen_part=0.00000000 Lattice="15.00000000 0.00000000 0.00000000 0.00000000 15.00000000 0.00000000 0.00000000 0.00000000 15.00000000" pbc=[F, F, F] list_num_par=6 Properties=species:S:1:pos:R:3:Z:I:1:velocities:R:3
H         9.40650966       8.11442192       2.36776153          1         0.00000000       0.00000000       0.00000000
H        12.43101295       9.58846109       4.43854229          1         0.00000000       0.00000000       0.00000000
H        10.85408610       7.28884515       4.60990580          1         0.00000000       0.00000000       0.00000000
H        12.18803809       7.89371126       2.23104240          1         0.00000000       0.00000000       0.00000000
H         9.64948883       9.80916598       4.57527074          1         0.00000000       0.00000000       0.00000000
H        10.98343277      10.41403227       2.19639477          1         0.00000000       0.00000000       0.00000000
6
iter=20000 frozen=false energy=-1.26974174 energy_frozen_part=0.00000000 Lattice="15.00000000 0.00000000 0.00000000 0.00000000 15.00000000 0.00000000 0.00000000 0.00000000 15.00000000" pbc=[F, F, F] list_num_par=6 Properties=species:S:1:pos:R:3:Z:I:1:velocities:R:3
H         9.40651759       8.11444057       2.36768352          1         0.00000000       0.00000000       0.00000000
H        12.43098927       9.58839662       4.43857144          1         0.00000000       0.00000000       0.00000000
H        10.85399420       7.28882973       4.60988125          1         0.00000000       0.00000000       0.00000000
H        12.18803903       7.89364761       2.23106383          1         0.00000000       0.00000000       0.00000000
H         9.64946125       9.80918413       4.57519114          1         0.00000000       0.00000000       0.00000000
H        10.98351617      10.41400993       2.19637086          1         0.00000000       0.00000000       0.00000000
6
iter=20000 frozen=false energy=-1.26974174 energy_frozen_part=0.00000000 Lattice="15.00000000 0.00000000 0.00000000 0.00000000 15.00000000 0.00000000 0.00000000 0.00000000 15.00000000" pbc=[F, F, F] list_num_par=6 Properties=species:S:1:pos:R:3:Z:I:1:velocities:R:3
H         9.40654250       8.11446681       2.36766920          1         0.00000000       0.00000000       0.00000000
H        12.43105488       9.58836171       4.43854701          1         0.00000000       0.00000000       0.00000000
H        10.85405455       7.28879029       4.60981450          1         0.00000000       0.00000000       0.00000000
H        12.18806776       7.89368701       2.23098852          1         0.00000000       0.00000000       0.00000000
H         9.64953030       9.80914715       4.57522202          1         0.00000000       0.00000000       0.00000000
H        10.98353523      10.41404180       2.19639875          1         0.00000000       0.00000000       0.00000000
6
iter=20000 frozen=false energy=-1.26974174 energy_frozen_part=0.00000000 Lattice="15.00000000 0.00000000 0.00000000 0.00000000 15.00000000 0.00000000 0.00000000 0.00000000 15.00000000" pbc=[F, F, F] list_num_par=6 Properties=species:S:1:pos:R:3:Z:I:1:velocities:R:3
H         9.40652417       8.11440733       2.36774823          1         0.00000000       0.00000000       0.00000000
H        12.43101581       9.58844327       4.43855938          1         0.00000000       0.00000000       0.00000000
H        10.85409326       7.28882536       4.60990320          1         0.00000000       0.00000000       0.00000000
H        12.18804683       7.89370481       2.23104139          1         0.00000000       0.00000000       0.00000000
H         9.64949075       9.80914504       4.57525865          1         0.00000000       0.00000000       0.00000000
H        10.98345274      10.41402166       2.19640466          1         0.00000000       0.00000000       0.00000000
6
iter=20000 frozen=false energy=-1.26974174 energy_frozen_part=0.00000000 Lattice="15.00000000 0.00000000 0.00000000 0.00000000 15.00000000 0.00000000 0.00000000 0.00000000 15.00000000" pbc=[F, F, F] list_num_par=6 Properties=species:S:1:pos:R:3:Z:I:1:velocities:R:3
H         9.40649889       8.11445079       2.36764719          1         0.00000000       0.00000000       0.00000000
H        12.43093713       9.58844094       4.43855660          1         0.00000000       0.00000000       0.00000000
H        10.85399810       7.28882766       4.60982532          1         0.00000000       0.00000000       0.00000000
H        12.18802431       7.89372639       2.23101388          1         0.00000000       0.00000000       0.00000000
H         9.64941212       9.80915747       4.57519173          1         0.00000000       0.00000000       0.00000000
H        10.98344423      10.41405762       2.19637474          1         0.00000000       0.00000000       0.00000000
6
iter=20000 frozen=false energy=-1.26974174 energy_frozen_part=0.00000000 Lattice="15.00000000 0.00000000 0.00000000 0.00000000 15.00000000 0.00000000 0.00000000 0.00000000 15.00000000" pbc=[F, F, F] list_num_par=6 Properties=species:S:1:pos:R:3:Z:I:1:velocities:R:3
H         9.40658388       8.11434611       2.36771715          1         0.00000000       0.00000000       0.00000000
H        12.43091856       9.58850727       4.43865511          1         0.00000000       0.00000000       0.00000000
H        10.85409014       7.28881767       4.60992827          1         0.00000000       0.00000000       0.00000000
H        12.18812628       7.89376827       2.23112854          1         0.00000000       0.00000000       0.00000000
H         9.64938048       9.80908428       4.57524324          1         0.00000000       0.00000000       0.00000000
H        10.98341096      10.41403514       2.19644931          1         0.00000000       0.00000000       0.00000000
6
iter=20000 frozen=false energy=-1.26974174 energy_frozen_part=0.00000000 Lattice="15.00000000 0.00000000 0.00000000 0.00000000 15.00000000 0.00000000 0.00000000 0.00000000 15.00000000" pbc=[F, F, F] list_num_par=6 Properties=species:S:1:pos:R:3:Z:I:1:velocities:R:3
H         9.40653813       8.11441278       2.36773830          1         0.00000000       0.00000000       0.00000000
H        12.43098221       9.58844283       4.43862182          1         0.00000000       0.00000000       0.00000000
H        10.85404816       7.28883100       4.60993344          1         0.00000000       0.00000000       0.00000000
H        12.18807044       7.89369607       2.23110463          1         0.00000000       0.00000000       0.00000000
H         9.64945466       9.80915359       4.57525809          1         0.00000000       0.00000000       0.00000000
H        10.98347811      10.41402343       2.19643013          1         0.00000000       0.00000000       0.00000000
6
iter=20000 frozen=false energy=-1.26974174 energy_frozen_part=0.00000000 Lattice="15.00000000 0.00000000 0.00000000 0.00000000 15.00000000 0.00000000 0.00000000 0.00000000 15.00000000" pbc=[F, F, F] list_num_par=6 Properties=species:S:1:pos:R:3:Z:I:1:velocities:R:3
H         9.40651019       8.11442293       2.36776723          1         0.00000000       0.00000000       0.00000000
H        12.43100764       9.58847518       4.43856804          1         0.00000000       0.00000000       0.00000000
H        10.85408029       7.28885788       4.60992586          1         0.00000000       0.00000000       0.00000000
H        12.18803582       7.89371771       2.23106311          1         0.00000000       0.00000000       0.00000000
H         9.64947852       9.80918316       4.57526509          1         0.00000000       0.00000000       0.00000000
H        10.98343999      10.41403728       2.19640666          1         0.00000000       0.00000000       0.00000000
6
iter=20000 frozen=false energy=-1.26974174 energy_frozen_part=0.00000000 Lattice="15.00000000 0.00000000 0.00000000 0.00000000 15.00000000 0.00000000 0.00000000 0.00000000 15.00000000" pbc=[F, F, F] list_num_par=6 Properties=species:S:1:pos:R:3:Z:I:1:velocities:R:3
H         9.40653926       8.11440134       2.36775727          1         0.00000000       0.00000000       0.00000000
H        12.43101084       9.58846552       4.43856769          1         0.00000000       0.00000000       0.00000000
H        10.85411213       7.28883941       4.60991197          1         0.00000000       0.00000000       0.00000000
H        12.18806430       7.89372332       2.23105201          1         0.00000000       0.00000000       0.00000000
H         9.64948173       9.80914427       4.57526976          1         0.00000000       0.00000000       0.00000000
H        10.98343729      10.41403725       2.19641867          1         0.00000000       0.00000000       0.00000000
6
iter=20000 frozen=false energy=-1.26974174 energy_frozen_part=0.00000000 Lattice="15.00000000 0.00000000 0.00000000 0.00000000 15.00000000 0.00000000 0.00000000 0.00000000 15.00000000" pbc=[F, F, F] list_num_par=6 Properties=species:S:1:pos:R:3:Z:I:1:velocities:R:3
H         9.40650239       8.11443268       2.36765036          1         0.00000000       0.00000000       0.00000000
H        12.43095623       9.58842224       4.43855388          1         0.00000000       0.00000000       0.00000000
H        10.85400988       7.28880700       4.60982621          1         0.00000000       0.00000000       0.00000000
H        12.18803169       7.89370882       2.23101662          1         0.00000000       0.00000000       0.00000000
H         9.64942803       9.80913974       4.57519164          1         0.00000000       0.00000000       0.00000000
H        10.98344606      10.41403698       2.19637370          1         0.00000000       0.00000000       0.00000000
6
iter=20000 frozen=false energy=-1.26974174 energy_frozen_part=0.00000000 Lattice="15.00000000 0.00000000 0.00000000 0.00000000 15.00000000 0.00000000 0.00000000 0.00000000 15.00000000" pbc=[F, F, F] list_num_par=6 Properties=species:S:1:pos:R:3:Z:I:1:velocities:R:3
H         9.40651795       8.11441738       2.36774760          1         0.00000000       0.00000000       0.00000000
H        12.43102167       9.58845108       4.43852991          1         0.00000000       0.00000000       0.00000000
H        10.85408432       7.28884627       4.60990236          1         0.00000000       0.00000000       0.00000000
H        12.18804022       7.89368988       2.23103501          1         0.00000000       0.00000000       0.00000000
H         9.64949522       9.80917465       4.57524977          1         0.00000000       0.00000000       0.00000000
H        10.98345321      10.41402020       2.19637561          1         0.00000000       0.00000000       0.00000000
6
iter=20000 frozen=false energy=-1.26974174 energy_frozen_part=0.00000000 Lattice="15.00000000 0.00000000 0.00000000 0.00000000 15.00000000 0.00000000 0.00000000 0.00000000 15.00000000" pbc=[F, F, F] list_num_par=6 Properties=species:S:1:pos:R:3:Z:I:1:velocities:R:3
H         9.40660065       8.11435685       2.36770796          1         0.00000000       0.00000000       0.00000000
H        12.43094249       9.58850156       4.43865752          1         0.00000000       0.00000000       0.00000000
H        10.85411585       7.28881166       4.60990991          1         0.00000000       0.00000000       0.00000000
H        12.18813545       7.89378410       2.23111212          1         0.00000000       0.00000000       0.00000000
H         9.64939612       9.80907229       4.57525495          1         0.00000000       0.00000000       0.00000000
H        10.98342096      10.41405296       2.19646170          1         0.00000000       0.00000000       0.00000000
6
iter=20000 frozen=false energy=-1.26974174 energy_frozen_part=0.00000000 Lattice="15.00000000 0.00000000 0.00000000 0.00000000 15.00000000 0.00000000 0.00000000 0.00000000 15.00000000" pbc=[F, F, F] list_num_par=6 Properties=species:S:1:pos:R:3:Z:I:1:velocities:R:3
H         9.40748902       8.13283923       2.37343866          1         0.00000000       0.00000000       0.00000000
H        12.47711764       9.50925501       4.44501803          1         0.00000000       0.00000000       0.00000000
H        10.85292929       7.24103214       4.59147983          1         0.00000000       0.00000000       0.00000000
H        12.18266790       7.85560924       2.21274658          1         0.00000000       0.00000000       0.00000000
H         9.70194144       9.78647588       4.60571545          1         0.00000000       0.00000000       0.00000000
H        11.03167998      10.40106106       2.22698276          1         0.00000000       0.00000000       0.00000000
6
iter=20000 frozen=false energy=-1.26974174 energy_frozen_part=0.00000000 Lattice="15.00000000 0.00000000 0.00000000 0.00000000 15.00000000 0.00000000 0.00000000 0.00000000 15.00000000" pbc=[F, F, F] list_num_par=6 Properties=species:S:1:pos:R:3:Z:I:1:velocities:R:3
H         9.40658040       8.11444646       2.36765212          1         0.00000000       0.00000000       0.00000000
H        12.43105453       9.58826774       4.43862333          1         0.00000000       0.00000000       0.00000000
H        10.85400942       7.28873145       4.60984266          1         0.00000000       0.00000000       0.00000000
H        12.18809906       7.89359869       2.23105579          1         0.00000000       0.00000000       0.00000000
H         9.64953629       9.80911823       4.57521854          1         0.00000000       0.00000000       0.00000000
H        10.98362502      10.41398173       2.19643309          1         0.00000000       0.00000000       0.00000000
6
iter=20000 frozen=false energy=-1.26974174 energy_frozen_part=0.00000000 Lattice="15.00000000 0.00000000 0.00000000 0.00000000 15.00000000 0.00000000 0.00000000 0.00000000 15.00000000" pbc=[F, F, F] list_num_par=6 Properties=species:S:1:pos:R:3:Z:I:1:velocities:R:3
H         9.40653823       8.11445252       2.36768242          1         0.00000000       0.00000000       0.00000000
H        12.43104846       9.58835854       4.43855647          1         0.00000000       0.00000000       0.00000000
H        10.85405219       7.28879155       4.60984384          1         0.00000000       0.00000000       0.00000000
H        12.18805977       7.89366319       2.23101529          1         0.00000000       0.00000000       0.00000000
H         9.64952967       9.80914883       4.57522354          1         0.00000000       0.00000000       0.00000000
H        10.98353697      10.41402744       2.19639729          1         0.00000000       0.00000000       0.00000000
6
iter=20000 frozen=false energy=-1.26974174 energy_frozen_part=0.00000000 Lattice="15.00000000 0.00000000 0.00000000 0.00000000 15.00000000 0.00000000 0.00000000 0.00000000 15.00000000" pbc=[F, F, F] list_num_par=6 Properties=species:S:1:pos:R:3:Z:I:1:velocities:R:3
H         9.40653216       8.11441428       2.36773096          1         0.00000000       0.00000000       0.00000000
H        12.43101963       9.58844112       4.43856106          1         0.00000000       0.00000000       0.00000000
H        10.85408658       7.28882995       4.60989548          1         0.00000000       0.00000000       0.00000000
H        12.18806083       7.89370114       2.23104890          1         0.00000000       0.00000000       0.00000000
H         9.64948872       9.80915319       4.57525057          1         0.00000000       0.00000000       0.00000000
H        10.98346236      10.41402669       2.19640427          1         0.00000000       0.00000000       0.00000000
6
iter=20000 frozen=false energy=-1.26974174 energy_frozen_part=0.00000000 Lattice="15.00000000 0.00000000 0.00000000 0.00000000 15.00000000 0.00000000 0.00000000 0.00000000 15.00000000" pbc=[F, F, F] list_num_par=6 Properties=species:S:1:pos:R:3:Z:I:1:velocities:R:3
H         9.40651489       8.11441938       2.36766654          1         0.00000000       0.00000000       0.00000000
H        12.43096423       9.58842551       4.43855317          1         0.00000000       0.00000000       0.00000000
H        10.85402627       7.28881368       4.60984091          1         0.00000000       0.00000000       0.00000000
H        12.18804416       7.89370601       2.23102250          1         0.00000000       0.00000000       0.00000000
H         9.64944026       9.80914510       4.57519637          1         0.00000000       0.00000000       0.00000000
H        10.98345135      10.41403365       2.19637759          1         0.00000000       0.00000000       0.00000000
6
iter=20000 frozen=false energy=-1.26974174 energy_frozen_part=0.00000000 Lattice="15.00000000 0.00000000 0.00000000 0.00000000 15.00000000 0.00000000 0.00000000 0.00000000 15.00000000" pbc=[F, F, F] list_num_par=6 Properties=species:S:1:pos:R:3:Z:I:1:velocities:R:3
H         9.40649664       8.11444091       2.36768859          1         0.00000000       0.00000000       0.00000000
H        12.43096444       9.58843774       4.43855587          1         0.00000000       0.00000000       0.00000000
H        10.85401889       7.28883762       4.60985808          1         0.00000000       0.00000000       0.00000000
H        12.18802168       7.89371903       2.23102707          1         0.00000000       0.00000000       0.00000000
H         9.64943440       9.80916977       4.57521863          1         0.00000000       0.00000000       0.00000000
H        10.98343977      10.41405055       2.19638845          1         0.00000000       0.00000000       0.00000000
6
iter=20000 frozen=false energy=-1.26974174 energy_frozen_part=0.00000000 Lattice="15.00000000 0.00000000 0.00000000 0.00000000 15.00000000 0.00000000 0.00000000 0.00000000 15.00000000" pbc=[F, F, F] list_num_par=6 Properties=species:S:1:pos:R:3:Z:I:1:velocities:R:3
H         9.40650304       8.11445152       2.36766086          1         0.00000000       0.00000000       0.00000000
H        12.43094027       9.58844416       4.43856936          1         0.00000000       0.00000000       0.00000000
H        10.85400716       7.28883050       4.60983673          1         0.00000000       0.00000000       0.00000000
H        12.18802892       7.89373535       2.23102364          1         0.00000000       0.00000000       0.00000000
H         9.64941299       9.80915715       4.57519767          1         0.00000000       0.00000000       0.00000000
H        10.98344265      10.41406117       2.19638293          1         0.00000000       0.00000000       0.00000000
6
iter=20000 frozen=false energy=-1.26974174 energy_frozen_part=0.00000000 Lattice="15.00000000 0.00000000 0.00000000 0.00000000 15.00000000 0.00000000 0.00000000 0.00000000 15.00000000" pbc=[F, F, F] list_num_par=6 Properties=species:S:1:pos:R:3:Z:I:1:velocities:R:3
H         9.40652507       8.11444027       2.36768315          1         0.00000000       0.00000000       0.00000000
H        12.43099464       9.58839200       4.43857776          1         0.00000000       0.00000000       0.00000000
H        10.85399705       7.28882155       4.60988140          1         0.00000000       0.00000000       0.00000000
H        12.18804060       7.89365608       2.23106089          1         0.00000000       0.00000000       0.00000000
H         9.64946890       9.80917655       4.57519634          1         0.00000000       0.00000000       0.00000000
H        10.98351779      10.41401240       2.19638103          1         0.00000000       0.00000000       0.00000000
6
iter=20000 frozen=false energy=-1.26974174 energy_frozen_part=0.00000000 Lattice="15.00000000 0.00000000 0.00000000 0.00000000 15.00000000 0.00000000 0.00000000 0.00000000 15.00000000" pbc=[F, F, F] list_num_par=6 Properties=species:S:1:pos:R:3:Z:I:1:velocities:R:3
H         9.40656074       8.11439864       2.36772013          1         0.00000000       0.00000000       0.00000000
H        12.43102384       9.58842937       4.43857408          1         0.00000000       0.00000000       0.00000000
H        10.85409264       7.28881280       4.60989163          1         0.00000000       0.00000000       0.00000000
H        12.18809134       7.89368453       2.23105981          1         0.00000000       0.00000000       0.00000000
H         9.64949661       9.80914171       4.57523213          1         0.00000000       0.00000000       0.00000000
H        10.98349462      10.41400475       2.19639309          1         0.00000000       0.00000000       0.00000000
6
iter=20000 frozen=false energy=-1.26974174 energy_frozen_part=0.00000000 Lattice="15.00000000 0.00000000 0.00000000 0.00000000 15.00000000 0.00000000 0.00000000 0.00000000 15.00000000" pbc=[F, F, F] list_num_par=6 Properties=species:S:1:pos:R:3:Z:I:1:velocities:R:3
H         9.40649184       8.11444302       2.36768671          1         0.00000000       0.00000000       0.00000000
H        12.43095807       9.58844321       4.43855085          1         0.00000000       0.00000000       0.00000000
H        10.85401777       7.28883561       4.60985900          1         0.00000000       0.00000000       0.00000000
H        12.18801875       7.89371837       2.23102936          1         0.00000000       0.00000000       0.00000000
H         9.64943298       9.80916474       4.57522041          1         0.00000000       0.00000000       0.00000000
H        10.98343051      10.41405157       2.19638228          1         0.00000000       0.00000000       0.00000000
6
iter=20000 frozen=false energy=-1.26974174 energy_frozen_part=0.00000000 Lattice="15.00000000 0.00000000 0.00000000 0.00000000 15.00000000 0.00000000 0.00000000 0.00000000 15.00000000" pbc=[F, F, F] list_num_par=6 Properties=species:S:1:pos:R:3:Z:I:1:velocities:R:3
H         9.40655025       8.11440240       2.36772214          1         0.00000000       0.00000000       0.00000000
H        12.43103558       9.58844347       4.43854204          1         0.00000000       0.00000000       0.00000000
H        10.85411554       7.28882469       4.60987472          1         0.00000000       0.00000000       0.00000000
H        12.18807801       7.89371391       2.23102140          1         0.00000000       0.00000000       0.00000000
H         9.64950808       9.80913608       4.57524355          1         0.00000000       0.00000000       0.00000000
H        10.98346212      10.41402993       2.19639304          1         0.00000000       0.00000000       0.00000000
6
iter=20000 frozen=false energy=-1.26974174 energy_frozen_part=0.00000000 Lattice="15.00000000 0.00000000 0.00000000 0.00000000 15.00000000 0.00000000 0.00000000 0.00000000 15.00000000" pbc=[F, F, F] list_num_par=6 Properties=species:S:1:pos:R:3:Z:I:1:velocities:R:3
H         9.40717058       8.13397813       2.37340421          1         0.00000000       0.00000000       0.00000000
H        12.47671218       9.50998064       4.44539322          1         0.00000000       0.00000000       0.00000000
H        10.85189198       7.24220702       4.59191913          1         0.00000000       0.00000000       0.00000000
H        12.18231291       7.85599307       2.21336313          1         0.00000000       0.00000000       0.00000000
H         9.70157087       9.78796067       4.60543018          1         0.00000000       0.00000000       0.00000000
H        11.03198914      10.40174276       2.22687275          1         0.00000000       0.00000000       0.00000000
6
iter=20000 frozen=false energy=-1.26974174 energy_frozen_part=0.00000000 Lattice="15.00000000 0.00000000 0.00000000 0.00000000 15.00000000 0.00000000 0.00000000 0.00000000 15.00000000" pbc=[F, F, F] list_num_par=6 Properties=species:S:1:pos:R:3:Z:I:1:velocities:R:3
H         9.40660053       8.11436961       2.36771765          1         0.00000000       0.00000000       0.00000000
H        12.43094731       9.58849791       4.43866896          1         0.00000000       0.00000000       0.00000000
H        10.85411982       7.28880806       4.60990781          1         0.00000000       0.00000000       0.00000000
H        12.18814638       7.89378506       2.23111699          1         0.00000000       0.00000000       0.00000000
H         9.64940802       9.80908070       4.57526943          1         0.00000000       0.00000000       0.00000000
H        10.98343907      10.41405357       2.19647329          1         0.00000000       0.00000000       0.00000000
6
iter=20000 frozen=false energy=-1.26974174 energy_frozen_part=0.00000000 Lattice="15.00000000 0.00000000 0.00000000 0.00000000 15.00000000 0.00000000 0.00000000 0.00000000 15.00000000" pbc=[F, F, F] list_num_par=6 Properties=species:S:1:pos:R:3:Z:I:1:velocities:R:3
H         9.40654822       8.11441496       2.36773311          1         0.00000000       0.00000000       0.00000000
H        12.43098337       9.58843702       4.43863462          1         0.00000000       0.00000000       0.00000000
H        10.85404393       7.28882761       4.60992385          1         0.00000000       0.00000000       0.00000000
H        12.18807523       7.89370441       2.23110706          1         0.00000000       0.00000000       0.00000000
H         9.64945156       9.80914945       4.57525480          1         0.00000000       0.00000000       0.00000000
H        10.98348068      10.41402592       2.19643952          1         0.00000000       0.00000000       0.00000000
6
iter=20000 frozen=false energy=-1.26974174 energy_frozen_part=0.00000000 Lattice="15.00000000 0.00000000 0.00000000 0.00000000 15.00000000 0.00000000 0.00000000 0.00000000 15.00000000" pbc=[F, F, F] list_num_par=6 Properties=species:S:1:pos:R:3:Z:I:1:velocities:R:3
H         9.40650886       8.11442214       2.36776789          1         0.00000000       0.00000000       0.00000000
H        12.43100385       9.58846626       4.43855914          1         0.00000000       0.00000000       0.00000000
H        10.85408031       7.28885057       4.60991952          1         0.00000000       0.00000000       0.00000000
H        12.18803282       7.89371713       2.23105793          1         0.00000000       0.00000000       0.00000000
H         9.64947625       9.80917178       4.57526388          1         0.00000000       0.00000000       0.00000000
H        10.98343608      10.41403627       2.19640401          1         0.00000000       0.00000000       0.00000000
6
iter=20000 frozen=false energy=-1.26974174 energy_frozen_part=0.00000000 Lattice="15.00000000 0.00000000 0.00000000 0.00000000 15.00000000 0.00000000 0.00000000 0.00000000 15.00000000" pbc=[F, F, F] list_num_par=6 Properties=species:S:1:pos:R:3:Z:I:1:velocities:R:3
H         9.40657354       8.11444840       2.36764633          1         0.00000000       0.00000000       0.00000000
H        12.43105032       9.58827143       4.43862626          1         0.00000000       0.00000000       0.00000000
H        10.85398939       7.28873868       4.60984981          1         0.00000000       0.00000000       0.00000000
H        12.18809332       7.89359694       2.23106745          1         0.00000000       0.00000000       0.00000000
H         9.64952594       9.80912461       4.57520376          1         0.00000000       0.00000000       0.00000000
H        10.98362746      10.41398141       2.19642285          1         0.00000000       0.00000000       0.00000000
6
iter=20000 frozen=false energy=-1.26974174 energy_frozen_part=0.00000000 Lattice="15.00000000 0.00000000 0.00000000 0.00000000 15.00000000 0.00000000 0.00000000 0.00000000 15.00000000" pbc=[F, F, F] list_num_par=6 Properties=species:S:1:pos:R:3:Z:I:1:velocities:R:3
H         9.40656391       8.11437432       2.36774273          1         0.00000000       0.00000000       0.00000000
H        12.43102682       9.58844014       4.43855313          1         0.00000000       0.00000000       0.00000000
H        10.85412743       7.28880962       4.60989902          1         0.00000000       0.00000000       0.00000000
H        12.18808940       7.89369155       2.23104254          1         0.00000000       0.00000000       0.00000000
H         9.64950006       9.80912064       4.57525141          1         0.00000000       0.00000000       0.00000000
H        10.98346453      10.41400597       2.19639674          1         0.00000000       0.00000000       0.00000000
6
iter=20000 frozen=false energy=-1.26974174 energy_frozen_part=0.00000000 Lattice="15.00000000 0.00000000 0.00000000 0.00000000 15.00000000 0.00000000 0.00000000 0.00000000 15.00000000" pbc=[F, F, F] list_num_par=6 Properties=species:S:1:pos:R:3:Z:I:1:velocities:R:3
H         9.40651037       8.11445599       2.36770085          1         0.00000000       0.00000000       0.00000000
H        12.43099137       9.58841797       4.43856988          1         0.00000000       0.00000000       0.00000000
H        10.85400546       7.28884241       4.60989135          1         0.00000000       0.00000000       0.00000000
H        12.18803160       7.89367241       2.23106207          1         0.00000000       0.00000000       0.00000000
H         9.64947113       9.80919548       4.57521159          1         0.00000000       0.00000000       0.00000000
H        10.98349512      10.41402522       2.19637702          1         0.00000000       0.00000000       0.00000000
6
iter=20000 frozen=false energy=-1.26974174 energy_frozen_part=0.00000000 Lattice="15.00000000 0.00000000 0.00000000 0.00000000 15.00000000 0.00000000 0.00000000 0.00000000 15.00000000" pbc=[F, F, F] list_num_par=6 Properties=species:S:1:pos:R:3:Z:I:1:velocities:R:3
H         9.40652720       8.11440966       2.36773129          1         0.00000000       0.00000000       0.00000000
H        12.43100945       9.58844429       4.43854617          1         0.00000000       0.00000000       0.00000000
H        10.85410342       7.28881329       4.60987523          1         0.00000000       0.00000000       0.00000000
H        12.18805363       7.89372418       2.23102135          1         0.00000000       0.00000000       0.00000000
H         9.64947990       9.80912918       4.57526056          1         0.00000000       0.00000000       0.00000000
H        10.98343093      10.41403699       2.19640682          1         0.00000000       0.00000000       0.00000000
6
iter=20000 frozen=false energy=-1.26974174 energy_frozen_part=0.00000000 Lattice="15.00000000 0.00000000 0.00000000 0.00000000 15.00000000 0.00000000 0.00000000 0.00000000 15.00000000" pbc=[F, F, F] list_num_par=6 Properties=species:S:1:pos:R:3:Z:I:1:velocities:R:3
H         9.40650365       8.11442848       2.36766569          1         0.00000000       0.00000000       0.00000000
H        12.43095956       9.58842019       4.43855199          1         0.00000000       0.00000000       0.00000000
H        10.85402336       7.28881853       4.60983881          1         0.00000000       0.00000000       0.00000000
H        12.18802941       7.89371625       2.23101248          1         0.00000000       0.00000000       0.00000000
H         9.64942911       9.80914414       4.57520499          1         0.00000000       0.00000000       0.00000000
H        10.98343923      10.41404453       2.19638194          1         0.00000000       0.00000000       0.00000000
