6
pbc=[F, F, F] list_num_par=6 frozen=false iter=20000 energy=-1.26974174 Lattice="15.00000000 0.00000000 0.00000000 0.00000000 15.00000000 0.00000000 0.00000000 0.00000000 15.00000000" energy_frozen_part=0.00000000 Properties=species:S:1:pos:R:3:velocities:R:3:Z:I:1
H         3.99151042       3.03798017       7.56074993         0.00000000       0.00000000       0.00000000          1
H         5.96507628       4.37842013       6.10728512         0.00000000       0.00000000       0.00000000          1
H         4.29226031       6.60519912       5.88949524         0.00000000       0.00000000       0.00000000          1
H         3.39655776       4.09737720       5.04520422         0.00000000       0.00000000       0.00000000          1
H         4.88720725       5.54580811       8.40504799         0.00000000       0.00000000       0.00000000          1
H         2.31869266       5.26475746       7.34296135         0.00000000       0.00000000       0.00000000          1
6
pbc=[F, F, F] list_num_par=6 frozen=false iter=20000 energy=-1.26974174 Lattice="15.00000000 0.00000000 0.00000000 0.00000000 15.00000000 0.00000000 0.00000000 0.00000000 15.00000000" energy_frozen_part=0.00000000 Properties=species:S:1:pos:R:3:velocities:R:3:Z:I:1
H         3.99163911       3.03832269       7.56111751         0.00000000       0.00000000       0.00000000          1
H         5.96517380       4.37854017       6.10740324         0.00000000       0.00000000       0.00000000          1
H         4.29227088       6.60520541       5.88913622         0.00000000       0.00000000       0.00000000          1
H         3.39668463       4.09717484       5.04533674         0.00000000       0.00000000       0.00000000          1
H         4.88724069       5.54635224       8.40491131         0.00000000       0.00000000       0.00000000          1
H         2.31874629       5.26499179       7.34284457         0.00000000       0.00000000       0.00000000          1
6
pbc=[F, F, F] list_num_par=6 frozen=false iter=20000 energy=-1.26974174 Lattice="15.00000000 0.00000000 0.00000000 0.00000000 15.00000000 0.00000000 0.00000000 0.00000000 15.00000000" energy_frozen_part=0.00000000 Properties=species:S:1:pos:R:3:velocities:R:3:Z:I:1
H         3.99157658       3.03799303       7.56078479         0.00000000       0.00000000       0.00000000          1
H         5.96499918       4.37851528       6.10721070         0.00000000       0.00000000       0.00000000          1
H         4.29205113       6.60519432       5.88944059         0.00000000       0.00000000       0.00000000          1
H         3.39646160       4.09729612       5.04523260         0.00000000       0.00000000       0.00000000          1
H         4.88716557       5.54588652       8.40499698         0.00000000       0.00000000       0.00000000          1
H         2.31862561       5.26467449       7.34300997         0.00000000       0.00000000       0.00000000          1
6
pbc=[F, F, F] list_num_par=6 frozen=false iter=20000 energy=-1.26974174 Lattice="15.00000000 0.00000000 0.00000000 0.00000000 15.00000000 0.00000000 0.00000000 0.00000000 15.00000000" energy_frozen_part=0.00000000 Properties=species:S:1:pos:R:3:velocities:R:3:Z:I:1
H         3.98922084       3.03994801       7.56013363         0.00000000       0.00000000       0.00000000          1
H         5.96303513       4.37789549       6.10471849         0.00000000       0.00000000       0.00000000          1
H         4.29210718       6.60608582       5.88698365         0.00000000       0.00000000       0.00000000          1
H         3.39355747       4.09868251       5.04447178         0.00000000       0.00000000       0.00000000          1
H         4.88777291       5.54735139       8.40264146         0.00000000       0.00000000       0.00000000          1
H         2.31829487       5.26814565       7.34240013         0.00000000       0.00000000       0.00000000          1
6
pbc=[F, F, F] list_num_par=6 frozen=false iter=20000 energy=-1.26974174 Lattice="15.00000000 0.00000000 0.00000000 0.00000000 15.00000000 0.00000000 0.00000000 0.00000000 15.00000000" energy_frozen_part=0.00000000 Properties=species:S:1:pos:R:3:velocities:R:3:Z:I:1
H         3.99157103       3.03799552       7.56077569         0.00000000       0.00000000       0.00000000          1
H         5.96500722       4.37852133       6.10721493         0.00000000       0.00000000       0.00000000          1
H         4.29205132       6.60519201       5.88945101         0.00000000       0.00000000       0.00000000          1
H         3.39646679       4.09730427       5.04522304         0.00000000       0.00000000       0.00000000          1
H         4.88715841       5.54588325       8.40499842         0.00000000       0.00000000       0.00000000          1
H         2.31861750       5.26467260       7.34300716         0.00000000       0.00000000       0.00000000          1
6
pbc=[F, F, F] list_num_par=6 frozen=false iter=20000 energy=-1.26974174 Lattice="15.00000000 0.00000000 0.00000000 0.00000000 15.00000000 0.00000000 0.00000000 0.00000000 15.00000000" energy_frozen_part=0.00000000 Properties=species:S:1:pos:R:3:velocities:R:3:Z:I:1
H         3.98918584       3.03999694       7.56017519         0.00000000       0.00000000       0.00000000          1
H         5.96302172       4.37789055       6.10474355         0.00000000       0.00000000       0.00000000          1
H         4.29210916       6.60610072       5.88695200         0.00000000       0.00000000       0.00000000          1
H         3.39353960       4.09868579       5.04449655         0.00000000       0.00000000       0.00000000          1
H         4.88775047       5.54741364       8.40263515         0.00000000       0.00000000       0.00000000          1
H         2.31827136       5.26820820       7.34239036         0.00000000       0.00000000       0.00000000          1
6
pbc=[F, F, F] list_num_par=6 frozen=false iter=20000 energy=-1.26974174 Lattice="15.00000000 0.00000000 0.00000000 0.00000000 15.00000000 0.00000000 0.00000000 0.00000000 15.00000000" energy_frozen_part=0.00000000 Properties=species:S:1:pos:R:3:velocities:R:3:Z:I:1
H         3.99145069       3.03800191       7.56071814         0.00000000       0.00000000       0.00000000          1
H         5.96495269       4.37850183       6.10722994         0.00000000       0.00000000       0.00000000          1
H         4.29207195       6.60523759       5.88948478         0.00000000       0.00000000       0.00000000          1
H         3.39642441       4.09739400       5.04518451         0.00000000       0.00000000       0.00000000          1
H         4.88709206       5.54584664       8.40501394         0.00000000       0.00000000       0.00000000          1
H         2.31856395       5.26473832       7.34297101         0.00000000       0.00000000       0.00000000          1
6
pbc=[F, F, F] list_num_par=6 frozen=false iter=20000 energy=-1.26974174 Lattice="15.00000000 0.00000000 0.00000000 0.00000000 15.00000000 0.00000000 0.00000000 0.00000000 15.00000000" energy_frozen_part=0.00000000 Properties=species:S:1:pos:R:3:velocities:R:3:Z:I:1
H         3.98908399       3.04023762       7.56037872         0.00000000       0.00000000       0.00000000          1
H         5.96299778       4.37785999       6.10480683         0.00000000       0.00000000       0.00000000          1
H         4.29228499       6.60620193       5.88691796         0.00000000       0.00000000       0.00000000          1
H         3.39346586       4.09881904       5.04464121         0.00000000       0.00000000       0.00000000          1
H         4.88790477       5.54762273       8.40265153         0.00000000       0.00000000       0.00000000          1
H         2.31836938       5.26858285       7.34249667         0.00000000       0.00000000       0.00000000          1
6
pbc=[F, F, F] list_num_par=6 frozen=false iter=20000 energy=-1.26974174 Lattice="15.00000000 0.00000000 0.00000000 0.00000000 15.00000000 0.00000000 0.00000000 0.00000000 15.00000000" energy_frozen_part=0.00000000 Properties=species:S:1:pos:R:3:velocities:R:3:Z:I:1
H         3.98907241       3.04026686       7.56041112         0.00000000       0.00000000       0.00000000          1
H         5.96299152       4.37789755       6.10485558         0.00000000       0.00000000       0.00000000          1
H         4.29225807       6.60622321       5.88692086         0.00000000       0.00000000       0.00000000          1
H         3.39347398       4.09882241       5.04466018         0.00000000       0.00000000       0.00000000          1
H         4.88785037       5.54767313       8.40267599         0.00000000       0.00000000       0.00000000          1
H         2.31833257       5.26859519       7.34248207         0.00000000       0.00000000       0.00000000          1
6
pbc=[F, F, F] list_num_par=6 frozen=false iter=20000 energy=-1.26974174 Lattice="15.00000000 0.00000000 0.00000000 0.00000000 15.00000000 0.00000000 0.00000000 0.00000000 15.00000000" energy_frozen_part=0.00000000 Properties=species:S:1:pos:R:3:velocities:R:3:Z:I:1
H         3.98922480       3.03994653       7.56014395         0.00000000       0.00000000       0.00000000          1
H         5.96303706       4.37788571       6.10471327         0.00000000       0.00000000       0.00000000          1
H         4.29210906       6.60609239       5.88697968         0.00000000       0.00000000       0.00000000          1
H         3.39355215       4.09868704       5.04449012         0.00000000       0.00000000       0.00000000          1
H         4.88778563       5.54735785       8.40263523         0.00000000       0.00000000       0.00000000          1
H         2.31830080       5.26814655       7.34241869         0.00000000       0.00000000       0.00000000          1
6
pbc=[F, F, F] list_num_par=6 frozen=false iter=20000 energy=-1.26974174 Lattice="15.00000000 0.00000000 0.00000000 0.00000000 15.00000000 0.00000000 0.00000000 0.00000000 15.00000000" energy_frozen_part=0.00000000 Properties=species:S:1:pos:R:3:velocities:R:3:Z:I:1
H         4.10765211       2.87574849       7.35845885         0.00000000       0.00000000       0.00000000          1
H         6.08042273       4.38518916       6.08015648         0.00000000       0.00000000       0.00000000          1
H         4.33978306       6.56749875       5.97076702         0.00000000       0.00000000       0.00000000          1
H         3.55940824       4.10380337       4.90986681         0.00000000       0.00000000       0.00000000          1
H         4.88803519       5.33944494       8.41936328         0.00000000       0.00000000       0.00000000          1
H         2.36701202       5.05806084       7.24907148         0.00000000       0.00000000       0.00000000          1
6
pbc=[F, F, F] list_num_par=6 frozen=false iter=20000 energy=-1.26974174 Lattice="15.00000000 0.00000000 0.00000000 0.00000000 15.00000000 0.00000000 0.00000000 0.00000000 15.00000000" energy_frozen_part=0.00000000 Properties=species:S:1:pos:R:3:velocities:R:3:Z:I:1
H         4.10769049       2.87576560       7.35842272         0.00000000       0.00000000       0.00000000          1
H         6.08044107       4.38523025       6.08012623         0.00000000       0.00000000       0.00000000          1
H         4.33979387       6.56753768       5.97079876         0.00000000       0.00000000       0.00000000          1
H         3.55941800       4.10385859       4.90985777         0.00000000       0.00000000       0.00000000          1
H         4.88806310       5.33944820       8.41935864         0.00000000       0.00000000       0.00000000          1
H         2.36703924       5.05807412       7.24908650         0.00000000       0.00000000       0.00000000          1
6
pbc=[F, F, F] list_num_par=6 frozen=false iter=20000 energy=-1.26974174 Lattice="15.00000000 0.00000000 0.00000000 0.00000000 15.00000000 0.00000000 0.00000000 0.00000000 15.00000000" energy_frozen_part=0.00000000 Properties=species:S:1:pos:R:3:velocities:R:3:Z:I:1
H         4.10769351       2.87577891       7.35844783         0.00000000       0.00000000       0.00000000          1
H         6.08044312       4.38524304       6.08013468         0.00000000       0.00000000       0.00000000          1
H         4.33978732       6.56753856       5.97078199         0.00000000       0.00000000       0.00000000          1
H         3.55941361       4.10384330       4.90987101         0.00000000       0.00000000       0.00000000          1
H         4.88806071       5.33946508       8.41935535         0.00000000       0.00000000       0.00000000          1
H         2.36703251       5.05807823       7.24908826         0.00000000       0.00000000       0.00000000          1
6
pbc=[F, F, F] list_num_par=6 frozen=false iter=20000 energy=-1.26974174 Lattice="15.00000000 0.00000000 0.00000000 0.00000000 15.00000000 0.00000000 0.00000000 0.00000000 15.00000000" energy_frozen_part=0.00000000 Properties=species:S:1:pos:R:3:velocities:R:3:Z:I:1
H         4.10767948       2.87575941       7.35844239         0.00000000       0.00000000       0.00000000          1
H         6.08044545       4.38520794       6.08014372         0.00000000       0.00000000       0.00000000          1
H         4.33980011       6.56751893       5.97078902         0.00000000       0.00000000       0.00000000          1
H         3.55941260       4.10383886       4.90986722         0.00000000       0.00000000       0.00000000          1
H         4.88806748       5.33944582       8.41936083         0.00000000       0.00000000       0.00000000          1
H         2.36703897       5.05807202       7.24908579         0.00000000       0.00000000       0.00000000          1
6
pbc=[F, F, F] list_num_par=6 frozen=false iter=20000 energy=-1.26974174 Lattice="15.00000000 0.00000000 0.00000000 0.00000000 15.00000000 0.00000000 0.00000000 0.00000000 15.00000000" energy_frozen_part=0.00000000 Properties=species:S:1:pos:R:3:velocities:R:3:Z:I:1
H         4.10765166       2.87576846       7.35844699         0.00000000       0.00000000       0.00000000          1
H         6.08043162       4.38521530       6.08016939         0.00000000       0.00000000       0.00000000          1
H         4.33979303       6.56753456       5.97080215         0.00000000       0.00000000       0.00000000          1
H         3.55941248       4.10385492       4.90987172         0.00000000       0.00000000       0.00000000          1
H         4.88801820       5.33945310       8.41937767         0.00000000       0.00000000       0.00000000          1
H         2.36700798       5.05808161       7.24907743         0.00000000       0.00000000       0.00000000          1
6
pbc=[F, F, F] list_num_par=6 frozen=false iter=20000 energy=-1.26974174 Lattice="15.00000000 0.00000000 0.00000000 0.00000000 15.00000000 0.00000000 0.00000000 0.00000000 15.00000000" energy_frozen_part=0.00000000 Properties=species:S:1:pos:R:3:velocities:R:3:Z:I:1
H         3.99150234       3.03798414       7.56073720         0.00000000       0.00000000       0.00000000          1
H         5.96506217       4.37842449       6.10727524         0.00000000       0.00000000       0.00000000          1
H         4.29225369       6.60520129       5.88947907         0.00000000       0.00000000       0.00000000          1
H         3.39654754       4.09737993       5.04518820         0.00000000       0.00000000       0.00000000          1
H         4.88719790       5.54580674       8.40504122         0.00000000       0.00000000       0.00000000          1
H         2.31868826       5.26476423       7.34294758         0.00000000       0.00000000       0.00000000          1
6
pbc=[F, F, F] list_num_par=6 frozen=false iter=20000 energy=-1.26974174 Lattice="15.00000000 0.00000000 0.00000000 0.00000000 15.00000000 0.00000000 0.00000000 0.00000000 15.00000000" energy_frozen_part=0.00000000 Properties=species:S:1:pos:R:3:velocities:R:3:Z:I:1
H         4.10763772       2.87573989       7.35845464         0.00000000       0.00000000       0.00000000          1
H         6.08042082       4.38517454       6.08016206         0.00000000       0.00000000       0.00000000          1
H         4.33980071       6.56750275       5.97078556         0.00000000       0.00000000       0.00000000          1
H         3.55940428       4.10381920       4.90986905         0.00000000       0.00000000       0.00000000          1
H         4.88802672       5.33942805       8.41936705         0.00000000       0.00000000       0.00000000          1
H         2.36701305       5.05806828       7.24907859         0.00000000       0.00000000       0.00000000          1
6
pbc=[F, F, F] list_num_par=6 frozen=false iter=20000 energy=-1.26974174 Lattice="15.00000000 0.00000000 0.00000000 0.00000000 15.00000000 0.00000000 0.00000000 0.00000000 15.00000000" energy_frozen_part=0.00000000 Properties=species:S:1:pos:R:3:velocities:R:3:Z:I:1
H         3.98923136       3.03998616       7.56020657         0.00000000       0.00000000       0.00000000          1
H         5.96300070       4.37792525       6.10471879         0.00000000       0.00000000       0.00000000          1
H         4.29202778       6.60608784       5.88696093         0.00000000       0.00000000       0.00000000          1
H         3.39351104       4.09864921       5.04453038         0.00000000       0.00000000       0.00000000          1
H         4.88776149       5.54742424       8.40263463         0.00000000       0.00000000       0.00000000          1
H         2.31826887       5.26814824       7.34245147         0.00000000       0.00000000       0.00000000          1
6
pbc=[F, F, F] list_num_par=6 frozen=false iter=20000 energy=-1.26974174 Lattice="15.00000000 0.00000000 0.00000000 0.00000000 15.00000000 0.00000000 0.00000000 0.00000000 15.00000000" energy_frozen_part=0.00000000 Properties=species:S:1:pos:R:3:velocities:R:3:Z:I:1
H         3.99152849       3.03799331       7.56075675         0.00000000       0.00000000       0.00000000          1
H         5.96508564       4.37843448       6.10728315         0.00000000       0.00000000       0.00000000          1
H         4.29223915       6.60519387       5.88946451         0.00000000       0.00000000       0.00000000          1
H         3.39658018       4.09734917       5.04519149         0.00000000       0.00000000       0.00000000          1
H         4.88719015       5.54583577       8.40502472         0.00000000       0.00000000       0.00000000          1
H         2.31868099       5.26474286       7.34293308         0.00000000       0.00000000       0.00000000          1
6
pbc=[F, F, F] list_num_par=6 frozen=false iter=20000 energy=-1.26974174 Lattice="15.00000000 0.00000000 0.00000000 0.00000000 15.00000000 0.00000000 0.00000000 0.00000000 15.00000000" energy_frozen_part=0.00000000 Properties=species:S:1:pos:R:3:velocities:R:3:Z:I:1
H         3.98908458       3.04026847       7.56040977         0.00000000       0.00000000       0.00000000          1
H         5.96300381       4.37790622       6.10484747         0.00000000       0.00000000       0.00000000          1
H         4.29227134       6.60623244       5.88692646         0.00000000       0.00000000       0.00000000          1
H         3.39349288       4.09882893       5.04465328         0.00000000       0.00000000       0.00000000          1
H         4.88785071       5.54766911       8.40267439         0.00000000       0.00000000       0.00000000          1
H         2.31834368       5.26859079       7.34247319         0.00000000       0.00000000       0.00000000          1
6
pbc=[F, F, F] list_num_par=6 frozen=false iter=20000 energy=-1.26974174 Lattice="15.00000000 0.00000000 0.00000000 0.00000000 15.00000000 0.00000000 0.00000000 0.00000000 15.00000000" energy_frozen_part=0.00000000 Properties=species:S:1:pos:R:3:velocities:R:3:Z:I:1
H         3.98922860       3.03995552       7.56013960         0.00000000       0.00000000       0.00000000          1
H         5.96303471       4.37788850       6.10469487         0.00000000       0.00000000       0.00000000          1
H         4.29211172       6.60608911       5.88697533         0.00000000       0.00000000       0.00000000          1
H         3.39354656       4.09868749       5.04448636         0.00000000       0.00000000       0.00000000          1
H         4.88779270       5.54735481       8.40263091         0.00000000       0.00000000       0.00000000          1
H         2.31829906       5.26815383       7.34241265         0.00000000       0.00000000       0.00000000          1
6
pbc=[F, F, F] list_num_par=6 frozen=false iter=20000 energy=-1.26974174 Lattice="15.00000000 0.00000000 0.00000000 0.00000000 15.00000000 0.00000000 0.00000000 0.00000000 15.00000000" energy_frozen_part=0.00000000 Properties=species:S:1:pos:R:3:velocities:R:3:Z:I:1
H         3.98905402       3.04026254       7.56039741         0.00000000       0.00000000       0.00000000          1
H         5.96298680       4.37789282       6.10485213         0.00000000       0.00000000       0.00000000          1
H         4.29227338       6.60623651       5.88693861         0.00000000       0.00000000       0.00000000          1
H         3.39346590       4.09885120       5.04466183         0.00000000       0.00000000       0.00000000          1
H         4.88785876       5.54765599       8.40268734         0.00000000       0.00000000       0.00000000          1
H         2.31834486       5.26860899       7.34249847         0.00000000       0.00000000       0.00000000          1
6
pbc=[F, F, F] list_num_par=6 frozen=false iter=20000 energy=-1.26974174 Lattice="15.00000000 0.00000000 0.00000000 0.00000000 15.00000000 0.00000000 0.00000000 0.00000000 15.00000000" energy_frozen_part=0.00000000 Properties=species:S:1:pos:R:3:velocities:R:3:Z:I:1
H         3.99134075       3.03807723       7.56073143         0.00000000       0.00000000       0.00000000          1
H         5.96496248       4.37842196       6.10726277         0.00000000       0.00000000       0.00000000          1
H         4.29222633       6.60525154       5.88941595         0.00000000       0.00000000       0.00000000          1
H         3.39644530       4.09744578       5.04515203         0.00000000       0.00000000       0.00000000          1
H         4.88711377       5.54588704       8.40499478         0.00000000       0.00000000       0.00000000          1
H         2.31860814       5.26490929       7.34288298         0.00000000       0.00000000       0.00000000          1
6
pbc=[F, F, F] list_num_par=6 frozen=false iter=20000 energy=-1.26974174 Lattice="15.00000000 0.00000000 0.00000000 0.00000000 15.00000000 0.00000000 0.00000000 0.00000000 15.00000000" energy_frozen_part=0.00000000 Properties=species:S:1:pos:R:3:velocities:R:3:Z:I:1
H         4.10766102       2.87576769       7.35845146         0.00000000       0.00000000       0.00000000          1
H         6.08042476       4.38522241       6.08015854         0.00000000       0.00000000       0.00000000          1
H         4.33978314       6.56753334       5.97081064         0.00000000       0.00000000       0.00000000          1
H         3.55940067       4.10385524       4.90988084         0.00000000       0.00000000       0.00000000          1
H         4.88805177       5.33944966       8.41938653         0.00000000       0.00000000       0.00000000          1
H         2.36702138       5.05808405       7.24911128         0.00000000       0.00000000       0.00000000          1
6
pbc=[F, F, F] list_num_par=6 frozen=false iter=20000 energy=-1.26974174 Lattice="15.00000000 0.00000000 0.00000000 0.00000000 15.00000000 0.00000000 0.00000000 0.00000000 15.00000000" energy_frozen_part=0.00000000 Properties=species:S:1:pos:R:3:velocities:R:3:Z:I:1
H         3.99166847       3.03829413       7.56108797         0.00000000       0.00000000       0.00000000          1
H         5.96519323       4.37856595       6.10742575         0.00000000       0.00000000       0.00000000          1
H         4.29226273       6.60521846       5.88917955         0.00000000       0.00000000       0.00000000          1
H         3.39671993       4.09718698       5.04532573         0.00000000       0.00000000       0.00000000          1
H         4.88720767       5.54631895       8.40494349         0.00000000       0.00000000       0.00000000          1
H         2.31873668       5.26493707       7.34284924         0.00000000       0.00000000       0.00000000          1
6
pbc=[F, F, F] list_num_par=6 frozen=false iter=20000 energy=-1.26974174 Lattice="15.00000000 0.00000000 0.00000000 0.00000000 15.00000000 0.00000000 0.00000000 0.00000000 15.00000000" energy_frozen_part=0.00000000 Properties=species:S:1:pos:R:3:velocities:R:3:Z:I:1
H         3.98922293       3.03997855       7.56017196         0.00000000       0.00000000       0.00000000          1
H         5.96300831       4.37792384       6.10472199         0.00000000       0.00000000       0.00000000          1
H         4.29204828       6.60609750       5.88697439         0.00000000       0.00000000       0.00000000          1
H         3.39351901       4.09867469       5.04451169         0.00000000       0.00000000       0.00000000          1
H         4.88774450       5.54740351       8.40264201         0.00000000       0.00000000       0.00000000          1
H         2.31825873       5.26815006       7.34242495         0.00000000       0.00000000       0.00000000          1
6
pbc=[F, F, F] list_num_par=6 frozen=false iter=20000 energy=-1.26974174 Lattice="15.00000000 0.00000000 0.00000000 0.00000000 15.00000000 0.00000000 0.00000000 0.00000000 15.00000000" energy_frozen_part=0.00000000 Properties=species:S:1:pos:R:3:velocities:R:3:Z:I:1
H         3.98921758       3.03997168       7.56019418         0.00000000       0.00000000       0.00000000          1
H         5.96299747       4.37791634       6.10472890         0.00000000       0.00000000       0.00000000          1
H         4.29203414       6.60609119       5.88696457         0.00000000       0.00000000       0.00000000          1
H         3.39350991       4.09865859       5.04452423         0.00000000       0.00000000       0.00000000          1
H         4.88774484       5.54740465       8.40263596         0.00000000       0.00000000       0.00000000          1
H         2.31825445       5.26814902       7.34244279         0.00000000       0.00000000       0.00000000          1
6
pbc=[F, F, F] list_num_par=6 frozen=false iter=20000 energy=-1.26974174 Lattice="15.00000000 0.00000000 0.00000000 0.00000000 15.00000000 0.00000000 0.00000000 0.00000000 15.00000000" energy_frozen_part=0.00000000 Properties=species:S:1:pos:R:3:velocities:R:3:Z:I:1
H         3.99179054       3.03841712       7.56039181         0.00000000       0.00000000       0.00000000          1
H         5.96503097       4.37865169       6.10630917         0.00000000       0.00000000       0.00000000          1
H         4.29212176       6.60536371       5.88850477         0.00000000       0.00000000       0.00000000          1
H         3.39630223       4.09738904       5.04479436         0.00000000       0.00000000       0.00000000          1
H         4.88761176       5.54639150       8.40410044         0.00000000       0.00000000       0.00000000          1
H         2.31887923       5.26512528       7.34258582         0.00000000       0.00000000       0.00000000          1
6
pbc=[F, F, F] list_num_par=6 frozen=false iter=20000 energy=-1.26974174 Lattice="15.00000000 0.00000000 0.00000000 0.00000000 15.00000000 0.00000000 0.00000000 0.00000000 15.00000000" energy_frozen_part=0.00000000 Properties=species:S:1:pos:R:3:velocities:R:3:Z:I:1
H         3.99162949       3.03829892       7.56109587         0.00000000       0.00000000       0.00000000          1
H         5.96517848       4.37854775       6.10743801         0.00000000       0.00000000       0.00000000          1
H         4.29225831       6.60519617       5.88914626         0.00000000       0.00000000       0.00000000          1
H         3.39671185       4.09716302       5.04531610         0.00000000       0.00000000       0.00000000          1
H         4.88718008       5.54633015       8.40492406         0.00000000       0.00000000       0.00000000          1
H         2.31871105       5.26495422       7.34280595         0.00000000       0.00000000       0.00000000          1
6
pbc=[F, F, F] list_num_par=6 frozen=false iter=20000 energy=-1.26974174 Lattice="15.00000000 0.00000000 0.00000000 0.00000000 15.00000000 0.00000000 0.00000000 0.00000000 15.00000000" energy_frozen_part=0.00000000 Properties=species:S:1:pos:R:3:velocities:R:3:Z:I:1
H         3.99166806       3.03828574       7.56105215         0.00000000       0.00000000       0.00000000          1
H         5.96519375       4.37857374       6.10738731         0.00000000       0.00000000       0.00000000          1
H         4.29226165       6.60522112       5.88915514         0.00000000       0.00000000       0.00000000          1
H         3.39672252       4.09719466       5.04529755         0.00000000       0.00000000       0.00000000          1
H         4.88720936       5.54631198       8.40491628         0.00000000       0.00000000       0.00000000          1
H         2.31873700       5.26493448       7.34282053         0.00000000       0.00000000       0.00000000          1
6
pbc=[F, F, F] list_num_par=6 frozen=false iter=20000 energy=-1.26974174 Lattice="15.00000000 0.00000000 0.00000000 0.00000000 15.00000000 0.00000000 0.00000000 0.00000000 15.00000000" energy_frozen_part=0.00000000 Properties=species:S:1:pos:R:3:velocities:R:3:Z:I:1
H         3.98906833       3.04025815       7.56037570         0.00000000       0.00000000       0.00000000          1
H         5.96300997       4.37784516       6.10480636         0.00000000       0.00000000       0.00000000          1
H         4.29233600       6.60622716       5.88690072         0.00000000       0.00000000       0.00000000          1
H         3.39348320       4.09884971       5.04463640         0.00000000       0.00000000       0.00000000          1
H         4.88792559       5.54763334       8.40263998         0.00000000       0.00000000       0.00000000          1
H         2.31839337       5.26863742       7.34247227         0.00000000       0.00000000       0.00000000          1
6
pbc=[F, F, F] list_num_par=6 frozen=false iter=20000 energy=-1.26974174 Lattice="15.00000000 0.00000000 0.00000000 0.00000000 15.00000000 0.00000000 0.00000000 0.00000000 15.00000000" energy_frozen_part=0.00000000 Properties=species:S:1:pos:R:3:velocities:R:3:Z:I:1
H         3.99163294       3.03831560       7.56110753         0.00000000       0.00000000       0.00000000          1
H         5.96517387       4.37852422       6.10741198         0.00000000       0.00000000       0.00000000          1
H         4.29228490       6.60519461       5.88911990         0.00000000       0.00000000       0.00000000          1
H         3.39669426       4.09716240       5.04532326         0.00000000       0.00000000       0.00000000          1
H         4.88721135       5.54634404       8.40490885         0.00000000       0.00000000       0.00000000          1
H         2.31873995       5.26498745       7.34281929         0.00000000       0.00000000       0.00000000          1
6
pbc=[F, F, F] list_num_par=6 frozen=false iter=20000 energy=-1.26974174 Lattice="15.00000000 0.00000000 0.00000000 0.00000000 15.00000000 0.00000000 0.00000000 0.00000000 15.00000000" energy_frozen_part=0.00000000 Properties=species:S:1:pos:R:3:velocities:R:3:Z:I:1
H         3.99164540       3.03831357       7.56109829         0.00000000       0.00000000       0.00000000          1
H         5.96517906       4.37854543       6.10739613         0.00000000       0.00000000       0.00000000          1
H         4.29226772       6.60519998       5.88913484         0.00000000       0.00000000       0.00000000          1
H         3.39668762       4.09717364       5.04532208         0.00000000       0.00000000       0.00000000          1
H         4.88722496       5.54634348       8.40490998         0.00000000       0.00000000       0.00000000          1
H         2.31873932       5.26497622       7.34283393         0.00000000       0.00000000       0.00000000          1
6
pbc=[F, F, F] list_num_par=6 frozen=false iter=20000 energy=-1.26974174 Lattice="15.00000000 0.00000000 0.00000000 0.00000000 15.00000000 0.00000000 0.00000000 0.00000000 15.00000000" energy_frozen_part=0.00000000 Properties=species:S:1:pos:R:3:velocities:R:3:Z:I:1
H         3.99164328       3.03831676       7.56110617         0.00000000       0.00000000       0.00000000          1
H         5.96517845       4.37853443       6.10739546         0.00000000       0.00000000       0.00000000          1
H         4.29227318       6.60519835       5.88912626         0.00000000       0.00000000       0.00000000          1
H         3.39669846       4.09716532       5.04531812         0.00000000       0.00000000       0.00000000          1
H         4.88722392       5.54634490       8.40490397         0.00000000       0.00000000       0.00000000          1
H         2.31874033       5.26497544       7.34282171         0.00000000       0.00000000       0.00000000          1
6
pbc=[F, F, F] list_num_par=6 frozen=false iter=20000 energy=-1.26974174 Lattice="15.00000000 0.00000000 0.00000000 0.00000000 15.00000000 0.00000000 0.00000000 0.00000000 15.00000000" energy_frozen_part=0.00000000 Properties=species:S:1:pos:R:3:velocities:R:3:Z:I:1
H         4.10765774       2.87578197       7.35846695         0.00000000       0.00000000       0.00000000          1
H         6.08042356       4.38522748       6.08017256         0.00000000       0.00000000       0.00000000          1
H         4.33978440       6.56753721       5.97081018         0.00000000       0.00000000       0.00000000          1
H         3.55939788       4.10385390       4.90988940         0.00000000       0.00000000       0.00000000          1
H         4.88804171       5.33946452       8.41939230         0.00000000       0.00000000       0.00000000          1
H         2.36702071       5.05808847       7.24910789         0.00000000       0.00000000       0.00000000          1
6
pbc=[F, F, F] list_num_par=6 frozen=false iter=20000 energy=-1.26974174 Lattice="15.00000000 0.00000000 0.00000000 0.00000000 15.00000000 0.00000000 0.00000000 0.00000000 15.00000000" energy_frozen_part=0.00000000 Properties=species:S:1:pos:R:3:velocities:R:3:Z:I:1
H         3.98908908       3.04023853       7.56037741         0.00000000       0.00000000       0.00000000          1
H         5.96300447       4.37785828       6.10480606         0.00000000       0.00000000       0.00000000          1
H         4.29229940       6.60620987       5.88692076         0.00000000       0.00000000       0.00000000          1
H         3.39348058       4.09882329       5.04463938         0.00000000       0.00000000       0.00000000          1
H         4.88790729       5.54762309       8.40266011         0.00000000       0.00000000       0.00000000          1
H         2.31837709       5.26858256       7.34249000         0.00000000       0.00000000       0.00000000          1
6
pbc=[F, F, F] list_num_par=6 frozen=false iter=20000 energy=-1.26974174 Lattice="15.00000000 0.00000000 0.00000000 0.00000000 15.00000000 0.00000000 0.00000000 0.00000000 15.00000000" energy_frozen_part=0.00000000 Properties=species:S:1:pos:R:3:velocities:R:3:Z:I:1
H         4.10765565       2.87576993       7.35843662         0.00000000       0.00000000       0.00000000          1
H         6.08042772       4.38523260       6.08017152         0.00000000       0.00000000       0.00000000          1
H         4.33978321       6.56754102       5.97080395         0.00000000       0.00000000       0.00000000          1
H         3.55941822       4.10385821       4.90986532         0.00000000       0.00000000       0.00000000          1
H         4.88802038       5.33944937       8.41938119         0.00000000       0.00000000       0.00000000          1
H         2.36701121       5.05807601       7.24908288         0.00000000       0.00000000       0.00000000          1
6
pbc=[F, F, F] list_num_par=6 frozen=false iter=20000 energy=-1.26974174 Lattice="15.00000000 0.00000000 0.00000000 0.00000000 15.00000000 0.00000000 0.00000000 0.00000000 15.00000000" energy_frozen_part=0.00000000 Properties=species:S:1:pos:R:3:velocities:R:3:Z:I:1
H         3.99164210       3.03832074       7.56108050         0.00000000       0.00000000       0.00000000          1
H         5.96520019       4.37855688       6.10742943         0.00000000       0.00000000       0.00000000          1
H         4.29229723       6.60522016       5.88915102         0.00000000       0.00000000       0.00000000          1
H         3.39673987       4.09719480       5.04529611         0.00000000       0.00000000       0.00000000          1
H         4.88720088       5.54634040       8.40492485         0.00000000       0.00000000       0.00000000          1
H         2.31873480       5.26498022       7.34279527         0.00000000       0.00000000       0.00000000          1
6
pbc=[F, F, F] list_num_par=6 frozen=false iter=20000 energy=-1.26974174 Lattice="15.00000000 0.00000000 0.00000000 0.00000000 15.00000000 0.00000000 0.00000000 0.00000000 15.00000000" energy_frozen_part=0.00000000 Properties=species:S:1:pos:R:3:velocities:R:3:Z:I:1
H         3.98905389       3.04026258       7.56040661         0.00000000       0.00000000       0.00000000          1
H         5.96298724       4.37788199       6.10484586         0.00000000       0.00000000       0.00000000          1
H         4.29227553       6.60623412       5.88693832         0.00000000       0.00000000       0.00000000          1
H         3.39347312       4.09884463       5.04466406         0.00000000       0.00000000       0.00000000          1
H         4.88786300       5.54764809       8.40268349         0.00000000       0.00000000       0.00000000          1
H         2.31834624       5.26861400       7.34249383         0.00000000       0.00000000       0.00000000          1
6
pbc=[F, F, F] list_num_par=6 frozen=false iter=20000 energy=-1.26974174 Lattice="15.00000000 0.00000000 0.00000000 0.00000000 15.00000000 0.00000000 0.00000000 0.00000000 15.00000000" energy_frozen_part=0.00000000 Properties=species:S:1:pos:R:3:velocities:R:3:Z:I:1
H         3.98923200       3.03997371       7.56020562         0.00000000       0.00000000       0.00000000          1
H         5.96300145       4.37791196       6.10471864         0.00000000       0.00000000       0.00000000          1
H         4.29203225       6.60607851       5.88696001         0.00000000       0.00000000       0.00000000          1
H         3.39350289       4.09864016       5.04453687         0.00000000       0.00000000       0.00000000          1
H         4.88776617       5.54741497       8.40263017         0.00000000       0.00000000       0.00000000          1
H         2.31827056       5.26814139       7.34245941         0.00000000       0.00000000       0.00000000          1
6
pbc=[F, F, F] list_num_par=6 frozen=false iter=20000 energy=-1.26974174 Lattice="15.00000000 0.00000000 0.00000000 0.00000000 15.00000000 0.00000000 0.00000000 0.00000000 15.00000000" energy_frozen_part=0.00000000 Properties=species:S:1:pos:R:3:velocities:R:3:Z:I:1
H         3.98906252       3.04026675       7.56040474         0.00000000       0.00000000       0.00000000          1
H         5.96299100       4.37789318       6.10484377         0.00000000       0.00000000       0.00000000          1
H         4.29226733       6.60622712       5.88692543         0.00000000       0.00000000       0.00000000          1
H         3.39348368       4.09883206       5.04465304         0.00000000       0.00000000       0.00000000          1
H         4.88786078       5.54766469       8.40267131         0.00000000       0.00000000       0.00000000          1
H         2.31834235       5.26859832       7.34248177         0.00000000       0.00000000       0.00000000          1
6
pbc=[F, F, F] list_num_par=6 frozen=false iter=20000 energy=-1.26974174 Lattice="15.00000000 0.00000000 0.00000000 0.00000000 15.00000000 0.00000000 0.00000000 0.00000000 15.00000000" energy_frozen_part=0.00000000 Properties=species:S:1:pos:R:3:velocities:R:3:Z:I:1
H         3.99162035       3.03830450       7.56110180         0.00000000       0.00000000       0.00000000          1
H         5.96516715       4.37853932       6.10743389         0.00000000       0.00000000       0.00000000          1
H         4.29226056       6.60519009       5.88913187         0.00000000       0.00000000       0.00000000          1
H         3.39670096       4.09716278       5.04531806         0.00000000       0.00000000       0.00000000          1
H         4.88717310       5.54634090       8.40492477         0.00000000       0.00000000       0.00000000          1
H         2.31870989       5.26496256       7.34280954         0.00000000       0.00000000       0.00000000          1
6
pbc=[F, F, F] list_num_par=6 frozen=false iter=20000 energy=-1.26974174 Lattice="15.00000000 0.00000000 0.00000000 0.00000000 15.00000000 0.00000000 0.00000000 0.00000000 15.00000000" energy_frozen_part=0.00000000 Properties=species:S:1:pos:R:3:velocities:R:3:Z:I:1
H         4.10767979       2.87576266       7.35842257         0.00000000       0.00000000       0.00000000          1
H         6.08043654       4.38522423       6.08012874         0.00000000       0.00000000       0.00000000          1
H         4.33978400       6.56753469       5.97078639         0.00000000       0.00000000       0.00000000          1
H         3.55941024       4.10385391       4.90985591         0.00000000       0.00000000       0.00000000          1
H         4.88806264       5.33944813       8.41935175         0.00000000       0.00000000       0.00000000          1
H         2.36703593       5.05807512       7.24909077         0.00000000       0.00000000       0.00000000          1
6
pbc=[F, F, F] list_num_par=6 frozen=false iter=20000 energy=-1.26974174 Lattice="15.00000000 0.00000000 0.00000000 0.00000000 15.00000000 0.00000000 0.00000000 0.00000000 15.00000000" energy_frozen_part=0.00000000 Properties=species:S:1:pos:R:3:velocities:R:3:Z:I:1
H         4.10764482       2.87577870       7.35845642         0.00000000       0.00000000       0.00000000          1
H         6.08042224       4.38522097       6.08017069         0.00000000       0.00000000       0.00000000          1
H         4.33978826       6.56753443       5.97079591         0.00000000       0.00000000       0.00000000          1
H         3.55940154       4.10385251       4.90987815         0.00000000       0.00000000       0.00000000          1
H         4.88802822       5.33946653       8.41938153         0.00000000       0.00000000       0.00000000          1
H         2.36700814       5.05809085       7.24908612         0.00000000       0.00000000       0.00000000          1
6
pbc=[F, F, F] list_num_par=6 frozen=false iter=20000 energy=-1.26974174 Lattice="15.00000000 0.00000000 0.00000000 0.00000000 15.00000000 0.00000000 0.00000000 0.00000000 15.00000000" energy_frozen_part=0.00000000 Properties=species:S:1:pos:R:3:velocities:R:3:Z:I:1
H         3.98907612       3.04026167       7.56040242         0.00000000       0.00000000       0.00000000          1
H         5.96299697       4.37790105       6.10484616         0.00000000       0.00000000       0.00000000          1
H         4.29226918       6.60623000       5.88692141         0.00000000       0.00000000       0.00000000          1
H         3.39348148       4.09882544       5.04465785         0.00000000       0.00000000       0.00000000          1
H         4.88786115       5.54765987       8.40267681         0.00000000       0.00000000       0.00000000          1
H         2.31834513       5.26859358       7.34248325         0.00000000       0.00000000       0.00000000          1
6
pbc=[F, F, F] list_num_par=6 frozen=false iter=20000 energy=-1.26974174 Lattice="15.00000000 0.00000000 0.00000000 0.00000000 15.00000000 0.00000000 0.00000000 0.00000000 15.00000000" energy_frozen_part=0.00000000 Properties=species:S:1:pos:R:3:velocities:R:3:Z:I:1
H         3.99159578       3.03800317       7.56079310         0.00000000       0.00000000       0.00000000          1
H         5.96502652       4.37852936       6.10723387         0.00000000       0.00000000       0.00000000          1
H         4.29206223       6.60519031       5.88942740         0.00000000       0.00000000       0.00000000          1
H         3.39649312       4.09729174       5.04523656         0.00000000       0.00000000       0.00000000          1
H         4.88715788       5.54590560       8.40499271         0.00000000       0.00000000       0.00000000          1
H         2.31862498       5.26467080       7.34299725         0.00000000       0.00000000       0.00000000          1
6
pbc=[F, F, F] list_num_par=6 frozen=false iter=20000 energy=-1.26974174 Lattice="15.00000000 0.00000000 0.00000000 0.00000000 15.00000000 0.00000000 0.00000000 0.00000000 15.00000000" energy_frozen_part=0.00000000 Properties=species:S:1:pos:R:3:velocities:R:3:Z:I:1
H         3.99161792       3.03830785       7.56111033         0.00000000       0.00000000       0.00000000          1
H         5.96516671       4.37854454       6.10743274         0.00000000       0.00000000       0.00000000          1
H         4.29226405       6.60519658       5.88914315         0.00000000       0.00000000       0.00000000          1
H         3.39669564       4.09716865       5.04532490         0.00000000       0.00000000       0.00000000          1
H         4.88718020       5.54634071       8.40492684         0.00000000       0.00000000       0.00000000          1
H         2.31871018       5.26496853       7.34281668         0.00000000       0.00000000       0.00000000          1
6
pbc=[F, F, F] list_num_par=6 frozen=false iter=20000 energy=-1.26974174 Lattice="15.00000000 0.00000000 0.00000000 0.00000000 15.00000000 0.00000000 0.00000000 0.00000000 15.00000000" energy_frozen_part=0.00000000 Properties=species:S:1:pos:R:3:velocities:R:3:Z:I:1
H         3.99157344       3.03800909       7.56079379         0.00000000       0.00000000       0.00000000          1
H         5.96500430       4.37850465       6.10720752         0.00000000       0.00000000       0.00000000          1
H         4.29206943       6.60519557       5.88941714         0.00000000       0.00000000       0.00000000          1
H         3.39646164       4.09730398       5.04523833         0.00000000       0.00000000       0.00000000          1
H         4.88718355       5.54590338       8.40498126         0.00000000       0.00000000       0.00000000          1
H         2.31863761       5.26469581       7.34301359         0.00000000       0.00000000       0.00000000          1
6
pbc=[F, F, F] list_num_par=6 frozen=false iter=20000 energy=-1.26974174 Lattice="15.00000000 0.00000000 0.00000000 0.00000000 15.00000000 0.00000000 0.00000000 0.00000000 15.00000000" energy_frozen_part=0.00000000 Properties=species:S:1:pos:R:3:velocities:R:3:Z:I:1
H         3.99143720       3.03800271       7.56072634         0.00000000       0.00000000       0.00000000          1
H         5.96495005       4.37850195       6.10724435         0.00000000       0.00000000       0.00000000          1
H         4.29208170       6.60524041       5.88948800         0.00000000       0.00000000       0.00000000          1
H         3.39642931       4.09739689       5.04518604         0.00000000       0.00000000       0.00000000          1
H         4.88708867       5.54583618       8.40503020         0.00000000       0.00000000       0.00000000          1
H         2.31857000       5.26474379       7.34297083         0.00000000       0.00000000       0.00000000          1
6
pbc=[F, F, F] list_num_par=6 frozen=false iter=20000 energy=-1.26974174 Lattice="15.00000000 0.00000000 0.00000000 0.00000000 15.00000000 0.00000000 0.00000000 0.00000000 15.00000000" energy_frozen_part=0.00000000 Properties=species:S:1:pos:R:3:velocities:R:3:Z:I:1
H         3.98908705       3.04026675       7.56040963         0.00000000       0.00000000       0.00000000          1
H         5.96299972       4.37790577       6.10483976         0.00000000       0.00000000       0.00000000          1
H         4.29227330       6.60624010       5.88693557         0.00000000       0.00000000       0.00000000          1
H         3.39348997       4.09884013       5.04465970         0.00000000       0.00000000       0.00000000          1
H         4.88787346       5.54766783       8.40267670         0.00000000       0.00000000       0.00000000          1
H         2.31835634       5.26859346       7.34249187         0.00000000       0.00000000       0.00000000          1
6
pbc=[F, F, F] list_num_par=6 frozen=false iter=20000 energy=-1.26974174 Lattice="15.00000000 0.00000000 0.00000000 0.00000000 15.00000000 0.00000000 0.00000000 0.00000000 15.00000000" energy_frozen_part=0.00000000 Properties=species:S:1:pos:R:3:velocities:R:3:Z:I:1
H         3.99163980       3.03831762       7.56111368         0.00000000       0.00000000       0.00000000          1
H         5.96517008       4.37853274       6.10739506         0.00000000       0.00000000       0.00000000          1
H         4.29227903       6.60520781       5.88913174         0.00000000       0.00000000       0.00000000          1
H         3.39668294       4.09718076       5.04534213         0.00000000       0.00000000       0.00000000          1
H         4.88723857       5.54634448       8.40490762         0.00000000       0.00000000       0.00000000          1
H         2.31875034       5.26499402       7.34285404         0.00000000       0.00000000       0.00000000          1
6
pbc=[F, F, F] list_num_par=6 frozen=false iter=20000 energy=-1.26974174 Lattice="15.00000000 0.00000000 0.00000000 0.00000000 15.00000000 0.00000000 0.00000000 0.00000000 15.00000000" energy_frozen_part=0.00000000 Properties=species:S:1:pos:R:3:velocities:R:3:Z:I:1
H         4.10768242       2.87576742       7.35845108         0.00000000       0.00000000       0.00000000          1
H         6.08043810       4.38521657       6.08013466         0.00000000       0.00000000       0.00000000          1
H         4.33978459       6.56752006       5.97078930         0.00000000       0.00000000       0.00000000          1
H         3.55940863       4.10383313       4.90987457         0.00000000       0.00000000       0.00000000          1
H         4.88806435       5.33945294       8.41935710         0.00000000       0.00000000       0.00000000          1
H         2.36702621       5.05806878       7.24909789         0.00000000       0.00000000       0.00000000          1
6
pbc=[F, F, F] list_num_par=6 frozen=false iter=20000 energy=-1.26974174 Lattice="15.00000000 0.00000000 0.00000000 0.00000000 15.00000000 0.00000000 0.00000000 0.00000000 15.00000000" energy_frozen_part=0.00000000 Properties=species:S:1:pos:R:3:velocities:R:3:Z:I:1
H         3.99162769       3.03830090       7.56110190         0.00000000       0.00000000       0.00000000          1
H         5.96517113       4.37854177       6.10742779         0.00000000       0.00000000       0.00000000          1
H         4.29225398       6.60519432       5.88913645         0.00000000       0.00000000       0.00000000          1
H         3.39670184       4.09715999       5.04531698         0.00000000       0.00000000       0.00000000          1
H         4.88717749       5.54633226       8.40492058         0.00000000       0.00000000       0.00000000          1
H         2.31870748       5.26495609       7.34280047         0.00000000       0.00000000       0.00000000          1
6
pbc=[F, F, F] list_num_par=6 frozen=false iter=20000 energy=-1.26974174 Lattice="15.00000000 0.00000000 0.00000000 0.00000000 15.00000000 0.00000000 0.00000000 0.00000000 15.00000000" energy_frozen_part=0.00000000 Properties=species:S:1:pos:R:3:velocities:R:3:Z:I:1
H         3.98921965       3.03997991       7.56018685         0.00000000       0.00000000       0.00000000          1
H         5.96300894       4.37791850       6.10472381         0.00000000       0.00000000       0.00000000          1
H         4.29205065       6.60609858       5.88697243         0.00000000       0.00000000       0.00000000          1
H         3.39351874       4.09867191       5.04451387         0.00000000       0.00000000       0.00000000          1
H         4.88776062       5.54740481       8.40264263         0.00000000       0.00000000       0.00000000          1
H         2.31826665       5.26815340       7.34243723         0.00000000       0.00000000       0.00000000          1
6
pbc=[F, F, F] list_num_par=6 frozen=false iter=20000 energy=-1.26974174 Lattice="15.00000000 0.00000000 0.00000000 0.00000000 15.00000000 0.00000000 0.00000000 0.00000000 15.00000000" energy_frozen_part=0.00000000 Properties=species:S:1:pos:R:3:velocities:R:3:Z:I:1
H         3.98909781       3.04023669       7.56037297         0.00000000       0.00000000       0.00000000          1
H         5.96301194       4.37787507       6.10480381         0.00000000       0.00000000       0.00000000          1
H         4.29229218       6.60622016       5.88692600         0.00000000       0.00000000       0.00000000          1
H         3.39348571       4.09883331       5.04464024         0.00000000       0.00000000       0.00000000          1
H         4.88790364       5.54761892       8.40265445         0.00000000       0.00000000       0.00000000          1
H         2.31837781       5.26858649       7.34249416         0.00000000       0.00000000       0.00000000          1
6
pbc=[F, F, F] list_num_par=6 frozen=false iter=20000 energy=-1.26974174 Lattice="15.00000000 0.00000000 0.00000000 0.00000000 15.00000000 0.00000000 0.00000000 0.00000000 15.00000000" energy_frozen_part=0.00000000 Properties=species:S:1:pos:R:3:velocities:R:3:Z:I:1
H         3.98905612       3.04026107       7.56036430         0.00000000       0.00000000       0.00000000          1
H         5.96299809       4.37786969       6.10481006         0.00000000       0.00000000       0.00000000          1
H         4.29231656       6.60623485       5.88692364         0.00000000       0.00000000       0.00000000          1
H         3.39346848       4.09886398       5.04463006         0.00000000       0.00000000       0.00000000          1
H         4.88790000       5.54763073       8.40266295         0.00000000       0.00000000       0.00000000          1
H         2.31837188       5.26862516       7.34248345         0.00000000       0.00000000       0.00000000          1
6
pbc=[F, F, F] list_num_par=6 frozen=false iter=20000 energy=-1.26974174 Lattice="15.00000000 0.00000000 0.00000000 0.00000000 15.00000000 0.00000000 0.00000000 0.00000000 15.00000000" energy_frozen_part=0.00000000 Properties=species:S:1:pos:R:3:velocities:R:3:Z:I:1
H         4.10764631       2.87577181       7.35845169         0.00000000       0.00000000       0.00000000          1
H         6.08041926       4.38521546       6.08016637         0.00000000       0.00000000       0.00000000          1
H         4.33978627       6.56753468       5.97080578         0.00000000       0.00000000       0.00000000          1
H         3.55940562       4.10385446       4.90986932         0.00000000       0.00000000       0.00000000          1
H         4.88802801       5.33945362       8.41938255         0.00000000       0.00000000       0.00000000          1
H         2.36701099       5.05808020       7.24908484         0.00000000       0.00000000       0.00000000          1
6
pbc=[F, F, F] list_num_par=6 frozen=false iter=20000 energy=-1.26974174 Lattice="15.00000000 0.00000000 0.00000000 0.00000000 15.00000000 0.00000000 0.00000000 0.00000000 15.00000000" energy_frozen_part=0.00000000 Properties=species:S:1:pos:R:3:velocities:R:3:Z:I:1
H         3.99135088       3.03807528       7.56075278         0.00000000       0.00000000       0.00000000          1
H         5.96495687       4.37842052       6.10726077         0.00000000       0.00000000       0.00000000          1
H         4.29220948       6.60524745       5.88941180         0.00000000       0.00000000       0.00000000          1
H         3.39644242       4.09742797       5.04516979         0.00000000       0.00000000       0.00000000          1
H         4.88711347       5.54589360       8.40499108         0.00000000       0.00000000       0.00000000          1
H         2.31859853       5.26489624       7.34288890         0.00000000       0.00000000       0.00000000          1
6
pbc=[F, F, F] list_num_par=6 frozen=false iter=20000 energy=-1.26974174 Lattice="15.00000000 0.00000000 0.00000000 0.00000000 15.00000000 0.00000000 0.00000000 0.00000000 15.00000000" energy_frozen_part=0.00000000 Properties=species:S:1:pos:R:3:velocities:R:3:Z:I:1
H         3.99161517       3.03830907       7.56109397         0.00000000       0.00000000       0.00000000          1
H         5.96517124       4.37853948       6.10742455         0.00000000       0.00000000       0.00000000          1
H         4.29226498       6.60521073       5.88914752         0.00000000       0.00000000       0.00000000          1
H         3.39669624       4.09718570       5.04531714         0.00000000       0.00000000       0.00000000          1
H         4.88718374       5.54632824       8.40492071         0.00000000       0.00000000       0.00000000          1
H         2.31871194       5.26497715       7.34281526         0.00000000       0.00000000       0.00000000          1
6
pbc=[F, F, F] list_num_par=6 frozen=false iter=20000 energy=-1.26974174 Lattice="15.00000000 0.00000000 0.00000000 0.00000000 15.00000000 0.00000000 0.00000000 0.00000000 15.00000000" energy_frozen_part=0.00000000 Properties=species:S:1:pos:R:3:velocities:R:3:Z:I:1
H         3.99179512       3.03839984       7.56037175         0.00000000       0.00000000       0.00000000          1
H         5.96501158       4.37866417       6.10627769         0.00000000       0.00000000       0.00000000          1
H         4.29209450       6.60537114       5.88850152         0.00000000       0.00000000       0.00000000          1
H         3.39627302       4.09739792       5.04478553         0.00000000       0.00000000       0.00000000          1
H         4.88761033       5.54637357       8.40409100         0.00000000       0.00000000       0.00000000          1
H         2.31888071       5.26511167       7.34259930         0.00000000       0.00000000       0.00000000          1
6
pbc=[F, F, F] list_num_par=6 frozen=false iter=20000 energy=-1.26974174 Lattice="15.00000000 0.00000000 0.00000000 0.00000000 15.00000000 0.00000000 0.00000000 0.00000000 15.00000000" energy_frozen_part=0.00000000 Properties=species:S:1:pos:R:3:velocities:R:3:Z:I:1
H         3.98908023       3.04026253       7.56039976         0.00000000       0.00000000       0.00000000          1
H         5.96299540       4.37791002       6.10484819         0.00000000       0.00000000       0.00000000          1
H         4.29225884       6.60624223       5.88694687         0.00000000       0.00000000       0.00000000          1
H         3.39347701       4.09885466       5.04465792         0.00000000       0.00000000       0.00000000          1
H         4.88785803       5.54765972       8.40268472         0.00000000       0.00000000       0.00000000          1
H         2.31834510       5.26859002       7.34250069         0.00000000       0.00000000       0.00000000          1
6
pbc=[F, F, F] list_num_par=6 frozen=false iter=20000 energy=-1.26974174 Lattice="15.00000000 0.00000000 0.00000000 0.00000000 15.00000000 0.00000000 0.00000000 0.00000000 15.00000000" energy_frozen_part=0.00000000 Properties=species:S:1:pos:R:3:velocities:R:3:Z:I:1
H         3.99178092       3.03839778       7.56037059         0.00000000       0.00000000       0.00000000          1
H         5.96501310       4.37865527       6.10628815         0.00000000       0.00000000       0.00000000          1
H         4.29210707       6.60536953       5.88851036         0.00000000       0.00000000       0.00000000          1
H         3.39628023       4.09739685       5.04478365         0.00000000       0.00000000       0.00000000          1
H         4.88760408       5.54637432       8.40409438         0.00000000       0.00000000       0.00000000          1
H         2.31887129       5.26510945       7.34258965         0.00000000       0.00000000       0.00000000          1
6
pbc=[F, F, F] list_num_par=6 frozen=false iter=20000 energy=-1.26974174 Lattice="15.00000000 0.00000000 0.00000000 0.00000000 15.00000000 0.00000000 0.00000000 0.00000000 15.00000000" energy_frozen_part=0.00000000 Properties=species:S:1:pos:R:3:velocities:R:3:Z:I:1
H         3.98922968       3.03999410       7.56020574         0.00000000       0.00000000       0.00000000          1
H         5.96299840       4.37793606       6.10471997         0.00000000       0.00000000       0.00000000          1
H         4.29202526       6.60609908       5.88695584         0.00000000       0.00000000       0.00000000          1
H         3.39350825       4.09865866       5.04452733         0.00000000       0.00000000       0.00000000          1
H         4.88775041       5.54743210       8.40262798         0.00000000       0.00000000       0.00000000          1
H         2.31825373       5.26816183       7.34244089         0.00000000       0.00000000       0.00000000          1
6
pbc=[F, F, F] list_num_par=6 frozen=false iter=20000 energy=-1.26974174 Lattice="15.00000000 0.00000000 0.00000000 0.00000000 15.00000000 0.00000000 0.00000000 0.00000000 15.00000000" energy_frozen_part=0.00000000 Properties=species:S:1:pos:R:3:velocities:R:3:Z:I:1
H         3.99163415       3.03831641       7.56111813         0.00000000       0.00000000       0.00000000          1
H         5.96516961       4.37852682       6.10739752         0.00000000       0.00000000       0.00000000          1
H         4.29227197       6.60519658       5.88911835         0.00000000       0.00000000       0.00000000          1
H         3.39668597       4.09716207       5.04532841         0.00000000       0.00000000       0.00000000          1
H         4.88722605       5.54635030       8.40490256         0.00000000       0.00000000       0.00000000          1
H         2.31873725       5.26498671       7.34283272         0.00000000       0.00000000       0.00000000          1
6
pbc=[F, F, F] list_num_par=6 frozen=false iter=20000 energy=-1.26974174 Lattice="15.00000000 0.00000000 0.00000000 0.00000000 15.00000000 0.00000000 0.00000000 0.00000000 15.00000000" energy_frozen_part=0.00000000 Properties=species:S:1:pos:R:3:velocities:R:3:Z:I:1
H         3.99166090       3.03829350       7.56109261         0.00000000       0.00000000       0.00000000          1
H         5.96519860       4.37856834       6.10743787         0.00000000       0.00000000       0.00000000          1
H         4.29228361       6.60521917       5.88918814         0.00000000       0.00000000       0.00000000          1
H         3.39672633       4.09719912       5.04533120         0.00000000       0.00000000       0.00000000          1
H         4.88720603       5.54631524       8.40495377         0.00000000       0.00000000       0.00000000          1
H         2.31873793       5.26495064       7.34284585         0.00000000       0.00000000       0.00000000          1
6
pbc=[F, F, F] list_num_par=6 frozen=false iter=20000 energy=-1.26974174 Lattice="15.00000000 0.00000000 0.00000000 0.00000000 15.00000000 0.00000000 0.00000000 0.00000000 15.00000000" energy_frozen_part=0.00000000 Properties=species:S:1:pos:R:3:velocities:R:3:Z:I:1
H         4.10764718       2.87577809       7.35844829         0.00000000       0.00000000       0.00000000          1
H         6.08042524       4.38522067       6.08015997         0.00000000       0.00000000       0.00000000          1
H         4.33978752       6.56753547       5.97079854         0.00000000       0.00000000       0.00000000          1
H         3.55940348       4.10384843       4.90987430         0.00000000       0.00000000       0.00000000          1
H         4.88803214       5.33945402       8.41937293         0.00000000       0.00000000       0.00000000          1
H         2.36701077       5.05809358       7.24908255         0.00000000       0.00000000       0.00000000          1
6
pbc=[F, F, F] list_num_par=6 frozen=false iter=20000 energy=-1.26974174 Lattice="15.00000000 0.00000000 0.00000000 0.00000000 15.00000000 0.00000000 0.00000000 0.00000000 15.00000000" energy_frozen_part=0.00000000 Properties=species:S:1:pos:R:3:velocities:R:3:Z:I:1
H         3.98923286       3.03997465       7.56020453         0.00000000       0.00000000       0.00000000          1
H         5.96299357       4.37790834       6.10470690         0.00000000       0.00000000       0.00000000          1
H         4.29202947       6.60607958       5.88695219         0.00000000       0.00000000       0.00000000          1
H         3.39349831       4.09864047       5.04453529         0.00000000       0.00000000       0.00000000          1
H         4.88777573       5.54741594       8.40262142         0.00000000       0.00000000       0.00000000          1
H         2.31827324       5.26814648       7.34245899         0.00000000       0.00000000       0.00000000          1
6
pbc=[F, F, F] list_num_par=6 frozen=false iter=20000 energy=-1.26974174 Lattice="15.00000000 0.00000000 0.00000000 0.00000000 15.00000000 0.00000000 0.00000000 0.00000000 15.00000000" energy_frozen_part=0.00000000 Properties=species:S:1:pos:R:3:velocities:R:3:Z:I:1
H         4.10767804       2.87576688       7.35844072         0.00000000       0.00000000       0.00000000          1
H         6.08043846       4.38521189       6.08014433         0.00000000       0.00000000       0.00000000          1
H         4.33979539       6.56751945       5.97078455         0.00000000       0.00000000       0.00000000          1
H         3.55941689       4.10384304       4.90986265         0.00000000       0.00000000       0.00000000          1
H         4.88805554       5.33944879       8.41936352         0.00000000       0.00000000       0.00000000          1
H         2.36703075       5.05807298       7.24908229         0.00000000       0.00000000       0.00000000          1
6
pbc=[F, F, F] list_num_par=6 frozen=false iter=20000 energy=-1.26974174 Lattice="15.00000000 0.00000000 0.00000000 0.00000000 15.00000000 0.00000000 0.00000000 0.00000000 15.00000000" energy_frozen_part=0.00000000 Properties=species:S:1:pos:R:3:velocities:R:3:Z:I:1
H         3.98921577       3.03998241       7.56018884         0.00000000       0.00000000       0.00000000          1
H         5.96300146       4.37791270       6.10471725         0.00000000       0.00000000       0.00000000          1
H         4.29205227       6.60609478       5.88697134         0.00000000       0.00000000       0.00000000          1
H         3.39350875       4.09867115       5.04451746         0.00000000       0.00000000       0.00000000          1
H         4.88775935       5.54740793       8.40263987         0.00000000       0.00000000       0.00000000          1
H         2.31827100       5.26815805       7.34244225         0.00000000       0.00000000       0.00000000          1
6
pbc=[F, F, F] list_num_par=6 frozen=false iter=20000 energy=-1.26974174 Lattice="15.00000000 0.00000000 0.00000000 0.00000000 15.00000000 0.00000000 0.00000000 0.00000000 15.00000000" energy_frozen_part=0.00000000 Properties=species:S:1:pos:R:3:velocities:R:3:Z:I:1
H         3.98924512       3.03997624       7.56020671         0.00000000       0.00000000       0.00000000          1
H         5.96300125       4.37793131       6.10471922         0.00000000       0.00000000       0.00000000          1
H         4.29202012       6.60608699       5.88697262         0.00000000       0.00000000       0.00000000          1
H         3.39350592       4.09864369       5.04453383         0.00000000       0.00000000       0.00000000          1
H         4.88775779       5.54741968       8.40264032         0.00000000       0.00000000       0.00000000          1
H         2.31825972       5.26813598       7.34245187         0.00000000       0.00000000       0.00000000          1
6
pbc=[F, F, F] list_num_par=6 frozen=false iter=20000 energy=-1.26974174 Lattice="15.00000000 0.00000000 0.00000000 0.00000000 15.00000000 0.00000000 0.00000000 0.00000000 15.00000000" energy_frozen_part=0.00000000 Properties=species:S:1:pos:R:3:velocities:R:3:Z:I:1
H         3.98922858       3.03998752       7.56020330         0.00000000       0.00000000       0.00000000          1
H         5.96300066       4.37793195       6.10472234         0.00000000       0.00000000       0.00000000          1
H         4.29202779       6.60609628       5.88697243         0.00000000       0.00000000       0.00000000          1
H         3.39350806       4.09866071       5.04453355         0.00000000       0.00000000       0.00000000          1
H         4.88776031       5.54741671       8.40264178         0.00000000       0.00000000       0.00000000          1
H         2.31825949       5.26815301       7.34245599         0.00000000       0.00000000       0.00000000          1
6
pbc=[F, F, F] list_num_par=6 frozen=false iter=20000 energy=-1.26974174 Lattice="15.00000000 0.00000000 0.00000000 0.00000000 15.00000000 0.00000000 0.00000000 0.00000000 15.00000000" energy_frozen_part=0.00000000 Properties=species:S:1:pos:R:3:velocities:R:3:Z:I:1
H         3.98908297       3.04027028       7.56039986         0.00000000       0.00000000       0.00000000          1
H         5.96300797       4.37790664       6.10484278         0.00000000       0.00000000       0.00000000          1
H         4.29226891       6.60623536       5.88691415         0.00000000       0.00000000       0.00000000          1
H         3.39349357       4.09883119       5.04465120         0.00000000       0.00000000       0.00000000          1
H         4.88785768       5.54767578       8.40266725         0.00000000       0.00000000       0.00000000          1
H         2.31834754       5.26859389       7.34247924         0.00000000       0.00000000       0.00000000          1
6
pbc=[F, F, F] list_num_par=6 frozen=false iter=20000 energy=-1.26974174 Lattice="15.00000000 0.00000000 0.00000000 0.00000000 15.00000000 0.00000000 0.00000000 0.00000000 15.00000000" energy_frozen_part=0.00000000 Properties=species:S:1:pos:R:3:velocities:R:3:Z:I:1
H         3.99158448       3.03799599       7.56078245         0.00000000       0.00000000       0.00000000          1
H         5.96500447       4.37851690       6.10719702         0.00000000       0.00000000       0.00000000          1
H         4.29205109       6.60519412       5.88942681         0.00000000       0.00000000       0.00000000          1
H         3.39646532       4.09730047       5.04523274         0.00000000       0.00000000       0.00000000          1
H         4.88717139       5.54588821       8.40497987         0.00000000       0.00000000       0.00000000          1
H         2.31863000       5.26467563       7.34301267         0.00000000       0.00000000       0.00000000          1
6
pbc=[F, F, F] list_num_par=6 frozen=false iter=20000 energy=-1.26974174 Lattice="15.00000000 0.00000000 0.00000000 0.00000000 15.00000000 0.00000000 0.00000000 0.00000000 15.00000000" energy_frozen_part=0.00000000 Properties=species:S:1:pos:R:3:velocities:R:3:Z:I:1
H         3.99165058       3.03830766       7.56112002         0.00000000       0.00000000       0.00000000          1
H         5.96517719       4.37854177       6.10740808         0.00000000       0.00000000       0.00000000          1
H         4.29227002       6.60519808       5.88915600         0.00000000       0.00000000       0.00000000          1
H         3.39668292       4.09717261       5.04535288         0.00000000       0.00000000       0.00000000          1
H         4.88723894       5.54633826       8.40492695         0.00000000       0.00000000       0.00000000          1
H         2.31874450       5.26497251       7.34287109         0.00000000       0.00000000       0.00000000          1
6
pbc=[F, F, F] list_num_par=6 frozen=false iter=20000 energy=-1.26974174 Lattice="15.00000000 0.00000000 0.00000000 0.00000000 15.00000000 0.00000000 0.00000000 0.00000000 15.00000000" energy_frozen_part=0.00000000 Properties=species:S:1:pos:R:3:velocities:R:3:Z:I:1
H         3.98922840       3.03995362       7.56014295         0.00000000       0.00000000       0.00000000          1
H         5.96303342       4.37789771       6.10472144         0.00000000       0.00000000       0.00000000          1
H         4.29210478       6.60609177       5.88697405         0.00000000       0.00000000       0.00000000          1
H         3.39355936       4.09868605       5.04447974         0.00000000       0.00000000       0.00000000          1
H         4.88776606       5.54736407       8.40264100         0.00000000       0.00000000       0.00000000          1
H         2.31829269       5.26814708       7.34239492         0.00000000       0.00000000       0.00000000          1
6
pbc=[F, F, F] list_num_par=6 frozen=false iter=20000 energy=-1.26974174 Lattice="15.00000000 0.00000000 0.00000000 0.00000000 15.00000000 0.00000000 0.00000000 0.00000000 15.00000000" energy_frozen_part=0.00000000 Properties=species:S:1:pos:R:3:velocities:R:3:Z:I:1
H         4.10764236       2.87575275       7.35844574         0.00000000       0.00000000       0.00000000          1
H         6.08040850       4.38519673       6.08015013         0.00000000       0.00000000       0.00000000          1
H         4.33976613       6.56750496       5.97079079         0.00000000       0.00000000       0.00000000          1
H         3.55938326       4.10382889       4.90987268         0.00000000       0.00000000       0.00000000          1
H         4.88802754       5.33943472       8.41936733         0.00000000       0.00000000       0.00000000          1
H         2.36700236       5.05806659       7.24909194         0.00000000       0.00000000       0.00000000          1
6
pbc=[F, F, F] list_num_par=6 frozen=false iter=20000 energy=-1.26974174 Lattice="15.00000000 0.00000000 0.00000000 0.00000000 15.00000000 0.00000000 0.00000000 0.00000000 15.00000000" energy_frozen_part=0.00000000 Properties=species:S:1:pos:R:3:velocities:R:3:Z:I:1
H         3.98908397       3.04026171       7.56040060         0.00000000       0.00000000       0.00000000          1
H         5.96301116       4.37790638       6.10484742         0.00000000       0.00000000       0.00000000          1
H         4.29226885       6.60622763       5.88692148         0.00000000       0.00000000       0.00000000          1
H         3.39350163       4.09882553       5.04465231         0.00000000       0.00000000       0.00000000          1
H         4.88785997       5.54766144       8.40267181         0.00000000       0.00000000       0.00000000          1
H         2.31834871       5.26859246       7.34247183         0.00000000       0.00000000       0.00000000          1
6
pbc=[F, F, F] list_num_par=6 frozen=false iter=20000 energy=-1.26974174 Lattice="15.00000000 0.00000000 0.00000000 0.00000000 15.00000000 0.00000000 0.00000000 0.00000000 15.00000000" energy_frozen_part=0.00000000 Properties=species:S:1:pos:R:3:velocities:R:3:Z:I:1
H         4.10764601       2.87577203       7.35847037         0.00000000       0.00000000       0.00000000          1
H         6.08041520       4.38521322       6.08016034         0.00000000       0.00000000       0.00000000          1
H         4.33977363       6.56752920       5.97082190         0.00000000       0.00000000       0.00000000          1
H         3.55937996       4.10385242       4.90989873         0.00000000       0.00000000       0.00000000          1
H         4.88804296       5.33944749       8.41938546         0.00000000       0.00000000       0.00000000          1
H         2.36700847       5.05808591       7.24912136         0.00000000       0.00000000       0.00000000          1
6
pbc=[F, F, F] list_num_par=6 frozen=false iter=20000 energy=-1.26974174 Lattice="15.00000000 0.00000000 0.00000000 0.00000000 15.00000000 0.00000000 0.00000000 0.00000000 15.00000000" energy_frozen_part=0.00000000 Properties=species:S:1:pos:R:3:velocities:R:3:Z:I:1
H         4.10764792       2.87574583       7.35845267         0.00000000       0.00000000       0.00000000          1
H         6.08041433       4.38518584       6.08015525         0.00000000       0.00000000       0.00000000          1
H         4.33977434       6.56750209       5.97077955         0.00000000       0.00000000       0.00000000          1
H         3.55939735       4.10381224       4.90987102         0.00000000       0.00000000       0.00000000          1
H         4.88802887       5.33944016       8.41935950         0.00000000       0.00000000       0.00000000          1
H         2.36700322       5.05805655       7.24908091         0.00000000       0.00000000       0.00000000          1
6
pbc=[F, F, F] list_num_par=6 frozen=false iter=20000 energy=-1.26974174 Lattice="15.00000000 0.00000000 0.00000000 0.00000000 15.00000000 0.00000000 0.00000000 0.00000000 15.00000000" energy_frozen_part=0.00000000 Properties=species:S:1:pos:R:3:velocities:R:3:Z:I:1
H         3.98906386       3.04026276       7.56041894         0.00000000       0.00000000       0.00000000          1
H         5.96298463       4.37788668       6.10484753         0.00000000       0.00000000       0.00000000          1
H         4.29226146       6.60622364       5.88690935         0.00000000       0.00000000       0.00000000          1
H         3.39347079       4.09882146       5.04466008         0.00000000       0.00000000       0.00000000          1
H         4.88785673       5.54767390       8.40266573         0.00000000       0.00000000       0.00000000          1
H         2.31834262       5.26859765       7.34248363         0.00000000       0.00000000       0.00000000          1
6
pbc=[F, F, F] list_num_par=6 frozen=false iter=20000 energy=-1.26974174 Lattice="15.00000000 0.00000000 0.00000000 0.00000000 15.00000000 0.00000000 0.00000000 0.00000000 15.00000000" energy_frozen_part=0.00000000 Properties=species:S:1:pos:R:3:velocities:R:3:Z:I:1
H         3.98920869       3.03997034       7.56019248         0.00000000       0.00000000       0.00000000          1
H         5.96298849       4.37791980       6.10472313         0.00000000       0.00000000       0.00000000          1
H         4.29202928       6.60608623       5.88697080         0.00000000       0.00000000       0.00000000          1
H         3.39349919       4.09865496       5.04452430         0.00000000       0.00000000       0.00000000          1
H         4.88773604       5.54740000       8.40264345         0.00000000       0.00000000       0.00000000          1
H         2.31824579       5.26814826       7.34244066         0.00000000       0.00000000       0.00000000          1
6
pbc=[F, F, F] list_num_par=6 frozen=false iter=20000 energy=-1.26974174 Lattice="15.00000000 0.00000000 0.00000000 0.00000000 15.00000000 0.00000000 0.00000000 0.00000000 15.00000000" energy_frozen_part=0.00000000 Properties=species:S:1:pos:R:3:velocities:R:3:Z:I:1
H         4.10763540       2.87576059       7.35846184         0.00000000       0.00000000       0.00000000          1
H         6.08042975       4.38516923       6.08015486         0.00000000       0.00000000       0.00000000          1
H         4.33982893       6.56751676       5.97080572         0.00000000       0.00000000       0.00000000          1
H         3.55939808       4.10385048       4.90988371         0.00000000       0.00000000       0.00000000          1
H         4.88807801       5.33942535       8.41937420         0.00000000       0.00000000       0.00000000          1
H         2.36703659       5.05810485       7.24910648         0.00000000       0.00000000       0.00000000          1
6
pbc=[F, F, F] list_num_par=6 frozen=false iter=20000 energy=-1.26974174 Lattice="15.00000000 0.00000000 0.00000000 0.00000000 15.00000000 0.00000000 0.00000000 0.00000000 15.00000000" energy_frozen_part=0.00000000 Properties=species:S:1:pos:R:3:velocities:R:3:Z:I:1
H         3.99178364       3.03840147       7.56037603         0.00000000       0.00000000       0.00000000          1
H         5.96501616       4.37865384       6.10629670         0.00000000       0.00000000       0.00000000          1
H         4.29210891       6.60536720       5.88851282         0.00000000       0.00000000       0.00000000          1
H         3.39628783       4.09739343       5.04478766         0.00000000       0.00000000       0.00000000          1
H         4.88760919       5.54637649       8.40410049         0.00000000       0.00000000       0.00000000          1
H         2.31887605       5.26511267       7.34259669         0.00000000       0.00000000       0.00000000          1
6
pbc=[F, F, F] list_num_par=6 frozen=false iter=20000 energy=-1.26974174 Lattice="15.00000000 0.00000000 0.00000000 0.00000000 15.00000000 0.00000000 0.00000000 0.00000000 15.00000000" energy_frozen_part=0.00000000 Properties=species:S:1:pos:R:3:velocities:R:3:Z:I:1
H         3.99164572       3.03831536       7.56108736         0.00000000       0.00000000       0.00000000          1
H         5.96519785       4.37856259       6.10742822         0.00000000       0.00000000       0.00000000          1
H         4.29228420       6.60522097       5.88915353         0.00000000       0.00000000       0.00000000          1
H         3.39673536       4.09719010       5.04530433         0.00000000       0.00000000       0.00000000          1
H         4.88719906       5.54633953       8.40493116         0.00000000       0.00000000       0.00000000          1
H         2.31872997       5.26496682       7.34280419         0.00000000       0.00000000       0.00000000          1
6
pbc=[F, F, F] list_num_par=6 frozen=false iter=20000 energy=-1.26974174 Lattice="15.00000000 0.00000000 0.00000000 0.00000000 15.00000000 0.00000000 0.00000000 0.00000000 15.00000000" energy_frozen_part=0.00000000 Properties=species:S:1:pos:R:3:velocities:R:3:Z:I:1
H         3.99166762       3.03828316       7.56104698         0.00000000       0.00000000       0.00000000          1
H         5.96519329       4.37856635       6.10739434         0.00000000       0.00000000       0.00000000          1
H         4.29226328       6.60521660       5.88915219         0.00000000       0.00000000       0.00000000          1
H         3.39672183       4.09719029       5.04528862         0.00000000       0.00000000       0.00000000          1
H         4.88720791       5.54630352       8.40491354         0.00000000       0.00000000       0.00000000          1
H         2.31874092       5.26493338       7.34281255         0.00000000       0.00000000       0.00000000          1
6
pbc=[F, F, F] list_num_par=6 frozen=false iter=20000 energy=-1.26974174 Lattice="15.00000000 0.00000000 0.00000000 0.00000000 15.00000000 0.00000000 0.00000000 0.00000000 15.00000000" energy_frozen_part=0.00000000 Properties=species:S:1:pos:R:3:velocities:R:3:Z:I:1
H         3.99168532       3.03830287       7.56110135         0.00000000       0.00000000       0.00000000          1
H         5.96520845       4.37857530       6.10742956         0.00000000       0.00000000       0.00000000          1
H         4.29227340       6.60521836       5.88918046         0.00000000       0.00000000       0.00000000          1
H         3.39673543       4.09718488       5.04532951         0.00000000       0.00000000       0.00000000          1
H         4.88722233       5.54633351       8.40494414         0.00000000       0.00000000       0.00000000          1
H         2.31874861       5.26494360       7.34283732         0.00000000       0.00000000       0.00000000          1
6
pbc=[F, F, F] list_num_par=6 frozen=false iter=20000 energy=-1.26974174 Lattice="15.00000000 0.00000000 0.00000000 0.00000000 15.00000000 0.00000000 0.00000000 0.00000000 15.00000000" energy_frozen_part=0.00000000 Properties=species:S:1:pos:R:3:velocities:R:3:Z:I:1
H         3.98921779       3.03997898       7.56019469         0.00000000       0.00000000       0.00000000          1
H         5.96299648       4.37790655       6.10471704         0.00000000       0.00000000       0.00000000          1
H         4.29204544       6.60608401       5.88695951         0.00000000       0.00000000       0.00000000          1
H         3.39350443       4.09865055       5.04451977         0.00000000       0.00000000       0.00000000          1
H         4.88775142       5.54741076       8.40263371         0.00000000       0.00000000       0.00000000          1
H         2.31826466       5.26815999       7.34243242         0.00000000       0.00000000       0.00000000          1
6
pbc=[F, F, F] list_num_par=6 frozen=false iter=20000 energy=-1.26974174 Lattice="15.00000000 0.00000000 0.00000000 0.00000000 15.00000000 0.00000000 0.00000000 0.00000000 15.00000000" energy_frozen_part=0.00000000 Properties=species:S:1:pos:R:3:velocities:R:3:Z:I:1
H         3.99159386       3.03800671       7.56079388         0.00000000       0.00000000       0.00000000          1
H         5.96501572       4.37853024       6.10722825         0.00000000       0.00000000       0.00000000          1
H         4.29205247       6.60519905       5.88943431         0.00000000       0.00000000       0.00000000          1
H         3.39648945       4.09729709       5.04523420         0.00000000       0.00000000       0.00000000          1
H         4.88716057       5.54590815       8.40499482         0.00000000       0.00000000       0.00000000          1
H         2.31862708       5.26466691       7.34300002         0.00000000       0.00000000       0.00000000          1
6
pbc=[F, F, F] list_num_par=6 frozen=false iter=20000 energy=-1.26974174 Lattice="15.00000000 0.00000000 0.00000000 0.00000000 15.00000000 0.00000000 0.00000000 0.00000000 15.00000000" energy_frozen_part=0.00000000 Properties=species:S:1:pos:R:3:velocities:R:3:Z:I:1
H         4.10765839       2.87576901       7.35846116         0.00000000       0.00000000       0.00000000          1
H         6.08042635       4.38522035       6.08017448         0.00000000       0.00000000       0.00000000          1
H         4.33978299       6.56752846       5.97081998         0.00000000       0.00000000       0.00000000          1
H         3.55940115       4.10384409       4.90988930         0.00000000       0.00000000       0.00000000          1
H         4.88803563       5.33944636       8.41939385         0.00000000       0.00000000       0.00000000          1
H         2.36701145       5.05807960       7.24910973         0.00000000       0.00000000       0.00000000          1
6
pbc=[F, F, F] list_num_par=6 frozen=false iter=20000 energy=-1.26974174 Lattice="15.00000000 0.00000000 0.00000000 0.00000000 15.00000000 0.00000000 0.00000000 0.00000000 15.00000000" energy_frozen_part=0.00000000 Properties=species:S:1:pos:R:3:velocities:R:3:Z:I:1
H         3.99160969       3.03802807       7.56077463         0.00000000       0.00000000       0.00000000          1
H         5.96504035       4.37855845       6.10721520         0.00000000       0.00000000       0.00000000          1
H         4.29208774       6.60524252       5.88946829         0.00000000       0.00000000       0.00000000          1
H         3.39650117       4.09735655       5.04523246         0.00000000       0.00000000       0.00000000          1
H         4.88720172       5.54591322       8.40500963         0.00000000       0.00000000       0.00000000          1
H         2.31865880       5.26470797       7.34301953         0.00000000       0.00000000       0.00000000          1
6
pbc=[F, F, F] list_num_par=6 frozen=false iter=20000 energy=-1.26974174 Lattice="15.00000000 0.00000000 0.00000000 0.00000000 15.00000000 0.00000000 0.00000000 0.00000000 15.00000000" energy_frozen_part=0.00000000 Properties=species:S:1:pos:R:3:velocities:R:3:Z:I:1
H         4.10768887       2.87576208       7.35846000         0.00000000       0.00000000       0.00000000          1
H         6.08045147       4.38521506       6.08016516         0.00000000       0.00000000       0.00000000          1
H         4.33980163       6.56752122       5.97081696         0.00000000       0.00000000       0.00000000          1
H         3.55942811       4.10383730       4.90989101         0.00000000       0.00000000       0.00000000          1
H         4.88806639       5.33943994       8.41938784         0.00000000       0.00000000       0.00000000          1
H         2.36703549       5.05806619       7.24910848         0.00000000       0.00000000       0.00000000          1
6
pbc=[F, F, F] list_num_par=6 frozen=false iter=20000 energy=-1.26974174 Lattice="15.00000000 0.00000000 0.00000000 0.00000000 15.00000000 0.00000000 0.00000000 0.00000000 15.00000000" energy_frozen_part=0.00000000 Properties=species:S:1:pos:R:3:velocities:R:3:Z:I:1
H         3.99159176       3.03800357       7.56081110         0.00000000       0.00000000       0.00000000          1
H         5.96502820       4.37851775       6.10724272         0.00000000       0.00000000       0.00000000          1
H         4.29206942       6.60517909       5.88941745         0.00000000       0.00000000       0.00000000          1
H         3.39649680       4.09726935       5.04523639         0.00000000       0.00000000       0.00000000          1
H         4.88715897       5.54591456       8.40499124         0.00000000       0.00000000       0.00000000          1
H         2.31863022       5.26467111       7.34299154         0.00000000       0.00000000       0.00000000          1
6
pbc=[F, F, F] list_num_par=6 frozen=false iter=20000 energy=-1.26974174 Lattice="15.00000000 0.00000000 0.00000000 0.00000000 15.00000000 0.00000000 0.00000000 0.00000000 15.00000000" energy_frozen_part=0.00000000 Properties=species:S:1:pos:R:3:velocities:R:3:Z:I:1
H         3.98906108       3.04026299       7.56037886         0.00000000       0.00000000       0.00000000          1
H         5.96300619       4.37785514       6.10481513         0.00000000       0.00000000       0.00000000          1
H         4.29233115       6.60622828       5.88691009         0.00000000       0.00000000       0.00000000          1
H         3.39347792       4.09884557       5.04463736         0.00000000       0.00000000       0.00000000          1
H         4.88790914       5.54764005       8.40265084         0.00000000       0.00000000       0.00000000          1
H         2.31838182       5.26863139       7.34247115         0.00000000       0.00000000       0.00000000          1
6
pbc=[F, F, F] list_num_par=6 frozen=false iter=20000 energy=-1.26974174 Lattice="15.00000000 0.00000000 0.00000000 0.00000000 15.00000000 0.00000000 0.00000000 0.00000000 15.00000000" energy_frozen_part=0.00000000 Properties=species:S:1:pos:R:3:velocities:R:3:Z:I:1
H         3.99151008       3.03798292       7.56074348         0.00000000       0.00000000       0.00000000          1
H         5.96507367       4.37843045       6.10728760         0.00000000       0.00000000       0.00000000          1
H         4.29225234       6.60520436       5.88949824         0.00000000       0.00000000       0.00000000          1
H         3.39656236       4.09738324       5.04518960         0.00000000       0.00000000       0.00000000          1
H         4.88720410       5.54580156       8.40505238         0.00000000       0.00000000       0.00000000          1
H         2.31869468       5.26475524       7.34296110         0.00000000       0.00000000       0.00000000          1
6
pbc=[F, F, F] list_num_par=6 frozen=false iter=20000 energy=-1.26974174 Lattice="15.00000000 0.00000000 0.00000000 0.00000000 15.00000000 0.00000000 0.00000000 0.00000000 15.00000000" energy_frozen_part=0.00000000 Properties=species:S:1:pos:R:3:velocities:R:3:Z:I:1
H         4.10764452       2.87577435       7.35846127         0.00000000       0.00000000       0.00000000          1
H         6.08041477       4.38521292       6.08015604         0.00000000       0.00000000       0.00000000          1
H         4.33977688       6.56753313       5.97081283         0.00000000       0.00000000       0.00000000          1
H         3.55938160       4.10386126       4.90988658         0.00000000       0.00000000       0.00000000          1
H         4.88804341       5.33944635       8.41938394         0.00000000       0.00000000       0.00000000          1
H         2.36700883       5.05809349       7.24911335         0.00000000       0.00000000       0.00000000          1
6
pbc=[F, F, F] list_num_par=6 frozen=false iter=20000 energy=-1.26974174 Lattice="15.00000000 0.00000000 0.00000000 0.00000000 15.00000000 0.00000000 0.00000000 0.00000000 15.00000000" energy_frozen_part=0.00000000 Properties=species:S:1:pos:R:3:velocities:R:3:Z:I:1
H         3.99158846       3.03799965       7.56078101         0.00000000       0.00000000       0.00000000          1
H         5.96502207       4.37853715       6.10722526         0.00000000       0.00000000       0.00000000          1
H         4.29204837       6.60520276       5.88944174         0.00000000       0.00000000       0.00000000          1
H         3.39649198       4.09730301       5.04522777         0.00000000       0.00000000       0.00000000          1
H         4.88715123       5.54589878       8.40499458         0.00000000       0.00000000       0.00000000          1
H         2.31861736       5.26466744       7.34300112         0.00000000       0.00000000       0.00000000          1
6
pbc=[F, F, F] list_num_par=6 frozen=false iter=20000 energy=-1.26974174 Lattice="15.00000000 0.00000000 0.00000000 0.00000000 15.00000000 0.00000000 0.00000000 0.00000000 15.00000000" energy_frozen_part=0.00000000 Properties=species:S:1:pos:R:3:velocities:R:3:Z:I:1
H         3.99165167       3.03830298       7.56108844         0.00000000       0.00000000       0.00000000          1
H         5.96519257       4.37857180       6.10743231         0.00000000       0.00000000       0.00000000          1
H         4.29227268       6.60522569       5.88917639         0.00000000       0.00000000       0.00000000          1
H         3.39672901       4.09720075       5.04531370         0.00000000       0.00000000       0.00000000          1
H         4.88719243       5.54633234       8.40494314         0.00000000       0.00000000       0.00000000          1
H         2.31872779       5.26495642       7.34282464         0.00000000       0.00000000       0.00000000          1
6
pbc=[F, F, F] list_num_par=6 frozen=false iter=20000 energy=-1.26974174 Lattice="15.00000000 0.00000000 0.00000000 0.00000000 15.00000000 0.00000000 0.00000000 0.00000000 15.00000000" energy_frozen_part=0.00000000 Properties=species:S:1:pos:R:3:velocities:R:3:Z:I:1
H         4.10767845       2.87576700       7.35845909         0.00000000       0.00000000       0.00000000          1
H         6.08044821       4.38520735       6.08016516         0.00000000       0.00000000       0.00000000          1
H         4.33981647       6.56752966       5.97081817         0.00000000       0.00000000       0.00000000          1
H         3.55941444       4.10385648       4.90989360         0.00000000       0.00000000       0.00000000          1
H         4.88808110       5.33944137       8.41938962         0.00000000       0.00000000       0.00000000          1
H         2.36705050       5.05809676       7.24912045         0.00000000       0.00000000       0.00000000          1
6
pbc=[F, F, F] list_num_par=6 frozen=false iter=20000 energy=-1.26974174 Lattice="15.00000000 0.00000000 0.00000000 0.00000000 15.00000000 0.00000000 0.00000000 0.00000000 15.00000000" energy_frozen_part=0.00000000 Properties=species:S:1:pos:R:3:velocities:R:3:Z:I:1
H         3.98922437       3.03998523       7.56022534         0.00000000       0.00000000       0.00000000          1
H         5.96300497       4.37790533       6.10473422         0.00000000       0.00000000       0.00000000          1
H         4.29205886       6.60607927       5.88694638         0.00000000       0.00000000       0.00000000          1
H         3.39351468       4.09863761       5.04454008         0.00000000       0.00000000       0.00000000          1
H         4.88776057       5.54742453       8.40263681         0.00000000       0.00000000       0.00000000          1
H         2.31827347       5.26816566       7.34244129         0.00000000       0.00000000       0.00000000          1
6
pbc=[F, F, F] list_num_par=6 frozen=false iter=20000 energy=-1.26974174 Lattice="15.00000000 0.00000000 0.00000000 0.00000000 15.00000000 0.00000000 0.00000000 0.00000000 15.00000000" energy_frozen_part=0.00000000 Properties=species:S:1:pos:R:3:velocities:R:3:Z:I:1
H         3.99166624       3.03828187       7.56105753         0.00000000       0.00000000       0.00000000          1
H         5.96519767       4.37855404       6.10739813         0.00000000       0.00000000       0.00000000          1
H         4.29227017       6.60520024       5.88915339         0.00000000       0.00000000       0.00000000          1
H         3.39672329       4.09717531       5.04529128         0.00000000       0.00000000       0.00000000          1
H         4.88720933       5.54630645       8.40491719         0.00000000       0.00000000       0.00000000          1
H         2.31873540       5.26492305       7.34280542         0.00000000       0.00000000       0.00000000          1
6
pbc=[F, F, F] list_num_par=6 frozen=false iter=20000 energy=-1.26974174 Lattice="15.00000000 0.00000000 0.00000000 0.00000000 15.00000000 0.00000000 0.00000000 0.00000000 15.00000000" energy_frozen_part=0.00000000 Properties=species:S:1:pos:R:3:velocities:R:3:Z:I:1
H         3.98923851       3.03997845       7.56020790         0.00000000       0.00000000       0.00000000          1
H         5.96300036       4.37790916       6.10471072         0.00000000       0.00000000       0.00000000          1
H         4.29203653       6.60608003       5.88694808         0.00000000       0.00000000       0.00000000          1
H         3.39349658       4.09863996       5.04453720         0.00000000       0.00000000       0.00000000          1
H         4.88776925       5.54741964       8.40262430         0.00000000       0.00000000       0.00000000          1
H         2.31827543       5.26814875       7.34245729         0.00000000       0.00000000       0.00000000          1
6
pbc=[F, F, F] list_num_par=6 frozen=false iter=20000 energy=-1.26974174 Lattice="15.00000000 0.00000000 0.00000000 0.00000000 15.00000000 0.00000000 0.00000000 0.00000000 15.00000000" energy_frozen_part=0.00000000 Properties=species:S:1:pos:R:3:velocities:R:3:Z:I:1
H         3.99167600       3.03828953       7.56105600         0.00000000       0.00000000       0.00000000          1
H         5.96519434       4.37857471       6.10738689         0.00000000       0.00000000       0.00000000          1
H         4.29225425       6.60522054       5.88916093         0.00000000       0.00000000       0.00000000          1
H         3.39671119       4.09719433       5.04530593         0.00000000       0.00000000       0.00000000          1
H         4.88721776       5.54632054       8.40491702         0.00000000       0.00000000       0.00000000          1
H         2.31873892       5.26493629       7.34283493         0.00000000       0.00000000       0.00000000          1
6
pbc=[F, F, F] list_num_par=6 frozen=false iter=20000 energy=-1.26974174 Lattice="15.00000000 0.00000000 0.00000000 0.00000000 15.00000000 0.00000000 0.00000000 0.00000000 15.00000000" energy_frozen_part=0.00000000 Properties=species:S:1:pos:R:3:velocities:R:3:Z:I:1
H         3.98909518       3.04026895       7.56041197         0.00000000       0.00000000       0.00000000          1
H         5.96300715       4.37791767       6.10485071         0.00000000       0.00000000       0.00000000          1
H         4.29226768       6.60623927       5.88692526         0.00000000       0.00000000       0.00000000          1
H         3.39349723       4.09883368       5.04466195         0.00000000       0.00000000       0.00000000          1
H         4.88786748       5.54767374       8.40267499         0.00000000       0.00000000       0.00000000          1
H         2.31835722       5.26859337       7.34248479         0.00000000       0.00000000       0.00000000          1
6
pbc=[F, F, F] list_num_par=6 frozen=false iter=20000 energy=-1.26974174 Lattice="15.00000000 0.00000000 0.00000000 0.00000000 15.00000000 0.00000000 0.00000000 0.00000000 15.00000000" energy_frozen_part=0.00000000 Properties=species:S:1:pos:R:3:velocities:R:3:Z:I:1
H         3.99159239       3.03803708       7.56077608         0.00000000       0.00000000       0.00000000          1
H         5.96503101       4.37854034       6.10720676         0.00000000       0.00000000       0.00000000          1
H         4.29210816       6.60523761       5.88945270         0.00000000       0.00000000       0.00000000          1
H         3.39648892       4.09736144       5.04522819         0.00000000       0.00000000       0.00000000          1
H         4.88720951       5.54591324       8.40499672         0.00000000       0.00000000       0.00000000          1
H         2.31866890       5.26473719       7.34301535         0.00000000       0.00000000       0.00000000          1
6
pbc=[F, F, F] list_num_par=6 frozen=false iter=20000 energy=-1.26974174 Lattice="15.00000000 0.00000000 0.00000000 0.00000000 15.00000000 0.00000000 0.00000000 0.00000000 15.00000000" energy_frozen_part=0.00000000 Properties=species:S:1:pos:R:3:velocities:R:3:Z:I:1
H         3.99164861       3.03831498       7.56108614         0.00000000       0.00000000       0.00000000          1
H         5.96520041       4.37857164       6.10742613         0.00000000       0.00000000       0.00000000          1
H         4.29227947       6.60522126       5.88915115         0.00000000       0.00000000       0.00000000          1
H         3.39673616       4.09718967       5.04530589         0.00000000       0.00000000       0.00000000          1
H         4.88719578       5.54634229       8.40492864         0.00000000       0.00000000       0.00000000          1
H         2.31873022       5.26497040       7.34280122         0.00000000       0.00000000       0.00000000          1
6
pbc=[F, F, F] list_num_par=6 frozen=false iter=20000 energy=-1.26974174 Lattice="15.00000000 0.00000000 0.00000000 0.00000000 15.00000000 0.00000000 0.00000000 0.00000000 15.00000000" energy_frozen_part=0.00000000 Properties=species:S:1:pos:R:3:velocities:R:3:Z:I:1
H         3.99166892       3.03828659       7.56103976         0.00000000       0.00000000       0.00000000          1
H         5.96519469       4.37856564       6.10738408         0.00000000       0.00000000       0.00000000          1
H         4.29226648       6.60521402       5.88914748         0.00000000       0.00000000       0.00000000          1
H         3.39672114       4.09719272       5.04528593         0.00000000       0.00000000       0.00000000          1
H         4.88721089       5.54631368       8.40490748         0.00000000       0.00000000       0.00000000          1
H         2.31873541       5.26493507       7.34280411         0.00000000       0.00000000       0.00000000          1
6
pbc=[F, F, F] list_num_par=6 frozen=false iter=20000 energy=-1.26974174 Lattice="15.00000000 0.00000000 0.00000000 0.00000000 15.00000000 0.00000000 0.00000000 0.00000000 15.00000000" energy_frozen_part=0.00000000 Properties=species:S:1:pos:R:3:velocities:R:3:Z:I:1
H         4.10767259       2.87574940       7.35845040         0.00000000       0.00000000       0.00000000          1
H         6.08045036       4.38519668       6.08016981         0.00000000       0.00000000       0.00000000          1
H         4.33981489       6.56752028       5.97081401         0.00000000       0.00000000       0.00000000          1
H         3.55942839       4.10384030       4.90988291         0.00000000       0.00000000       0.00000000          1
H         4.88805998       5.33942796       8.41938593         0.00000000       0.00000000       0.00000000          1
H         2.36703540       5.05806886       7.24909813         0.00000000       0.00000000       0.00000000          1
6
pbc=[F, F, F] list_num_par=6 frozen=false iter=20000 energy=-1.26974174 Lattice="15.00000000 0.00000000 0.00000000 0.00000000 15.00000000 0.00000000 0.00000000 0.00000000 15.00000000" energy_frozen_part=0.00000000 Properties=species:S:1:pos:R:3:velocities:R:3:Z:I:1
H         3.99165158       3.03830769       7.56112355         0.00000000       0.00000000       0.00000000          1
H         5.96517886       4.37853442       6.10742414         0.00000000       0.00000000       0.00000000          1
H         4.29227759       6.60520172       5.88915575         0.00000000       0.00000000       0.00000000          1
H         3.39668779       4.09717476       5.04535122         0.00000000       0.00000000       0.00000000          1
H         4.88723595       5.54633579       8.40493463         0.00000000       0.00000000       0.00000000          1
H         2.31874786       5.26497511       7.34286403         0.00000000       0.00000000       0.00000000          1
6
pbc=[F, F, F] list_num_par=6 frozen=false iter=20000 energy=-1.26974174 Lattice="15.00000000 0.00000000 0.00000000 0.00000000 15.00000000 0.00000000 0.00000000 0.00000000 15.00000000" energy_frozen_part=0.00000000 Properties=species:S:1:pos:R:3:velocities:R:3:Z:I:1
H         3.98908738       3.04026296       7.56040868         0.00000000       0.00000000       0.00000000          1
H         5.96299963       4.37790612       6.10485151         0.00000000       0.00000000       0.00000000          1
H         4.29226958       6.60623426       5.88693456         0.00000000       0.00000000       0.00000000          1
H         3.39348285       4.09883604       5.04466204         0.00000000       0.00000000       0.00000000          1
H         4.88786410       5.54766645       8.40268486         0.00000000       0.00000000       0.00000000          1
H         2.31835251       5.26858859       7.34249869         0.00000000       0.00000000       0.00000000          1
6
pbc=[F, F, F] list_num_par=6 frozen=false iter=20000 energy=-1.26974174 Lattice="15.00000000 0.00000000 0.00000000 0.00000000 15.00000000 0.00000000 0.00000000 0.00000000 15.00000000" energy_frozen_part=0.00000000 Properties=species:S:1:pos:R:3:velocities:R:3:Z:I:1
H         4.10764811       2.87575712       7.35845029         0.00000000       0.00000000       0.00000000          1
H         6.08043313       4.38517194       6.08015250         0.00000000       0.00000000       0.00000000          1
H         4.33982630       6.56751549       5.97080338         0.00000000       0.00000000       0.00000000          1
H         3.55939780       4.10384957       4.90987893         0.00000000       0.00000000       0.00000000          1
H         4.88807730       5.33942838       8.41937376         0.00000000       0.00000000       0.00000000          1
H         2.36704059       5.05809582       7.24911059         0.00000000       0.00000000       0.00000000          1
6
pbc=[F, F, F] list_num_par=6 frozen=false iter=20000 energy=-1.26974174 Lattice="15.00000000 0.00000000 0.00000000 0.00000000 15.00000000 0.00000000 0.00000000 0.00000000 15.00000000" energy_frozen_part=0.00000000 Properties=species:S:1:pos:R:3:velocities:R:3:Z:I:1
H         3.99152157       3.03800020       7.56075221         0.00000000       0.00000000       0.00000000          1
H         5.96507366       4.37845594       6.10729476         0.00000000       0.00000000       0.00000000          1
H         4.29223001       6.60521604       5.88948050         0.00000000       0.00000000       0.00000000          1
H         3.39656690       4.09737686       5.04519225         0.00000000       0.00000000       0.00000000          1
H         4.88718377       5.54584292       8.40503885         0.00000000       0.00000000       0.00000000          1
H         2.31868062       5.26475909       7.34294478         0.00000000       0.00000000       0.00000000          1
6
pbc=[F, F, F] list_num_par=6 frozen=false iter=20000 energy=-1.26974174 Lattice="15.00000000 0.00000000 0.00000000 0.00000000 15.00000000 0.00000000 0.00000000 0.00000000 15.00000000" energy_frozen_part=0.00000000 Properties=species:S:1:pos:R:3:velocities:R:3:Z:I:1
H         3.98907066       3.04026392       7.56040479         0.00000000       0.00000000       0.00000000          1
H         5.96299309       4.37790717       6.10485577         0.00000000       0.00000000       0.00000000          1
H         4.29226608       6.60624280       5.88693556         0.00000000       0.00000000       0.00000000          1
H         3.39348114       4.09884428       5.04465787         0.00000000       0.00000000       0.00000000          1
H         4.88785404       5.54766624       8.40268307         0.00000000       0.00000000       0.00000000          1
H         2.31834118       5.26860025       7.34249068         0.00000000       0.00000000       0.00000000          1
6
pbc=[F, F, F] list_num_par=6 frozen=false iter=20000 energy=-1.26974174 Lattice="15.00000000 0.00000000 0.00000000 0.00000000 15.00000000 0.00000000 0.00000000 0.00000000 15.00000000" energy_frozen_part=0.00000000 Properties=species:S:1:pos:R:3:velocities:R:3:Z:I:1
H         3.98923857       3.03997593       7.56020559         0.00000000       0.00000000       0.00000000          1
H         5.96300121       4.37792903       6.10471908         0.00000000       0.00000000       0.00000000          1
H         4.29202191       6.60608963       5.88696563         0.00000000       0.00000000       0.00000000          1
H         3.39351050       4.09864523       5.04453278         0.00000000       0.00000000       0.00000000          1
H         4.88775623       5.54741816       8.40263404         0.00000000       0.00000000       0.00000000          1
H         2.31826537       5.26813110       7.34245151         0.00000000       0.00000000       0.00000000          1
6
pbc=[F, F, F] list_num_par=6 frozen=false iter=20000 energy=-1.26974174 Lattice="15.00000000 0.00000000 0.00000000 0.00000000 15.00000000 0.00000000 0.00000000 0.00000000 15.00000000" energy_frozen_part=0.00000000 Properties=species:S:1:pos:R:3:velocities:R:3:Z:I:1
H         3.98904992       3.04023872       7.56038888         0.00000000       0.00000000       0.00000000          1
H         5.96301161       4.37786043       6.10486451         0.00000000       0.00000000       0.00000000          1
H         4.29230964       6.60621040       5.88692691         0.00000000       0.00000000       0.00000000          1
H         3.39350622       4.09882785       5.04463399         0.00000000       0.00000000       0.00000000          1
H         4.88785440       5.54762453       8.40268292         0.00000000       0.00000000       0.00000000          1
H         2.31835112       5.26859064       7.34245549         0.00000000       0.00000000       0.00000000          1
6
pbc=[F, F, F] list_num_par=6 frozen=false iter=20000 energy=-1.26974174 Lattice="15.00000000 0.00000000 0.00000000 0.00000000 15.00000000 0.00000000 0.00000000 0.00000000 15.00000000" energy_frozen_part=0.00000000 Properties=species:S:1:pos:R:3:velocities:R:3:Z:I:1
H         4.10768428       2.87576039       7.35846027         0.00000000       0.00000000       0.00000000          1
H         6.08045411       4.38521190       6.08017878         0.00000000       0.00000000       0.00000000          1
H         4.33981235       6.56752127       5.97082243         0.00000000       0.00000000       0.00000000          1
H         3.55943662       4.10384450       4.90988266         0.00000000       0.00000000       0.00000000          1
H         4.88805570       5.33943784       8.41939957         0.00000000       0.00000000       0.00000000          1
H         2.36704064       5.05806664       7.24910092         0.00000000       0.00000000       0.00000000          1
6
pbc=[F, F, F] list_num_par=6 frozen=false iter=20000 energy=-1.26974174 Lattice="15.00000000 0.00000000 0.00000000 0.00000000 15.00000000 0.00000000 0.00000000 0.00000000 15.00000000" energy_frozen_part=0.00000000 Properties=species:S:1:pos:R:3:velocities:R:3:Z:I:1
H         3.98905304       3.04025675       7.56036822         0.00000000       0.00000000       0.00000000          1
H         5.96300634       4.37784609       6.10480831         0.00000000       0.00000000       0.00000000          1
H         4.29233913       6.60622653       5.88690303         0.00000000       0.00000000       0.00000000          1
H         3.39347935       4.09885681       5.04462684         0.00000000       0.00000000       0.00000000          1
H         4.88791200       5.54763111       8.40264570         0.00000000       0.00000000       0.00000000          1
H         2.31838615       5.26864173       7.34247052         0.00000000       0.00000000       0.00000000          1
6
pbc=[F, F, F] list_num_par=6 frozen=false iter=20000 energy=-1.26974174 Lattice="15.00000000 0.00000000 0.00000000 0.00000000 15.00000000 0.00000000 0.00000000 0.00000000 15.00000000" energy_frozen_part=0.00000000 Properties=species:S:1:pos:R:3:velocities:R:3:Z:I:1
H         3.99166083       3.03828815       7.56109326         0.00000000       0.00000000       0.00000000          1
H         5.96518751       4.37856031       6.10742548         0.00000000       0.00000000       0.00000000          1
H         4.29226317       6.60520765       5.88917261         0.00000000       0.00000000       0.00000000          1
H         3.39671369       4.09717624       5.04532588         0.00000000       0.00000000       0.00000000          1
H         4.88720464       5.54631872       8.40494262         0.00000000       0.00000000       0.00000000          1
H         2.31873059       5.26493713       7.34284141         0.00000000       0.00000000       0.00000000          1
6
pbc=[F, F, F] list_num_par=6 frozen=false iter=20000 energy=-1.26974174 Lattice="15.00000000 0.00000000 0.00000000 0.00000000 15.00000000 0.00000000 0.00000000 0.00000000 15.00000000" energy_frozen_part=0.00000000 Properties=species:S:1:pos:R:3:velocities:R:3:Z:I:1
H         3.99149614       3.03797665       7.56073847         0.00000000       0.00000000       0.00000000          1
H         5.96507141       4.37841987       6.10729112         0.00000000       0.00000000       0.00000000          1
H         4.29226629       6.60520406       5.88950451         0.00000000       0.00000000       0.00000000          1
H         3.39656152       4.09739016       5.04518716         0.00000000       0.00000000       0.00000000          1
H         4.88720388       5.54579406       8.40505375         0.00000000       0.00000000       0.00000000          1
H         2.31869255       5.26475991       7.34295563         0.00000000       0.00000000       0.00000000          1
6
pbc=[F, F, F] list_num_par=6 frozen=false iter=20000 energy=-1.26974174 Lattice="15.00000000 0.00000000 0.00000000 0.00000000 15.00000000 0.00000000 0.00000000 0.00000000 15.00000000" energy_frozen_part=0.00000000 Properties=species:S:1:pos:R:3:velocities:R:3:Z:I:1
H         3.98920683       3.03997187       7.56017168         0.00000000       0.00000000       0.00000000          1
H         5.96299746       4.37790905       6.10471653         0.00000000       0.00000000       0.00000000          1
H         4.29205542       6.60609750       5.88697208         0.00000000       0.00000000       0.00000000          1
H         3.39350691       4.09867384       5.04450821         0.00000000       0.00000000       0.00000000          1
H         4.88775142       5.54738800       8.40264052         0.00000000       0.00000000       0.00000000          1
H         2.31826380       5.26815785       7.34243154         0.00000000       0.00000000       0.00000000          1
6
pbc=[F, F, F] list_num_par=6 frozen=false iter=20000 energy=-1.26974174 Lattice="15.00000000 0.00000000 0.00000000 0.00000000 15.00000000 0.00000000 0.00000000 0.00000000 15.00000000" energy_frozen_part=0.00000000 Properties=species:S:1:pos:R:3:velocities:R:3:Z:I:1
H         3.99166903       3.03828646       7.56104723         0.00000000       0.00000000       0.00000000          1
H         5.96518855       4.37856739       6.10738984         0.00000000       0.00000000       0.00000000          1
H         4.29226346       6.60522157       5.88916105         0.00000000       0.00000000       0.00000000          1
H         3.39671925       4.09719906       5.04529377         0.00000000       0.00000000       0.00000000          1
H         4.88722190       5.54631116       8.40491549         0.00000000       0.00000000       0.00000000          1
H         2.31874245       5.26493924       7.34282205         0.00000000       0.00000000       0.00000000          1
