6
pbc=[F, F, F] list_num_par=6 frozen=false iter=20000 energy=-1.26974174 Lattice="15.00000000 0.00000000 0.00000000 0.00000000 15.00000000 0.00000000 0.00000000 0.00000000 15.00000000" energy_frozen_part=0.00000000 Properties=species:S:1:pos:R:3:velocities:R:3:Z:I:1
H         8.82963388       7.29128209       2.53034961         0.00000000       0.00000000       0.00000000          1
H         7.54624907       8.16294550       4.85358120         0.00000000       0.00000000       0.00000000          1
H         6.47598253       5.60872098       5.22068708         0.00000000       0.00000000       0.00000000          1
H         7.75936911       4.73705935       2.89744750         0.00000000       0.00000000       0.00000000          1
H         9.23580017       5.93988246       4.94137228         0.00000000       0.00000000       0.00000000          1
H         6.06981386       6.96011324       2.80966459         0.00000000       0.00000000       0.00000000          1
6
pbc=[F, F, F] list_num_par=6 frozen=false iter=20000 energy=-1.26974174 Lattice="15.00000000 0.00000000 0.00000000 0.00000000 15.00000000 0.00000000 0.00000000 0.00000000 15.00000000" energy_frozen_part=0.00000000 Properties=species:S:1:pos:R:3:velocities:R:3:Z:I:1
H         8.82970696       7.29122338       2.53036601         0.00000000       0.00000000       0.00000000          1
H         7.54629495       8.16288165       4.85359059         0.00000000       0.00000000       0.00000000          1
H         6.47594545       5.60868563       5.22061801         0.00000000       0.00000000       0.00000000          1
H         7.75936044       4.73702193       2.89739498         0.00000000       0.00000000       0.00000000          1
H         9.23578104       5.93977634       4.94137767         0.00000000       0.00000000       0.00000000          1
H         6.06987475       6.96013610       2.80960476         0.00000000       0.00000000       0.00000000          1
6
pbc=[F, F, F] list_num_par=6 frozen=false iter=20000 energy=-1.26974174 Lattice="15.00000000 0.00000000 0.00000000 0.00000000 15.00000000 0.00000000 0.00000000 0.00000000 15.00000000" energy_frozen_part=0.00000000 Properties=species:S:1:pos:R:3:velocities:R:3:Z:I:1
H         4.00887723      11.87101633      12.96423665         0.00000000       0.00000000       0.00000000          1
H         6.69520437      12.59153998      12.70194132         0.00000000       0.00000000       0.00000000          1
H         5.90670137       9.95027453      12.24778033         0.00000000       0.00000000       0.00000000          1
H         4.03440837      10.83188795      10.37119836         0.00000000       0.00000000       0.00000000          1
H         6.72072835      11.55241520      10.10890026         0.00000000       0.00000000       0.00000000          1
H         4.82290272      13.47315184      10.82535662         0.00000000       0.00000000       0.00000000          1
6
pbc=[F, F, F] list_num_par=6 frozen=false iter=20000 energy=-1.26974174 Lattice="15.00000000 0.00000000 0.00000000 0.00000000 15.00000000 0.00000000 0.00000000 0.00000000 15.00000000" energy_frozen_part=0.00000000 Properties=species:S:1:pos:R:3:velocities:R:3:Z:I:1
H         8.82960874       7.29132533       2.53033950         0.00000000       0.00000000       0.00000000          1
H         7.54624491       8.16295174       4.85359178         0.00000000       0.00000000       0.00000000          1
H         6.47602233       5.60871060       5.22069102         0.00000000       0.00000000       0.00000000          1
H         7.75938783       4.73708117       2.89743230         0.00000000       0.00000000       0.00000000          1
H         9.23582890       5.93991122       4.94135008         0.00000000       0.00000000       0.00000000          1
H         6.06979627       6.96011656       2.80967974         0.00000000       0.00000000       0.00000000          1
6
pbc=[F, F, F] list_num_par=6 frozen=false iter=20000 energy=-1.26974174 Lattice="15.00000000 0.00000000 0.00000000 0.00000000 15.00000000 0.00000000 0.00000000 0.00000000 15.00000000" energy_frozen_part=0.00000000 Properties=species:S:1:pos:R:3:velocities:R:3:Z:I:1
H         4.00886925      11.87101794      12.96422237         0.00000000       0.00000000       0.00000000          1
H         6.69518691      12.59156875      12.70192913         0.00000000       0.00000000       0.00000000          1
H         5.90671189       9.95028969      12.24777351         0.00000000       0.00000000       0.00000000          1
H         4.03441429      10.83188205      10.37118414         0.00000000       0.00000000       0.00000000          1
H         6.72073068      11.55243344      10.10889860         0.00000000       0.00000000       0.00000000          1
H         4.82288301      13.47316015      10.82534733         0.00000000       0.00000000       0.00000000          1
6
pbc=[F, F, F] list_num_par=6 frozen=false iter=20000 energy=-1.26974174 Lattice="15.00000000 0.00000000 0.00000000 0.00000000 15.00000000 0.00000000 0.00000000 0.00000000 15.00000000" energy_frozen_part=0.00000000 Properties=species:S:1:pos:R:3:velocities:R:3:Z:I:1
H         4.03314369      11.92653062      13.01892345         0.00000000       0.00000000       0.00000000          1
H         6.71936946      12.61301038      12.67653182         0.00000000       0.00000000       0.00000000          1
H         5.89161111       9.97344962      12.28689319         0.00000000       0.00000000       0.00000000          1
H         3.98143131      10.84453972      10.44386833         0.00000000       0.00000000       0.00000000          1
H         6.66765128      11.53101615      10.10148063         0.00000000       0.00000000       0.00000000          1
H         4.80919156      13.48409954      10.83351898         0.00000000       0.00000000       0.00000000          1
6
pbc=[F, F, F] list_num_par=6 frozen=false iter=20000 energy=-1.26974174 Lattice="15.00000000 0.00000000 0.00000000 0.00000000 15.00000000 0.00000000 0.00000000 0.00000000 15.00000000" energy_frozen_part=0.00000000 Properties=species:S:1:pos:R:3:velocities:R:3:Z:I:1
H         4.00887515      11.87101007      12.96423248         0.00000000       0.00000000       0.00000000          1
H         6.69518998      12.59156259      12.70192634         0.00000000       0.00000000       0.00000000          1
H         5.90672091       9.95028837      12.24779919         0.00000000       0.00000000       0.00000000          1
H         4.03441644      10.83185313      10.37120410         0.00000000       0.00000000       0.00000000          1
H         6.72072725      11.55240673      10.10889536         0.00000000       0.00000000       0.00000000          1
H         4.82288469      13.47313166      10.82533862         0.00000000       0.00000000       0.00000000          1
6
pbc=[F, F, F] list_num_par=6 frozen=false iter=20000 energy=-1.26974174 Lattice="15.00000000 0.00000000 0.00000000 0.00000000 15.00000000 0.00000000 0.00000000 0.00000000 15.00000000" energy_frozen_part=0.00000000 Properties=species:S:1:pos:R:3:velocities:R:3:Z:I:1
H         4.03019739      11.93131993      13.02100521         0.00000000       0.00000000       0.00000000          1
H         6.71724489      12.61426984      12.67798359         0.00000000       0.00000000       0.00000000          1
H         5.88745249       9.97407897      12.29705544         0.00000000       0.00000000       0.00000000          1
H         3.97924984      10.84034477      10.44972745         0.00000000       0.00000000       0.00000000          1
H         6.66629506      11.52329762      10.10671043         0.00000000       0.00000000       0.00000000          1
H         4.80903634      13.48054021      10.83065437         0.00000000       0.00000000       0.00000000          1
6
pbc=[F, F, F] list_num_par=6 frozen=false iter=20000 energy=-1.26974174 Lattice="15.00000000 0.00000000 0.00000000 0.00000000 15.00000000 0.00000000 0.00000000 0.00000000 15.00000000" energy_frozen_part=0.00000000 Properties=species:S:1:pos:R:3:velocities:R:3:Z:I:1
H         8.82962170       7.29127767       2.53033533         0.00000000       0.00000000       0.00000000          1
H         7.54626364       8.16294546       4.85358626         0.00000000       0.00000000       0.00000000          1
H         6.47599493       5.60873278       5.22070230         0.00000000       0.00000000       0.00000000          1
H         7.75935356       4.73705991       2.89745582         0.00000000       0.00000000       0.00000000          1
H         9.23581301       5.93988691       4.94136029         0.00000000       0.00000000       0.00000000          1
H         6.06980009       6.96012203       2.80967963         0.00000000       0.00000000       0.00000000          1
6
pbc=[F, F, F] list_num_par=6 frozen=false iter=20000 energy=-1.26974174 Lattice="15.00000000 0.00000000 0.00000000 0.00000000 15.00000000 0.00000000 0.00000000 0.00000000 15.00000000" energy_frozen_part=0.00000000 Properties=species:S:1:pos:R:3:velocities:R:3:Z:I:1
H         4.02998606      11.93168407      13.02059196         0.00000000       0.00000000       0.00000000          1
H         6.71720532      12.61414164      12.67796588         0.00000000       0.00000000       0.00000000          1
H         5.88701212       9.97406484      12.29710599         0.00000000       0.00000000       0.00000000          1
H         3.97926262      10.84052148      10.44939349         0.00000000       0.00000000       0.00000000          1
H         6.66647700      11.52297455      10.10676441         0.00000000       0.00000000       0.00000000          1
H         4.80945250      13.48059929      10.83025298         0.00000000       0.00000000       0.00000000          1
6
pbc=[F, F, F] list_num_par=6 frozen=false iter=20000 energy=-1.26974174 Lattice="15.00000000 0.00000000 0.00000000 0.00000000 15.00000000 0.00000000 0.00000000 0.00000000 15.00000000" energy_frozen_part=0.00000000 Properties=species:S:1:pos:R:3:velocities:R:3:Z:I:1
H         8.82963684       7.29127141       2.53034761         0.00000000       0.00000000       0.00000000          1
H         7.54624853       8.16295382       4.85357051         0.00000000       0.00000000       0.00000000          1
H         6.47598779       5.60872815       5.22068790         0.00000000       0.00000000       0.00000000          1
H         7.75936586       4.73705397       2.89745655         0.00000000       0.00000000       0.00000000          1
H         9.23580062       5.93989089       4.94137645         0.00000000       0.00000000       0.00000000          1
H         6.06981273       6.96011125       2.80965678         0.00000000       0.00000000       0.00000000          1
6
pbc=[F, F, F] list_num_par=6 frozen=false iter=20000 energy=-1.26974174 Lattice="15.00000000 0.00000000 0.00000000 0.00000000 15.00000000 0.00000000 0.00000000 0.00000000 15.00000000" energy_frozen_part=0.00000000 Properties=species:S:1:pos:R:3:velocities:R:3:Z:I:1
H         4.03018716      11.93137840      13.02097496         0.00000000       0.00000000       0.00000000          1
H         6.71723623      12.61431058      12.67796863         0.00000000       0.00000000       0.00000000          1
H         5.88743715       9.97412143      12.29706652         0.00000000       0.00000000       0.00000000          1
H         3.97924411      10.84037436      10.44971414         0.00000000       0.00000000       0.00000000          1
H         6.66629415      11.52330431      10.10670338         0.00000000       0.00000000       0.00000000          1
H         4.80905539      13.48057087      10.83061646         0.00000000       0.00000000       0.00000000          1
6
pbc=[F, F, F] list_num_par=6 frozen=false iter=20000 energy=-1.26974174 Lattice="15.00000000 0.00000000 0.00000000 0.00000000 15.00000000 0.00000000 0.00000000 0.00000000 15.00000000" energy_frozen_part=0.00000000 Properties=species:S:1:pos:R:3:velocities:R:3:Z:I:1
H         4.00887314      11.87101121      12.96423214         0.00000000       0.00000000       0.00000000          1
H         6.69518914      12.59154435      12.70192143         0.00000000       0.00000000       0.00000000          1
H         5.90670204       9.95027266      12.24778350         0.00000000       0.00000000       0.00000000          1
H         4.03439559      10.83186512      10.37119975         0.00000000       0.00000000       0.00000000          1
H         6.72071667      11.55239925      10.10889303         0.00000000       0.00000000       0.00000000          1
H         4.82289484      13.47313820      10.82534002         0.00000000       0.00000000       0.00000000          1
6
pbc=[F, F, F] list_num_par=6 frozen=false iter=20000 energy=-1.26974174 Lattice="15.00000000 0.00000000 0.00000000 0.00000000 15.00000000 0.00000000 0.00000000 0.00000000 15.00000000" energy_frozen_part=0.00000000 Properties=species:S:1:pos:R:3:velocities:R:3:Z:I:1
H         8.82965562       7.29131321       2.53038746         0.00000000       0.00000000       0.00000000          1
H         7.54618678       8.16293377       4.85359192         0.00000000       0.00000000       0.00000000          1
H         6.47590554       5.60869808       5.22060122         0.00000000       0.00000000       0.00000000          1
H         7.75937668       4.73707972       2.89740030         0.00000000       0.00000000       0.00000000          1
H         9.23572913       5.93986898       4.94140386         0.00000000       0.00000000       0.00000000          1
H         6.06982687       6.96014191       2.80959134         0.00000000       0.00000000       0.00000000          1
6
pbc=[F, F, F] list_num_par=6 frozen=false iter=20000 energy=-1.26974174 Lattice="15.00000000 0.00000000 0.00000000 0.00000000 15.00000000 0.00000000 0.00000000 0.00000000 15.00000000" energy_frozen_part=0.00000000 Properties=species:S:1:pos:R:3:velocities:R:3:Z:I:1
H         8.82965184       7.29125843       2.53032705         0.00000000       0.00000000       0.00000000          1
H         7.54627250       8.16294727       4.85354983         0.00000000       0.00000000       0.00000000          1
H         6.47598675       5.60873828       5.22068130         0.00000000       0.00000000       0.00000000          1
H         7.75935819       4.73704476       2.89745424         0.00000000       0.00000000       0.00000000          1
H         9.23580998       5.93987880       4.94136453         0.00000000       0.00000000       0.00000000          1
H         6.06982671       6.96011506       2.80964217         0.00000000       0.00000000       0.00000000          1
6
pbc=[F, F, F] list_num_par=6 frozen=false iter=20000 energy=-1.26974174 Lattice="15.00000000 0.00000000 0.00000000 0.00000000 15.00000000 0.00000000 0.00000000 0.00000000 15.00000000" energy_frozen_part=0.00000000 Properties=species:S:1:pos:R:3:velocities:R:3:Z:I:1
H         8.82963836       7.29125161       2.53033240         0.00000000       0.00000000       0.00000000          1
H         7.54625095       8.16294780       4.85355169         0.00000000       0.00000000       0.00000000          1
H         6.47596553       5.60873705       5.22067530         0.00000000       0.00000000       0.00000000          1
H         7.75936043       4.73703808       2.89745297         0.00000000       0.00000000       0.00000000          1
H         9.23579157       5.93987777       4.94137696         0.00000000       0.00000000       0.00000000          1
H         6.06981612       6.96010612       2.80963428         0.00000000       0.00000000       0.00000000          1
6
pbc=[F, F, F] list_num_par=6 frozen=false iter=20000 energy=-1.26974174 Lattice="15.00000000 0.00000000 0.00000000 0.00000000 15.00000000 0.00000000 0.00000000 0.00000000 15.00000000" energy_frozen_part=0.00000000 Properties=species:S:1:pos:R:3:velocities:R:3:Z:I:1
H         8.82969258       7.29123983       2.53036609         0.00000000       0.00000000       0.00000000          1
H         7.54627930       8.16288645       4.85359028         0.00000000       0.00000000       0.00000000          1
H         6.47595369       5.60867952       5.22062270         0.00000000       0.00000000       0.00000000          1
H         7.75936823       4.73703624       2.89740022         0.00000000       0.00000000       0.00000000          1
H         9.23578270       5.93979968       4.94138022         0.00000000       0.00000000       0.00000000          1
H         6.06986431       6.96012704       2.80961430         0.00000000       0.00000000       0.00000000          1
6
pbc=[F, F, F] list_num_par=6 frozen=false iter=20000 energy=-1.26974174 Lattice="15.00000000 0.00000000 0.00000000 0.00000000 15.00000000 0.00000000 0.00000000 0.00000000 15.00000000" energy_frozen_part=0.00000000 Properties=species:S:1:pos:R:3:velocities:R:3:Z:I:1
H         4.03316654      11.92632293      13.01871177         0.00000000       0.00000000       0.00000000          1
H         6.71934786      12.61295939      12.67633624         0.00000000       0.00000000       0.00000000          1
H         5.89170360       9.97339982      12.28643786         0.00000000       0.00000000       0.00000000          1
H         3.98145198      10.84458799      10.44355162         0.00000000       0.00000000       0.00000000          1
H         6.66762970      11.53122759      10.10116941         0.00000000       0.00000000       0.00000000          1
H         4.80909403      13.48414774      10.83344102         0.00000000       0.00000000       0.00000000          1
6
pbc=[F, F, F] list_num_par=6 frozen=false iter=20000 energy=-1.26974174 Lattice="15.00000000 0.00000000 0.00000000 0.00000000 15.00000000 0.00000000 0.00000000 0.00000000 15.00000000" energy_frozen_part=0.00000000 Properties=species:S:1:pos:R:3:velocities:R:3:Z:I:1
H         4.03315969      11.92632405      13.01870404         0.00000000       0.00000000       0.00000000          1
H         6.71934292      12.61296794      12.67635016         0.00000000       0.00000000       0.00000000          1
H         5.89170695       9.97340491      12.28646692         0.00000000       0.00000000       0.00000000          1
H         3.98147143      10.84456961      10.44354289         0.00000000       0.00000000       0.00000000          1
H         6.66765904      11.53121492      10.10119594         0.00000000       0.00000000       0.00000000          1
H         4.80910281      13.48412990      10.83342730         0.00000000       0.00000000       0.00000000          1
6
pbc=[F, F, F] list_num_par=6 frozen=false iter=20000 energy=-1.26974174 Lattice="15.00000000 0.00000000 0.00000000 0.00000000 15.00000000 0.00000000 0.00000000 0.00000000 15.00000000" energy_frozen_part=0.00000000 Properties=species:S:1:pos:R:3:velocities:R:3:Z:I:1
H         8.82965740       7.29131000       2.53039025         0.00000000       0.00000000       0.00000000          1
H         7.54618086       8.16293488       4.85358581         0.00000000       0.00000000       0.00000000          1
H         6.47589598       5.60870202       5.22060634         0.00000000       0.00000000       0.00000000          1
H         7.75937196       4.73708352       2.89740663         0.00000000       0.00000000       0.00000000          1
H         9.23572588       5.93987069       4.94140907         0.00000000       0.00000000       0.00000000          1
H         6.06982519       6.96014538       2.80959032         0.00000000       0.00000000       0.00000000          1
6
pbc=[F, F, F] list_num_par=6 frozen=false iter=20000 energy=-1.26974174 Lattice="15.00000000 0.00000000 0.00000000 0.00000000 15.00000000 0.00000000 0.00000000 0.00000000 15.00000000" energy_frozen_part=0.00000000 Properties=species:S:1:pos:R:3:velocities:R:3:Z:I:1
H         4.00888289      11.87100728      12.96423882         0.00000000       0.00000000       0.00000000          1
H         6.69519324      12.59155963      12.70191914         0.00000000       0.00000000       0.00000000          1
H         5.90672255       9.95027716      12.24778895         0.00000000       0.00000000       0.00000000          1
H         4.03440665      10.83184867      10.37120684         0.00000000       0.00000000       0.00000000          1
H         6.72072028      11.55240448      10.10889040         0.00000000       0.00000000       0.00000000          1
H         4.82288086      13.47312489      10.82533776         0.00000000       0.00000000       0.00000000          1
6
pbc=[F, F, F] list_num_par=6 frozen=false iter=20000 energy=-1.26974174 Lattice="15.00000000 0.00000000 0.00000000 0.00000000 15.00000000 0.00000000 0.00000000 0.00000000 15.00000000" energy_frozen_part=0.00000000 Properties=species:S:1:pos:R:3:velocities:R:3:Z:I:1
H         4.00887397      11.87101085      12.96422103         0.00000000       0.00000000       0.00000000          1
H         6.69519286      12.59156226      12.70195009         0.00000000       0.00000000       0.00000000          1
H         5.90671483       9.95028213      12.24778110         0.00000000       0.00000000       0.00000000          1
H         4.03443424      10.83188952      10.37118072         0.00000000       0.00000000       0.00000000          1
H         6.72075227      11.55243285      10.10891405         0.00000000       0.00000000       0.00000000          1
H         4.82290644      13.47315928      10.82535718         0.00000000       0.00000000       0.00000000          1
6
pbc=[F, F, F] list_num_par=6 frozen=false iter=20000 energy=-1.26974174 Lattice="15.00000000 0.00000000 0.00000000 0.00000000 15.00000000 0.00000000 0.00000000 0.00000000 15.00000000" energy_frozen_part=0.00000000 Properties=species:S:1:pos:R:3:velocities:R:3:Z:I:1
H         8.82961917       7.29128027       2.53033914         0.00000000       0.00000000       0.00000000          1
H         7.54625999       8.16294957       4.85358044         0.00000000       0.00000000       0.00000000          1
H         6.47599340       5.60872403       5.22069725         0.00000000       0.00000000       0.00000000          1
H         7.75935740       4.73705495       2.89745146         0.00000000       0.00000000       0.00000000          1
H         9.23580728       5.93988729       4.94136250         0.00000000       0.00000000       0.00000000          1
H         6.06979933       6.96011420       2.80967873         0.00000000       0.00000000       0.00000000          1
6
pbc=[F, F, F] list_num_par=6 frozen=false iter=20000 energy=-1.26974174 Lattice="15.00000000 0.00000000 0.00000000 0.00000000 15.00000000 0.00000000 0.00000000 0.00000000 15.00000000" energy_frozen_part=0.00000000 Properties=species:S:1:pos:R:3:velocities:R:3:Z:I:1
H         8.82964538       7.29125008       2.53033497         0.00000000       0.00000000       0.00000000          1
H         7.54625221       8.16294592       4.85355794         0.00000000       0.00000000       0.00000000          1
H         6.47596781       5.60873203       5.22067558         0.00000000       0.00000000       0.00000000          1
H         7.75936087       4.73703442       2.89746181         0.00000000       0.00000000       0.00000000          1
H         9.23579090       5.93987931       4.94137387         0.00000000       0.00000000       0.00000000          1
H         6.06982340       6.96010200       2.80963654         0.00000000       0.00000000       0.00000000          1
6
pbc=[F, F, F] list_num_par=6 frozen=false iter=20000 energy=-1.26974174 Lattice="15.00000000 0.00000000 0.00000000 0.00000000 15.00000000 0.00000000 0.00000000 0.00000000 15.00000000" energy_frozen_part=0.00000000 Properties=species:S:1:pos:R:3:velocities:R:3:Z:I:1
H         4.03018391      11.93135528      13.02097632         0.00000000       0.00000000       0.00000000          1
H         6.71723529      12.61428389      12.67797385         0.00000000       0.00000000       0.00000000          1
H         5.88742766       9.97409400      12.29704594         0.00000000       0.00000000       0.00000000          1
H         3.97924230      10.84037647      10.44970978         0.00000000       0.00000000       0.00000000          1
H         6.66629279      11.52329885      10.10669977         0.00000000       0.00000000       0.00000000          1
H         4.80905143      13.48056391      10.83063081         0.00000000       0.00000000       0.00000000          1
6
pbc=[F, F, F] list_num_par=6 frozen=false iter=20000 energy=-1.26974174 Lattice="15.00000000 0.00000000 0.00000000 0.00000000 15.00000000 0.00000000 0.00000000 0.00000000 15.00000000" energy_frozen_part=0.00000000 Properties=species:S:1:pos:R:3:velocities:R:3:Z:I:1
H         4.03019786      11.93137980      13.02098336         0.00000000       0.00000000       0.00000000          1
H         6.71725374      12.61428321      12.67796795         0.00000000       0.00000000       0.00000000          1
H         5.88741544       9.97410204      12.29704752         0.00000000       0.00000000       0.00000000          1
H         3.97922855      10.84038978      10.44971613         0.00000000       0.00000000       0.00000000          1
H         6.66628498      11.52330257      10.10669392         0.00000000       0.00000000       0.00000000          1
H         4.80905970      13.48057119      10.83063346         0.00000000       0.00000000       0.00000000          1
6
pbc=[F, F, F] list_num_par=6 frozen=false iter=20000 energy=-1.26974174 Lattice="15.00000000 0.00000000 0.00000000 0.00000000 15.00000000 0.00000000 0.00000000 0.00000000 15.00000000" energy_frozen_part=0.00000000 Properties=species:S:1:pos:R:3:velocities:R:3:Z:I:1
H         8.82962406       7.29127805       2.53033568         0.00000000       0.00000000       0.00000000          1
H         7.54625448       8.16294535       4.85357826         0.00000000       0.00000000       0.00000000          1
H         6.47600625       5.60871885       5.22070491         0.00000000       0.00000000       0.00000000          1
H         7.75937671       4.73705559       2.89746421         0.00000000       0.00000000       0.00000000          1
H         9.23582036       5.93990136       4.94136909         0.00000000       0.00000000       0.00000000          1
H         6.06980411       6.96010265       2.80967998         0.00000000       0.00000000       0.00000000          1
6
pbc=[F, F, F] list_num_par=6 frozen=false iter=20000 energy=-1.26974174 Lattice="15.00000000 0.00000000 0.00000000 0.00000000 15.00000000 0.00000000 0.00000000 0.00000000 15.00000000" energy_frozen_part=0.00000000 Properties=species:S:1:pos:R:3:velocities:R:3:Z:I:1
H         4.02997711      11.93168903      13.02059240         0.00000000       0.00000000       0.00000000          1
H         6.71719740      12.61414271      12.67795782         0.00000000       0.00000000       0.00000000          1
H         5.88700953       9.97406880      12.29709743         0.00000000       0.00000000       0.00000000          1
H         3.97926312      10.84052485      10.44938914         0.00000000       0.00000000       0.00000000          1
H         6.66647945      11.52298580      10.10676194         0.00000000       0.00000000       0.00000000          1
H         4.80944653      13.48060256      10.83025447         0.00000000       0.00000000       0.00000000          1
6
pbc=[F, F, F] list_num_par=6 frozen=false iter=20000 energy=-1.26974174 Lattice="15.00000000 0.00000000 0.00000000 0.00000000 15.00000000 0.00000000 0.00000000 0.00000000 15.00000000" energy_frozen_part=0.00000000 Properties=species:S:1:pos:R:3:velocities:R:3:Z:I:1
H         4.00888207      11.87100911      12.96422762         0.00000000       0.00000000       0.00000000          1
H         6.69519780      12.59154841      12.70193832         0.00000000       0.00000000       0.00000000          1
H         5.90671182       9.95027179      12.24777108         0.00000000       0.00000000       0.00000000          1
H         4.03441360      10.83187716      10.37118781         0.00000000       0.00000000       0.00000000          1
H         6.72073360      11.55241476      10.10890034         0.00000000       0.00000000       0.00000000          1
H         4.82290156      13.47314663      10.82534933         0.00000000       0.00000000       0.00000000          1
6
pbc=[F, F, F] list_num_par=6 frozen=false iter=20000 energy=-1.26974174 Lattice="15.00000000 0.00000000 0.00000000 0.00000000 15.00000000 0.00000000 0.00000000 0.00000000 15.00000000" energy_frozen_part=0.00000000 Properties=species:S:1:pos:R:3:velocities:R:3:Z:I:1
H         8.82963677       7.29127586       2.53035616         0.00000000       0.00000000       0.00000000          1
H         7.54624482       8.16294285       4.85358528         0.00000000       0.00000000       0.00000000          1
H         6.47597275       5.60872126       5.22068053         0.00000000       0.00000000       0.00000000          1
H         7.75935988       4.73705687       2.89744493         0.00000000       0.00000000       0.00000000          1
H         9.23579654       5.93987955       4.94137960         0.00000000       0.00000000       0.00000000          1
H         6.06981333       6.96011553       2.80965419         0.00000000       0.00000000       0.00000000          1
6
pbc=[F, F, F] list_num_par=6 frozen=false iter=20000 energy=-1.26974174 Lattice="15.00000000 0.00000000 0.00000000 0.00000000 15.00000000 0.00000000 0.00000000 0.00000000 15.00000000" energy_frozen_part=0.00000000 Properties=species:S:1:pos:R:3:velocities:R:3:Z:I:1
H         8.82960859       7.29127898       2.53033710         0.00000000       0.00000000       0.00000000          1
H         7.54624881       8.16294914       4.85358865         0.00000000       0.00000000       0.00000000          1
H         6.47599365       5.60872127       5.22070099         0.00000000       0.00000000       0.00000000          1
H         7.75935325       4.73705977       2.89745539         0.00000000       0.00000000       0.00000000          1
H         9.23581156       5.93989415       4.94136346         0.00000000       0.00000000       0.00000000          1
H         6.06979232       6.96011327       2.80967964         0.00000000       0.00000000       0.00000000          1
6
pbc=[F, F, F] list_num_par=6 frozen=false iter=20000 energy=-1.26974174 Lattice="15.00000000 0.00000000 0.00000000 0.00000000 15.00000000 0.00000000 0.00000000 0.00000000 15.00000000" energy_frozen_part=0.00000000 Properties=species:S:1:pos:R:3:velocities:R:3:Z:I:1
H         4.00887140      11.87100528      12.96422378         0.00000000       0.00000000       0.00000000          1
H         6.69518771      12.59155882      12.70193099         0.00000000       0.00000000       0.00000000          1
H         5.90671171       9.95028051      12.24778578         0.00000000       0.00000000       0.00000000          1
H         4.03440699      10.83185624      10.37119566         0.00000000       0.00000000       0.00000000          1
H         6.72072013      11.55241161      10.10889981         0.00000000       0.00000000       0.00000000          1
H         4.82288572      13.47313756      10.82533659         0.00000000       0.00000000       0.00000000          1
6
pbc=[F, F, F] list_num_par=6 frozen=false iter=20000 energy=-1.26974174 Lattice="15.00000000 0.00000000 0.00000000 0.00000000 15.00000000 0.00000000 0.00000000 0.00000000 15.00000000" energy_frozen_part=0.00000000 Properties=species:S:1:pos:R:3:velocities:R:3:Z:I:1
H         4.03315242      11.92632400      13.01870858         0.00000000       0.00000000       0.00000000          1
H         6.71933708      12.61297089      12.67633764         0.00000000       0.00000000       0.00000000          1
H         5.89170093       9.97341062      12.28644024         0.00000000       0.00000000       0.00000000          1
H         3.98144436      10.84458509      10.44354535         0.00000000       0.00000000       0.00000000          1
H         6.66763202      11.53123032      10.10117761         0.00000000       0.00000000       0.00000000          1
H         4.80908429      13.48414977      10.83343834         0.00000000       0.00000000       0.00000000          1
6
pbc=[F, F, F] list_num_par=6 frozen=false iter=20000 energy=-1.26974174 Lattice="15.00000000 0.00000000 0.00000000 0.00000000 15.00000000 0.00000000 0.00000000 0.00000000 15.00000000" energy_frozen_part=0.00000000 Properties=species:S:1:pos:R:3:velocities:R:3:Z:I:1
H         8.82965562       7.29125134       2.53033678         0.00000000       0.00000000       0.00000000          1
H         7.54623903       8.16296661       4.85353536         0.00000000       0.00000000       0.00000000          1
H         6.47595323       5.60875329       5.22066242         0.00000000       0.00000000       0.00000000          1
H         7.75937348       4.73703538       2.89746610         0.00000000       0.00000000       0.00000000          1
H         9.23577590       5.93990282       4.94138975         0.00000000       0.00000000       0.00000000          1
H         6.06983452       6.96010355       2.80960619         0.00000000       0.00000000       0.00000000          1
6
pbc=[F, F, F] list_num_par=6 frozen=false iter=20000 energy=-1.26974174 Lattice="15.00000000 0.00000000 0.00000000 0.00000000 15.00000000 0.00000000 0.00000000 0.00000000 15.00000000" energy_frozen_part=0.00000000 Properties=species:S:1:pos:R:3:velocities:R:3:Z:I:1
H         4.00887460      11.87100436      12.96423676         0.00000000       0.00000000       0.00000000          1
H         6.69518452      12.59156252      12.70192696         0.00000000       0.00000000       0.00000000          1
H         5.90672599       9.95027926      12.24779745         0.00000000       0.00000000       0.00000000          1
H         4.03441124      10.83184628      10.37121364         0.00000000       0.00000000       0.00000000          1
H         6.72072326      11.55240371      10.10889618         0.00000000       0.00000000       0.00000000          1
H         4.82288287      13.47313113      10.82533733         0.00000000       0.00000000       0.00000000          1
6
pbc=[F, F, F] list_num_par=6 frozen=false iter=20000 energy=-1.26974174 Lattice="15.00000000 0.00000000 0.00000000 0.00000000 15.00000000 0.00000000 0.00000000 0.00000000 15.00000000" energy_frozen_part=0.00000000 Properties=species:S:1:pos:R:3:velocities:R:3:Z:I:1
H         4.03318773      11.92631540      13.01872048         0.00000000       0.00000000       0.00000000          1
H         6.71935525      12.61300092      12.67633603         0.00000000       0.00000000       0.00000000          1
H         5.89174848       9.97343062      12.28642356         0.00000000       0.00000000       0.00000000          1
H         3.98147417      10.84460138      10.44354954         0.00000000       0.00000000       0.00000000          1
H         6.66764964      11.53128747      10.10116840         0.00000000       0.00000000       0.00000000          1
H         4.80907466      13.48417306      10.83346017         0.00000000       0.00000000       0.00000000          1
6
pbc=[F, F, F] list_num_par=6 frozen=false iter=20000 energy=-1.26974174 Lattice="15.00000000 0.00000000 0.00000000 0.00000000 15.00000000 0.00000000 0.00000000 0.00000000 15.00000000" energy_frozen_part=0.00000000 Properties=species:S:1:pos:R:3:velocities:R:3:Z:I:1
H         4.03314524      11.92650644      13.01893740         0.00000000       0.00000000       0.00000000          1
H         6.71936192      12.61300883      12.67652897         0.00000000       0.00000000       0.00000000          1
H         5.89162062       9.97344722      12.28689151         0.00000000       0.00000000       0.00000000          1
H         3.98142504      10.84451657      10.44387916         0.00000000       0.00000000       0.00000000          1
H         6.66764464      11.53101724      10.10147749         0.00000000       0.00000000       0.00000000          1
H         4.80916786      13.48408418      10.83352691         0.00000000       0.00000000       0.00000000          1
6
pbc=[F, F, F] list_num_par=6 frozen=false iter=20000 energy=-1.26974174 Lattice="15.00000000 0.00000000 0.00000000 0.00000000 15.00000000 0.00000000 0.00000000 0.00000000 15.00000000" energy_frozen_part=0.00000000 Properties=species:S:1:pos:R:3:velocities:R:3:Z:I:1
H         4.03020866      11.93136626      13.02098560         0.00000000       0.00000000       0.00000000          1
H         6.71725829      12.61428124      12.67796838         0.00000000       0.00000000       0.00000000          1
H         5.88743503       9.97409826      12.29704656         0.00000000       0.00000000       0.00000000          1
H         3.97923946      10.84038468      10.44971318         0.00000000       0.00000000       0.00000000          1
H         6.66628845      11.52329835      10.10669368         0.00000000       0.00000000       0.00000000          1
H         4.80906449      13.48056453      10.83063096         0.00000000       0.00000000       0.00000000          1
6
pbc=[F, F, F] list_num_par=6 frozen=false iter=20000 energy=-1.26974174 Lattice="15.00000000 0.00000000 0.00000000 0.00000000 15.00000000 0.00000000 0.00000000 0.00000000 15.00000000" energy_frozen_part=0.00000000 Properties=species:S:1:pos:R:3:velocities:R:3:Z:I:1
H         8.82962509       7.29127988       2.53034082         0.00000000       0.00000000       0.00000000          1
H         7.54626059       8.16294756       4.85357676         0.00000000       0.00000000       0.00000000          1
H         6.47599915       5.60872296       5.22069490         0.00000000       0.00000000       0.00000000          1
H         7.75936933       4.73705520       2.89746053         0.00000000       0.00000000       0.00000000          1
H         9.23581876       5.93989207       4.94136958         0.00000000       0.00000000       0.00000000          1
H         6.06980615       6.96010798       2.80967317         0.00000000       0.00000000       0.00000000          1
6
pbc=[F, F, F] list_num_par=6 frozen=false iter=20000 energy=-1.26974174 Lattice="15.00000000 0.00000000 0.00000000 0.00000000 15.00000000 0.00000000 0.00000000 0.00000000 15.00000000" energy_frozen_part=0.00000000 Properties=species:S:1:pos:R:3:velocities:R:3:Z:I:1
H         8.82961707       7.29128526       2.53033748         0.00000000       0.00000000       0.00000000          1
H         7.54626490       8.16294629       4.85358514         0.00000000       0.00000000       0.00000000          1
H         6.47599368       5.60872764       5.22069947         0.00000000       0.00000000       0.00000000          1
H         7.75935663       4.73705784       2.89745395         0.00000000       0.00000000       0.00000000          1
H         9.23581066       5.93988684       4.94136014         0.00000000       0.00000000       0.00000000          1
H         6.06980589       6.96011605       2.80967751         0.00000000       0.00000000       0.00000000          1
6
pbc=[F, F, F] list_num_par=6 frozen=false iter=20000 energy=-1.26974174 Lattice="15.00000000 0.00000000 0.00000000 0.00000000 15.00000000 0.00000000 0.00000000 0.00000000 15.00000000" energy_frozen_part=0.00000000 Properties=species:S:1:pos:R:3:velocities:R:3:Z:I:1
H         4.03020324      11.93131928      13.02100591         0.00000000       0.00000000       0.00000000          1
H         6.71724073      12.61426716      12.67797918         0.00000000       0.00000000       0.00000000          1
H         5.88744774       9.97407069      12.29704848         0.00000000       0.00000000       0.00000000          1
H         3.97924418      10.84034349      10.44972653         0.00000000       0.00000000       0.00000000          1
H         6.66628635      11.52328966      10.10670337         0.00000000       0.00000000       0.00000000          1
H         4.80903417      13.48053725      10.83065055         0.00000000       0.00000000       0.00000000          1
6
pbc=[F, F, F] list_num_par=6 frozen=false iter=20000 energy=-1.26974174 Lattice="15.00000000 0.00000000 0.00000000 0.00000000 15.00000000 0.00000000 0.00000000 0.00000000 15.00000000" energy_frozen_part=0.00000000 Properties=species:S:1:pos:R:3:velocities:R:3:Z:I:1
H         4.03315330      11.92632215      13.01871649         0.00000000       0.00000000       0.00000000          1
H         6.71933926      12.61297024      12.67633155         0.00000000       0.00000000       0.00000000          1
H         5.89169995       9.97341279      12.28643926         0.00000000       0.00000000       0.00000000          1
H         3.98144260      10.84459101      10.44354861         0.00000000       0.00000000       0.00000000          1
H         6.66762547      11.53123755      10.10116540         0.00000000       0.00000000       0.00000000          1
H         4.80907897      13.48415130      10.83344184         0.00000000       0.00000000       0.00000000          1
6
pbc=[F, F, F] list_num_par=6 frozen=false iter=20000 energy=-1.26974174 Lattice="15.00000000 0.00000000 0.00000000 0.00000000 15.00000000 0.00000000 0.00000000 0.00000000 15.00000000" energy_frozen_part=0.00000000 Properties=species:S:1:pos:R:3:velocities:R:3:Z:I:1
H         8.82964738       7.29125600       2.53032616         0.00000000       0.00000000       0.00000000          1
H         7.54627312       8.16294376       4.85355803         0.00000000       0.00000000       0.00000000          1
H         6.47598329       5.60873738       5.22067946         0.00000000       0.00000000       0.00000000          1
H         7.75936138       4.73704373       2.89745291         0.00000000       0.00000000       0.00000000          1
H         9.23581002       5.93987288       4.94136056         0.00000000       0.00000000       0.00000000          1
H         6.06982602       6.96011326       2.80964720         0.00000000       0.00000000       0.00000000          1
6
pbc=[F, F, F] list_num_par=6 frozen=false iter=20000 energy=-1.26974174 Lattice="15.00000000 0.00000000 0.00000000 0.00000000 15.00000000 0.00000000 0.00000000 0.00000000 15.00000000" energy_frozen_part=0.00000000 Properties=species:S:1:pos:R:3:velocities:R:3:Z:I:1
H         4.03314707      11.92653124      13.01892641         0.00000000       0.00000000       0.00000000          1
H         6.71937049      12.61301484      12.67652942         0.00000000       0.00000000       0.00000000          1
H         5.89161856       9.97345444      12.28689242         0.00000000       0.00000000       0.00000000          1
H         3.98143245      10.84453711      10.44387430         0.00000000       0.00000000       0.00000000          1
H         6.66765993      11.53101910      10.10147611         0.00000000       0.00000000       0.00000000          1
H         4.80919574      13.48409916      10.83351022         0.00000000       0.00000000       0.00000000          1
6
pbc=[F, F, F] list_num_par=6 frozen=false iter=20000 energy=-1.26974174 Lattice="15.00000000 0.00000000 0.00000000 0.00000000 15.00000000 0.00000000 0.00000000 0.00000000 15.00000000" energy_frozen_part=0.00000000 Properties=species:S:1:pos:R:3:velocities:R:3:Z:I:1
H         4.03019399      11.93136645      13.02098753         0.00000000       0.00000000       0.00000000          1
H         6.71724264      12.61429283      12.67798356         0.00000000       0.00000000       0.00000000          1
H         5.88742970       9.97410637      12.29705728         0.00000000       0.00000000       0.00000000          1
H         3.97924340      10.84039096      10.44971379         0.00000000       0.00000000       0.00000000          1
H         6.66629315      11.52331064      10.10671480         0.00000000       0.00000000       0.00000000          1
H         4.80905315      13.48057532      10.83064434         0.00000000       0.00000000       0.00000000          1
6
pbc=[F, F, F] list_num_par=6 frozen=false iter=20000 energy=-1.26974174 Lattice="15.00000000 0.00000000 0.00000000 0.00000000 15.00000000 0.00000000 0.00000000 0.00000000 15.00000000" energy_frozen_part=0.00000000 Properties=species:S:1:pos:R:3:velocities:R:3:Z:I:1
H         4.03020534      11.93136651      13.02098951         0.00000000       0.00000000       0.00000000          1
H         6.71725534      12.61427456      12.67796574         0.00000000       0.00000000       0.00000000          1
H         5.88742636       9.97409115      12.29703664         0.00000000       0.00000000       0.00000000          1
H         3.97923320      10.84038563      10.44971345         0.00000000       0.00000000       0.00000000          1
H         6.66629023      11.52329410      10.10669283         0.00000000       0.00000000       0.00000000          1
H         4.80906451      13.48056701      10.83063095         0.00000000       0.00000000       0.00000000          1
6
pbc=[F, F, F] list_num_par=6 frozen=false iter=20000 energy=-1.26974174 Lattice="15.00000000 0.00000000 0.00000000 0.00000000 15.00000000 0.00000000 0.00000000 0.00000000 15.00000000" energy_frozen_part=0.00000000 Properties=species:S:1:pos:R:3:velocities:R:3:Z:I:1
H         4.02997852      11.93166867      13.02058129         0.00000000       0.00000000       0.00000000          1
H         6.71719651      12.61413245      12.67795622         0.00000000       0.00000000       0.00000000          1
H         5.88700734       9.97406009      12.29706518         0.00000000       0.00000000       0.00000000          1
H         3.97925848      10.84053313      10.44936618         0.00000000       0.00000000       0.00000000          1
H         6.66647275      11.52299343      10.10674595         0.00000000       0.00000000       0.00000000          1
H         4.80944903      13.48060888      10.83026149         0.00000000       0.00000000       0.00000000          1
6
pbc=[F, F, F] list_num_par=6 frozen=false iter=20000 energy=-1.26974174 Lattice="15.00000000 0.00000000 0.00000000 0.00000000 15.00000000 0.00000000 0.00000000 0.00000000 15.00000000" energy_frozen_part=0.00000000 Properties=species:S:1:pos:R:3:velocities:R:3:Z:I:1
H         4.03019856      11.93136802      13.02099146         0.00000000       0.00000000       0.00000000          1
H         6.71725279      12.61427977      12.67797574         0.00000000       0.00000000       0.00000000          1
H         5.88742314       9.97409442      12.29704653         0.00000000       0.00000000       0.00000000          1
H         3.97923465      10.84038481      10.44971483         0.00000000       0.00000000       0.00000000          1
H         6.66628800      11.52329939      10.10669987         0.00000000       0.00000000       0.00000000          1
H         4.80906219      13.48056242      10.83064266         0.00000000       0.00000000       0.00000000          1
6
pbc=[F, F, F] list_num_par=6 frozen=false iter=20000 energy=-1.26974174 Lattice="15.00000000 0.00000000 0.00000000 0.00000000 15.00000000 0.00000000 0.00000000 0.00000000 15.00000000" energy_frozen_part=0.00000000 Properties=species:S:1:pos:R:3:velocities:R:3:Z:I:1
H         8.82969995       7.29121543       2.53035444         0.00000000       0.00000000       0.00000000          1
H         7.54630677       8.16287796       4.85358078         0.00000000       0.00000000       0.00000000          1
H         6.47594955       5.60868447       5.22062061         0.00000000       0.00000000       0.00000000          1
H         7.75934685       4.73702060       2.89739292         0.00000000       0.00000000       0.00000000          1
H         9.23578813       5.93976699       4.94136659         0.00000000       0.00000000       0.00000000          1
H         6.06987080       6.96013105       2.80960984         0.00000000       0.00000000       0.00000000          1
6
pbc=[F, F, F] list_num_par=6 frozen=false iter=20000 energy=-1.26974174 Lattice="15.00000000 0.00000000 0.00000000 0.00000000 15.00000000 0.00000000 0.00000000 0.00000000 15.00000000" energy_frozen_part=0.00000000 Properties=species:S:1:pos:R:3:velocities:R:3:Z:I:1
H         4.03313595      11.92652858      13.01889225         0.00000000       0.00000000       0.00000000          1
H         6.71935818      12.61302811      12.67651622         0.00000000       0.00000000       0.00000000          1
H         5.89162372       9.97346087      12.28688429         0.00000000       0.00000000       0.00000000          1
H         3.98146104      10.84451213      10.44384077         0.00000000       0.00000000       0.00000000          1
H         6.66767609      11.53102160      10.10147064         0.00000000       0.00000000       0.00000000          1
H         4.80918539      13.48408671      10.83347578         0.00000000       0.00000000       0.00000000          1
6
pbc=[F, F, F] list_num_par=6 frozen=false iter=20000 energy=-1.26974174 Lattice="15.00000000 0.00000000 0.00000000 0.00000000 15.00000000 0.00000000 0.00000000 0.00000000 15.00000000" energy_frozen_part=0.00000000 Properties=species:S:1:pos:R:3:velocities:R:3:Z:I:1
H         4.03315590      11.92632464      13.01869943         0.00000000       0.00000000       0.00000000          1
H         6.71934184      12.61296811      12.67634961         0.00000000       0.00000000       0.00000000          1
H         5.89170845       9.97340413      12.28646892         0.00000000       0.00000000       0.00000000          1
H         3.98147457      10.84456637      10.44354713         0.00000000       0.00000000       0.00000000          1
H         6.66765872      11.53120897      10.10119477         0.00000000       0.00000000       0.00000000          1
H         4.80910912      13.48413250      10.83343473         0.00000000       0.00000000       0.00000000          1
6
pbc=[F, F, F] list_num_par=6 frozen=false iter=20000 energy=-1.26974174 Lattice="15.00000000 0.00000000 0.00000000 0.00000000 15.00000000 0.00000000 0.00000000 0.00000000 15.00000000" energy_frozen_part=0.00000000 Properties=species:S:1:pos:R:3:velocities:R:3:Z:I:1
H         8.82960615       7.29132780       2.53034024         0.00000000       0.00000000       0.00000000          1
H         7.54624101       8.16293856       4.85360318         0.00000000       0.00000000       0.00000000          1
H         6.47601643       5.60869605       5.22068833         0.00000000       0.00000000       0.00000000          1
H         7.75938525       4.73708231       2.89742472         0.00000000       0.00000000       0.00000000          1
H         9.23583484       5.93990645       4.94134208         0.00000000       0.00000000       0.00000000          1
H         6.06979409       6.96011395       2.80968598         0.00000000       0.00000000       0.00000000          1
6
pbc=[F, F, F] list_num_par=6 frozen=false iter=20000 energy=-1.26974174 Lattice="15.00000000 0.00000000 0.00000000 0.00000000 15.00000000 0.00000000 0.00000000 0.00000000 15.00000000" energy_frozen_part=0.00000000 Properties=species:S:1:pos:R:3:velocities:R:3:Z:I:1
H         4.03019111      11.93131660      13.02099773         0.00000000       0.00000000       0.00000000          1
H         6.71723666      12.61427102      12.67798143         0.00000000       0.00000000       0.00000000          1
H         5.88744550       9.97407884      12.29705432         0.00000000       0.00000000       0.00000000          1
H         3.97924266      10.84034110      10.44972370         0.00000000       0.00000000       0.00000000          1
H         6.66628055      11.52329539      10.10670121         0.00000000       0.00000000       0.00000000          1
H         4.80902467      13.48053663      10.83065451         0.00000000       0.00000000       0.00000000          1
6
pbc=[F, F, F] list_num_par=6 frozen=false iter=20000 energy=-1.26974174 Lattice="15.00000000 0.00000000 0.00000000 0.00000000 15.00000000 0.00000000 0.00000000 0.00000000 15.00000000" energy_frozen_part=0.00000000 Properties=species:S:1:pos:R:3:velocities:R:3:Z:I:1
H         4.02998093      11.93168765      13.02059543         0.00000000       0.00000000       0.00000000          1
H         6.71720097      12.61414325      12.67796559         0.00000000       0.00000000       0.00000000          1
H         5.88701277       9.97406597      12.29710216         0.00000000       0.00000000       0.00000000          1
H         3.97926669      10.84052521      10.44939569         0.00000000       0.00000000       0.00000000          1
H         6.66648489      11.52298460      10.10676453         0.00000000       0.00000000       0.00000000          1
H         4.80945562      13.48060265      10.83025241         0.00000000       0.00000000       0.00000000          1
6
pbc=[F, F, F] list_num_par=6 frozen=false iter=20000 energy=-1.26974174 Lattice="15.00000000 0.00000000 0.00000000 0.00000000 15.00000000 0.00000000 0.00000000 0.00000000 15.00000000" energy_frozen_part=0.00000000 Properties=species:S:1:pos:R:3:velocities:R:3:Z:I:1
H         8.82962252       7.29126173       2.53034645         0.00000000       0.00000000       0.00000000          1
H         7.54626083       8.16293798       4.85357814         0.00000000       0.00000000       0.00000000          1
H         6.47597909       5.60872528       5.22068972         0.00000000       0.00000000       0.00000000          1
H         7.75934416       4.73704914       2.89744947         0.00000000       0.00000000       0.00000000          1
H         9.23579703       5.93986697       4.94136955         0.00000000       0.00000000       0.00000000          1
H         6.06980117       6.96012026       2.80966582         0.00000000       0.00000000       0.00000000          1
6
pbc=[F, F, F] list_num_par=6 frozen=false iter=20000 energy=-1.26974174 Lattice="15.00000000 0.00000000 0.00000000 0.00000000 15.00000000 0.00000000 0.00000000 0.00000000 15.00000000" energy_frozen_part=0.00000000 Properties=species:S:1:pos:R:3:velocities:R:3:Z:I:1
H         4.03017851      11.93136100      13.02095770         0.00000000       0.00000000       0.00000000          1
H         6.71723901      12.61427644      12.67797615         0.00000000       0.00000000       0.00000000          1
H         5.88741040       9.97409577      12.29703845         0.00000000       0.00000000       0.00000000          1
H         3.97925084      10.84038653      10.44967836         0.00000000       0.00000000       0.00000000          1
H         6.66630770      11.52329779      10.10670462         0.00000000       0.00000000       0.00000000          1
H         4.80906713      13.48056924      10.83062305         0.00000000       0.00000000       0.00000000          1
6
pbc=[F, F, F] list_num_par=6 frozen=false iter=20000 energy=-1.26974174 Lattice="15.00000000 0.00000000 0.00000000 0.00000000 15.00000000 0.00000000 0.00000000 0.00000000 15.00000000" energy_frozen_part=0.00000000 Properties=species:S:1:pos:R:3:velocities:R:3:Z:I:1
H         4.00887257      11.87100732      12.96422933         0.00000000       0.00000000       0.00000000          1
H         6.69518636      12.59156362      12.70193431         0.00000000       0.00000000       0.00000000          1
H         5.90671644       9.95028561      12.24778447         0.00000000       0.00000000       0.00000000          1
H         4.03441675      10.83187617      10.37119363         0.00000000       0.00000000       0.00000000          1
H         6.72073688      11.55242670      10.10890419         0.00000000       0.00000000       0.00000000          1
H         4.82288716      13.47315133      10.82535320         0.00000000       0.00000000       0.00000000          1
6
pbc=[F, F, F] list_num_par=6 frozen=false iter=20000 energy=-1.26974174 Lattice="15.00000000 0.00000000 0.00000000 0.00000000 15.00000000 0.00000000 0.00000000 0.00000000 15.00000000" energy_frozen_part=0.00000000 Properties=species:S:1:pos:R:3:velocities:R:3:Z:I:1
H         4.02997853      11.93167563      13.02058257         0.00000000       0.00000000       0.00000000          1
H         6.71720143      12.61411959      12.67797125         0.00000000       0.00000000       0.00000000          1
H         5.88700088       9.97405061      12.29708204         0.00000000       0.00000000       0.00000000          1
H         3.97926340      10.84052839      10.44937630         0.00000000       0.00000000       0.00000000          1
H         6.66648286      11.52297499      10.10675517         0.00000000       0.00000000       0.00000000          1
H         4.80945967      13.48060220      10.83026022         0.00000000       0.00000000       0.00000000          1
6
pbc=[F, F, F] list_num_par=6 frozen=false iter=20000 energy=-1.26974174 Lattice="15.00000000 0.00000000 0.00000000 0.00000000 15.00000000 0.00000000 0.00000000 0.00000000 15.00000000" energy_frozen_part=0.00000000 Properties=species:S:1:pos:R:3:velocities:R:3:Z:I:1
H         4.03309287      11.92646345      13.01895692         0.00000000       0.00000000       0.00000000          1
H         6.71931265      12.61299959      12.67662166         0.00000000       0.00000000       0.00000000          1
H         5.89161098       9.97342668      12.28694454         0.00000000       0.00000000       0.00000000          1
H         3.98145826      10.84449003      10.44389383         0.00000000       0.00000000       0.00000000          1
H         6.66766737      11.53102710      10.10155566         0.00000000       0.00000000       0.00000000          1
H         4.80914935      13.48406309      10.83357351         0.00000000       0.00000000       0.00000000          1
6
pbc=[F, F, F] list_num_par=6 frozen=false iter=20000 energy=-1.26974174 Lattice="15.00000000 0.00000000 0.00000000 0.00000000 15.00000000 0.00000000 0.00000000 0.00000000 15.00000000" energy_frozen_part=0.00000000 Properties=species:S:1:pos:R:3:velocities:R:3:Z:I:1
H         4.03310993      11.92645170      13.01892053         0.00000000       0.00000000       0.00000000          1
H         6.71932524      12.61297957      12.67658164         0.00000000       0.00000000       0.00000000          1
H         5.89161455       9.97341918      12.28686332         0.00000000       0.00000000       0.00000000          1
H         3.98144512      10.84452342      10.44384212         0.00000000       0.00000000       0.00000000          1
H         6.66766184      11.53105434      10.10149849         0.00000000       0.00000000       0.00000000          1
H         4.80916718      13.48408713      10.83356001         0.00000000       0.00000000       0.00000000          1
6
pbc=[F, F, F] list_num_par=6 frozen=false iter=20000 energy=-1.26974174 Lattice="15.00000000 0.00000000 0.00000000 0.00000000 15.00000000 0.00000000 0.00000000 0.00000000 15.00000000" energy_frozen_part=0.00000000 Properties=species:S:1:pos:R:3:velocities:R:3:Z:I:1
H         4.03311336      11.92647306      13.01893266         0.00000000       0.00000000       0.00000000          1
H         6.71932961      12.61298937      12.67656680         0.00000000       0.00000000       0.00000000          1
H         5.89160573       9.97342735      12.28687226         0.00000000       0.00000000       0.00000000          1
H         3.98142214      10.84452380      10.44386151         0.00000000       0.00000000       0.00000000          1
H         6.66763984      11.53103918      10.10149057         0.00000000       0.00000000       0.00000000          1
H         4.80914606      13.48408621      10.83354928         0.00000000       0.00000000       0.00000000          1
6
pbc=[F, F, F] list_num_par=6 frozen=false iter=20000 energy=-1.26974174 Lattice="15.00000000 0.00000000 0.00000000 0.00000000 15.00000000 0.00000000 0.00000000 0.00000000 15.00000000" energy_frozen_part=0.00000000 Properties=species:S:1:pos:R:3:velocities:R:3:Z:I:1
H         4.03317705      11.92632367      13.01870746         0.00000000       0.00000000       0.00000000          1
H         6.71936171      12.61298325      12.67634552         0.00000000       0.00000000       0.00000000          1
H         5.89173142       9.97342530      12.28643334         0.00000000       0.00000000       0.00000000          1
H         3.98148280      10.84461038      10.44353660         0.00000000       0.00000000       0.00000000          1
H         6.66766502      11.53127516      10.10117684         0.00000000       0.00000000       0.00000000          1
H         4.80910338      13.48417168      10.83345608         0.00000000       0.00000000       0.00000000          1
6
pbc=[F, F, F] list_num_par=6 frozen=false iter=20000 energy=-1.26974174 Lattice="15.00000000 0.00000000 0.00000000 0.00000000 15.00000000 0.00000000 0.00000000 0.00000000 15.00000000" energy_frozen_part=0.00000000 Properties=species:S:1:pos:R:3:velocities:R:3:Z:I:1
H         4.03019525      11.93137128      13.02096880         0.00000000       0.00000000       0.00000000          1
H         6.71724678      12.61428758      12.67795909         0.00000000       0.00000000       0.00000000          1
H         5.88742798       9.97409590      12.29704317         0.00000000       0.00000000       0.00000000          1
H         3.97923958      10.84037568      10.44970119         0.00000000       0.00000000       0.00000000          1
H         6.66629611      11.52329656      10.10669319         0.00000000       0.00000000       0.00000000          1
H         4.80906346      13.48056579      10.83061722         0.00000000       0.00000000       0.00000000          1
6
pbc=[F, F, F] list_num_par=6 frozen=false iter=20000 energy=-1.26974174 Lattice="15.00000000 0.00000000 0.00000000 0.00000000 15.00000000 0.00000000 0.00000000 0.00000000 15.00000000" energy_frozen_part=0.00000000 Properties=species:S:1:pos:R:3:velocities:R:3:Z:I:1
H         4.02997367      11.93168966      13.02057680         0.00000000       0.00000000       0.00000000          1
H         6.71719912      12.61413715      12.67795322         0.00000000       0.00000000       0.00000000          1
H         5.88699885       9.97406872      12.29706571         0.00000000       0.00000000       0.00000000          1
H         3.97924764      10.84054828      10.44936255         0.00000000       0.00000000       0.00000000          1
H         6.66647415      11.52299315      10.10673936         0.00000000       0.00000000       0.00000000          1
H         4.80945293      13.48061841      10.83025219         0.00000000       0.00000000       0.00000000          1
6
pbc=[F, F, F] list_num_par=6 frozen=false iter=20000 energy=-1.26974174 Lattice="15.00000000 0.00000000 0.00000000 0.00000000 15.00000000 0.00000000 0.00000000 0.00000000 15.00000000" energy_frozen_part=0.00000000 Properties=species:S:1:pos:R:3:velocities:R:3:Z:I:1
H         4.03019845      11.93132357      13.02100161         0.00000000       0.00000000       0.00000000          1
H         6.71723800      12.61427190      12.67797670         0.00000000       0.00000000       0.00000000          1
H         5.88744566       9.97407866      12.29705526         0.00000000       0.00000000       0.00000000          1
H         3.97924075      10.84034432      10.44973038         0.00000000       0.00000000       0.00000000          1
H         6.66628337      11.52329327      10.10670557         0.00000000       0.00000000       0.00000000          1
H         4.80903140      13.48054132      10.83065747         0.00000000       0.00000000       0.00000000          1
6
pbc=[F, F, F] list_num_par=6 frozen=false iter=20000 energy=-1.26974174 Lattice="15.00000000 0.00000000 0.00000000 0.00000000 15.00000000 0.00000000 0.00000000 0.00000000 15.00000000" energy_frozen_part=0.00000000 Properties=species:S:1:pos:R:3:velocities:R:3:Z:I:1
H         4.03021891      11.93132079      13.02100276         0.00000000       0.00000000       0.00000000          1
H         6.71725277      12.61428174      12.67796772         0.00000000       0.00000000       0.00000000          1
H         5.88747063       9.97408338      12.29703537         0.00000000       0.00000000       0.00000000          1
H         3.97924476      10.84035615      10.44972709         0.00000000       0.00000000       0.00000000          1
H         6.66628659      11.52330915      10.10668498         0.00000000       0.00000000       0.00000000          1
H         4.80903711      13.48054779      10.83065318         0.00000000       0.00000000       0.00000000          1
6
pbc=[F, F, F] list_num_par=6 frozen=false iter=20000 energy=-1.26974174 Lattice="15.00000000 0.00000000 0.00000000 0.00000000 15.00000000 0.00000000 0.00000000 0.00000000 15.00000000" energy_frozen_part=0.00000000 Properties=species:S:1:pos:R:3:velocities:R:3:Z:I:1
H         4.03310343      11.92646817      13.01892415         0.00000000       0.00000000       0.00000000          1
H         6.71933079      12.61297876      12.67658226         0.00000000       0.00000000       0.00000000          1
H         5.89159880       9.97342130      12.28687197         0.00000000       0.00000000       0.00000000          1
H         3.98144211      10.84453121      10.44384896         0.00000000       0.00000000       0.00000000          1
H         6.66766208      11.53104774      10.10150551         0.00000000       0.00000000       0.00000000          1
H         4.80916587      13.48409432      10.83356069         0.00000000       0.00000000       0.00000000          1
6
pbc=[F, F, F] list_num_par=6 frozen=false iter=20000 energy=-1.26974174 Lattice="15.00000000 0.00000000 0.00000000 0.00000000 15.00000000 0.00000000 0.00000000 0.00000000 15.00000000" energy_frozen_part=0.00000000 Properties=species:S:1:pos:R:3:velocities:R:3:Z:I:1
H         4.03307710      11.92647470      13.01892506         0.00000000       0.00000000       0.00000000          1
H         6.71929813      12.61297746      12.67658998         0.00000000       0.00000000       0.00000000          1
H         5.89156244       9.97341670      12.28688556         0.00000000       0.00000000       0.00000000          1
H         3.98141287      10.84453083      10.44385157         0.00000000       0.00000000       0.00000000          1
H         6.66763033      11.53103406      10.10151318         0.00000000       0.00000000       0.00000000          1
H         4.80914861      13.48409168      10.83355962         0.00000000       0.00000000       0.00000000          1
6
pbc=[F, F, F] list_num_par=6 frozen=false iter=20000 energy=-1.26974174 Lattice="15.00000000 0.00000000 0.00000000 0.00000000 15.00000000 0.00000000 0.00000000 0.00000000 15.00000000" energy_frozen_part=0.00000000 Properties=species:S:1:pos:R:3:velocities:R:3:Z:I:1
H         4.02995500      11.93165166      13.02057632         0.00000000       0.00000000       0.00000000          1
H         6.71717625      12.61412603      12.67798513         0.00000000       0.00000000       0.00000000          1
H         5.88700481       9.97405474      12.29706622         0.00000000       0.00000000       0.00000000          1
H         3.97926600      10.84053973      10.44935910         0.00000000       0.00000000       0.00000000          1
H         6.66648402      11.52300891      10.10675904         0.00000000       0.00000000       0.00000000          1
H         4.80944241      13.48061167      10.83027848         0.00000000       0.00000000       0.00000000          1
6
pbc=[F, F, F] list_num_par=6 frozen=false iter=20000 energy=-1.26974174 Lattice="15.00000000 0.00000000 0.00000000 0.00000000 15.00000000 0.00000000 0.00000000 0.00000000 15.00000000" energy_frozen_part=0.00000000 Properties=species:S:1:pos:R:3:velocities:R:3:Z:I:1
H         4.02997764      11.93167638      13.02058986         0.00000000       0.00000000       0.00000000          1
H         6.71719896      12.61412317      12.67798100         0.00000000       0.00000000       0.00000000          1
H         5.88700409       9.97405005      12.29708832         0.00000000       0.00000000       0.00000000          1
H         3.97926306      10.84052794      10.44938469         0.00000000       0.00000000       0.00000000          1
H         6.66648748      11.52298494      10.10677101         0.00000000       0.00000000       0.00000000          1
H         4.80945640      13.48060345      10.83026523         0.00000000       0.00000000       0.00000000          1
6
pbc=[F, F, F] list_num_par=6 frozen=false iter=20000 energy=-1.26974174 Lattice="15.00000000 0.00000000 0.00000000 0.00000000 15.00000000 0.00000000 0.00000000 0.00000000 15.00000000" energy_frozen_part=0.00000000 Properties=species:S:1:pos:R:3:velocities:R:3:Z:I:1
H         4.03310236      11.92647174      13.01892278         0.00000000       0.00000000       0.00000000          1
H         6.71932451      12.61298611      12.67659421         0.00000000       0.00000000       0.00000000          1
H         5.89159523       9.97342819      12.28687305         0.00000000       0.00000000       0.00000000          1
H         3.98143668      10.84453561      10.44384404         0.00000000       0.00000000       0.00000000          1
H         6.66766425      11.53104742      10.10150969         0.00000000       0.00000000       0.00000000          1
H         4.80916809      13.48409174      10.83355674         0.00000000       0.00000000       0.00000000          1
6
pbc=[F, F, F] list_num_par=6 frozen=false iter=20000 energy=-1.26974174 Lattice="15.00000000 0.00000000 0.00000000 0.00000000 15.00000000 0.00000000 0.00000000 0.00000000 15.00000000" energy_frozen_part=0.00000000 Properties=species:S:1:pos:R:3:velocities:R:3:Z:I:1
H         8.82970278       7.29121944       2.53037014         0.00000000       0.00000000       0.00000000          1
H         7.54628384       8.16288627       4.85358505         0.00000000       0.00000000       0.00000000          1
H         6.47594704       5.60868491       5.22061907         0.00000000       0.00000000       0.00000000          1
H         7.75936420       4.73701903       2.89740168         0.00000000       0.00000000       0.00000000          1
H         9.23578245       5.93977978       4.94137886         0.00000000       0.00000000       0.00000000          1
H         6.06986721       6.96012391       2.80960555         0.00000000       0.00000000       0.00000000          1
6
pbc=[F, F, F] list_num_par=6 frozen=false iter=20000 energy=-1.26974174 Lattice="15.00000000 0.00000000 0.00000000 0.00000000 15.00000000 0.00000000 0.00000000 0.00000000 15.00000000" energy_frozen_part=0.00000000 Properties=species:S:1:pos:R:3:velocities:R:3:Z:I:1
H         4.03019288      11.93136459      13.02097756         0.00000000       0.00000000       0.00000000          1
H         6.71724728      12.61428013      12.67797030         0.00000000       0.00000000       0.00000000          1
H         5.88742261       9.97410109      12.29703654         0.00000000       0.00000000       0.00000000          1
H         3.97923619      10.84038818      10.44970061         0.00000000       0.00000000       0.00000000          1
H         6.66628787      11.52330430      10.10669450         0.00000000       0.00000000       0.00000000          1
H         4.80906057      13.48056656      10.83063531         0.00000000       0.00000000       0.00000000          1
6
pbc=[F, F, F] list_num_par=6 frozen=false iter=20000 energy=-1.26974174 Lattice="15.00000000 0.00000000 0.00000000 0.00000000 15.00000000 0.00000000 0.00000000 0.00000000 15.00000000" energy_frozen_part=0.00000000 Properties=species:S:1:pos:R:3:velocities:R:3:Z:I:1
H         4.03020514      11.93133031      13.02100131         0.00000000       0.00000000       0.00000000          1
H         6.71725171      12.61426627      12.67797917         0.00000000       0.00000000       0.00000000          1
H         5.88745110       9.97407617      12.29705458         0.00000000       0.00000000       0.00000000          1
H         3.97924430      10.84035437      10.44972558         0.00000000       0.00000000       0.00000000          1
H         6.66628775      11.52328641      10.10670422         0.00000000       0.00000000       0.00000000          1
H         4.80904575      13.48054195      10.83065425         0.00000000       0.00000000       0.00000000          1
6
pbc=[F, F, F] list_num_par=6 frozen=false iter=20000 energy=-1.26974174 Lattice="15.00000000 0.00000000 0.00000000 0.00000000 15.00000000 0.00000000 0.00000000 0.00000000 15.00000000" energy_frozen_part=0.00000000 Properties=species:S:1:pos:R:3:velocities:R:3:Z:I:1
H         8.82963442       7.29124536       2.53033439         0.00000000       0.00000000       0.00000000          1
H         7.54624858       8.16294505       4.85355354         0.00000000       0.00000000       0.00000000          1
H         6.47596807       5.60873892       5.22068713         0.00000000       0.00000000       0.00000000          1
H         7.75934784       4.73703279       2.89746679         0.00000000       0.00000000       0.00000000          1
H         9.23578884       5.93988013       4.94137543         0.00000000       0.00000000       0.00000000          1
H         6.06981231       6.96010562       2.80963622         0.00000000       0.00000000       0.00000000          1
6
pbc=[F, F, F] list_num_par=6 frozen=false iter=20000 energy=-1.26974174 Lattice="15.00000000 0.00000000 0.00000000 0.00000000 15.00000000 0.00000000 0.00000000 0.00000000 15.00000000" energy_frozen_part=0.00000000 Properties=species:S:1:pos:R:3:velocities:R:3:Z:I:1
H         8.82970116       7.29122210       2.53036730         0.00000000       0.00000000       0.00000000          1
H         7.54628366       8.16288246       4.85358083         0.00000000       0.00000000       0.00000000          1
H         6.47594656       5.60868149       5.22062098         0.00000000       0.00000000       0.00000000          1
H         7.75936030       4.73702433       2.89740329         0.00000000       0.00000000       0.00000000          1
H         9.23578324       5.93978560       4.94137859         0.00000000       0.00000000       0.00000000          1
H         6.06986254       6.96012797       2.80960778         0.00000000       0.00000000       0.00000000          1
6
pbc=[F, F, F] list_num_par=6 frozen=false iter=20000 energy=-1.26974174 Lattice="15.00000000 0.00000000 0.00000000 0.00000000 15.00000000 0.00000000 0.00000000 0.00000000 15.00000000" energy_frozen_part=0.00000000 Properties=species:S:1:pos:R:3:velocities:R:3:Z:I:1
H         4.03019046      11.93138379      13.02097856         0.00000000       0.00000000       0.00000000          1
H         6.71724192      12.61429481      12.67797330         0.00000000       0.00000000       0.00000000          1
H         5.88742713       9.97410950      12.29705026         0.00000000       0.00000000       0.00000000          1
H         3.97924316      10.84038672      10.44971026         0.00000000       0.00000000       0.00000000          1
H         6.66629914      11.52330577      10.10670285         0.00000000       0.00000000       0.00000000          1
H         4.80906575      13.48057363      10.83062402         0.00000000       0.00000000       0.00000000          1
6
pbc=[F, F, F] list_num_par=6 frozen=false iter=20000 energy=-1.26974174 Lattice="15.00000000 0.00000000 0.00000000 0.00000000 15.00000000 0.00000000 0.00000000 0.00000000 15.00000000" energy_frozen_part=0.00000000 Properties=species:S:1:pos:R:3:velocities:R:3:Z:I:1
H         4.03310646      11.92645682      13.01895270         0.00000000       0.00000000       0.00000000          1
H         6.71932441      12.61299271      12.67660205         0.00000000       0.00000000       0.00000000          1
H         5.89162075       9.97341891      12.28693000         0.00000000       0.00000000       0.00000000          1
H         3.98145727      10.84449175      10.44388825         0.00000000       0.00000000       0.00000000          1
H         6.66766831      11.53101863      10.10154167         0.00000000       0.00000000       0.00000000          1
H         4.80916071      13.48406379      10.83356808         0.00000000       0.00000000       0.00000000          1
6
pbc=[F, F, F] list_num_par=6 frozen=false iter=20000 energy=-1.26974174 Lattice="15.00000000 0.00000000 0.00000000 0.00000000 15.00000000 0.00000000 0.00000000 0.00000000 15.00000000" energy_frozen_part=0.00000000 Properties=species:S:1:pos:R:3:velocities:R:3:Z:I:1
H         8.82963791       7.29126963       2.53034739         0.00000000       0.00000000       0.00000000          1
H         7.54624656       8.16295390       4.85357357         0.00000000       0.00000000       0.00000000          1
H         6.47597006       5.60873058       5.22067927         0.00000000       0.00000000       0.00000000          1
H         7.75935971       4.73705089       2.89745609         0.00000000       0.00000000       0.00000000          1
H         9.23579011       5.93988620       4.94138094         0.00000000       0.00000000       0.00000000          1
H         6.06981399       6.96011604       2.80965193         0.00000000       0.00000000       0.00000000          1
6
pbc=[F, F, F] list_num_par=6 frozen=false iter=20000 energy=-1.26974174 Lattice="15.00000000 0.00000000 0.00000000 0.00000000 15.00000000 0.00000000 0.00000000 0.00000000 15.00000000" energy_frozen_part=0.00000000 Properties=species:S:1:pos:R:3:velocities:R:3:Z:I:1
H         4.02997591      11.93168502      13.02057860         0.00000000       0.00000000       0.00000000          1
H         6.71719954      12.61413299      12.67796583         0.00000000       0.00000000       0.00000000          1
H         5.88700230       9.97406474      12.29706717         0.00000000       0.00000000       0.00000000          1
H         3.97926242      10.84054296      10.44936362         0.00000000       0.00000000       0.00000000          1
H         6.66647911      11.52300115      10.10674901         0.00000000       0.00000000       0.00000000          1
H         4.80945368      13.48062015      10.83026110         0.00000000       0.00000000       0.00000000          1
6
pbc=[F, F, F] list_num_par=6 frozen=false iter=20000 energy=-1.26974174 Lattice="15.00000000 0.00000000 0.00000000 0.00000000 15.00000000 0.00000000 0.00000000 0.00000000 15.00000000" energy_frozen_part=0.00000000 Properties=species:S:1:pos:R:3:velocities:R:3:Z:I:1
H         4.03314440      11.92652995      13.01889686         0.00000000       0.00000000       0.00000000          1
H         6.71936157      12.61303469      12.67651139         0.00000000       0.00000000       0.00000000          1
H         5.89162929       9.97346175      12.28689215         0.00000000       0.00000000       0.00000000          1
H         3.98145580      10.84450796      10.44385548         0.00000000       0.00000000       0.00000000          1
H         6.66767132      11.53101136      10.10147506         0.00000000       0.00000000       0.00000000          1
H         4.80918449      13.48408139      10.83347150         0.00000000       0.00000000       0.00000000          1
6
pbc=[F, F, F] list_num_par=6 frozen=false iter=20000 energy=-1.26974174 Lattice="15.00000000 0.00000000 0.00000000 0.00000000 15.00000000 0.00000000 0.00000000 0.00000000 15.00000000" energy_frozen_part=0.00000000 Properties=species:S:1:pos:R:3:velocities:R:3:Z:I:1
H         4.02996664      11.93166403      13.02057810         0.00000000       0.00000000       0.00000000          1
H         6.71718683      12.61411881      12.67797822         0.00000000       0.00000000       0.00000000          1
H         5.88700096       9.97404648      12.29708558         0.00000000       0.00000000       0.00000000          1
H         3.97926972      10.84052668      10.44936841         0.00000000       0.00000000       0.00000000          1
H         6.66648607      11.52298310      10.10676767         0.00000000       0.00000000       0.00000000          1
H         4.80945256      13.48060613      10.83026595         0.00000000       0.00000000       0.00000000          1
6
pbc=[F, F, F] list_num_par=6 frozen=false iter=20000 energy=-1.26974174 Lattice="15.00000000 0.00000000 0.00000000 0.00000000 15.00000000 0.00000000 0.00000000 0.00000000 15.00000000" energy_frozen_part=0.00000000 Properties=species:S:1:pos:R:3:velocities:R:3:Z:I:1
H         4.03314992      11.92631693      13.01870996         0.00000000       0.00000000       0.00000000          1
H         6.71933366      12.61296791      12.67634128         0.00000000       0.00000000       0.00000000          1
H         5.89169501       9.97341152      12.28644103         0.00000000       0.00000000       0.00000000          1
H         3.98144453      10.84459417      10.44354289         0.00000000       0.00000000       0.00000000          1
H         6.66762997      11.53124178      10.10117542         0.00000000       0.00000000       0.00000000          1
H         4.80907806      13.48415094      10.83345156         0.00000000       0.00000000       0.00000000          1
6
pbc=[F, F, F] list_num_par=6 frozen=false iter=20000 energy=-1.26974174 Lattice="15.00000000 0.00000000 0.00000000 0.00000000 15.00000000 0.00000000 0.00000000 0.00000000 15.00000000" energy_frozen_part=0.00000000 Properties=species:S:1:pos:R:3:velocities:R:3:Z:I:1
H         4.00888439      11.87100538      12.96421707         0.00000000       0.00000000       0.00000000          1
H         6.69519351      12.59157640      12.70192257         0.00000000       0.00000000       0.00000000          1
H         5.90673950       9.95029406      12.24776369         0.00000000       0.00000000       0.00000000          1
H         4.03442840      10.83188382      10.37118451         0.00000000       0.00000000       0.00000000          1
H         6.72073852      11.55245156      10.10888761         0.00000000       0.00000000       0.00000000          1
H         4.82288660      13.47316128      10.82534454         0.00000000       0.00000000       0.00000000          1
6
pbc=[F, F, F] list_num_par=6 frozen=false iter=20000 energy=-1.26974174 Lattice="15.00000000 0.00000000 0.00000000 0.00000000 15.00000000 0.00000000 0.00000000 0.00000000 15.00000000" energy_frozen_part=0.00000000 Properties=species:S:1:pos:R:3:velocities:R:3:Z:I:1
H         4.02997035      11.93167689      13.02058095         0.00000000       0.00000000       0.00000000          1
H         6.71719076      12.61411870      12.67797254         0.00000000       0.00000000       0.00000000          1
H         5.88698696       9.97405081      12.29706351         0.00000000       0.00000000       0.00000000          1
H         3.97925655      10.84055638      10.44935897         0.00000000       0.00000000       0.00000000          1
H         6.66647681      11.52300328      10.10675262         0.00000000       0.00000000       0.00000000          1
H         4.80945401      13.48062505      10.83026990         0.00000000       0.00000000       0.00000000          1
6
pbc=[F, F, F] list_num_par=6 frozen=false iter=20000 energy=-1.26974174 Lattice="15.00000000 0.00000000 0.00000000 0.00000000 15.00000000 0.00000000 0.00000000 0.00000000 15.00000000" energy_frozen_part=0.00000000 Properties=species:S:1:pos:R:3:velocities:R:3:Z:I:1
H         4.03315811      11.92631569      13.01871300         0.00000000       0.00000000       0.00000000          1
H         6.71933972      12.61296752      12.67634045         0.00000000       0.00000000       0.00000000          1
H         5.89171494       9.97340256      12.28645674         0.00000000       0.00000000       0.00000000          1
H         3.98146145      10.84457301      10.44355436         0.00000000       0.00000000       0.00000000          1
H         6.66764220      11.53122451      10.10118433         0.00000000       0.00000000       0.00000000          1
H         4.80908175      13.48413893      10.83344395         0.00000000       0.00000000       0.00000000          1
6
pbc=[F, F, F] list_num_par=6 frozen=false iter=20000 energy=-1.26974174 Lattice="15.00000000 0.00000000 0.00000000 0.00000000 15.00000000 0.00000000 0.00000000 0.00000000 15.00000000" energy_frozen_part=0.00000000 Properties=species:S:1:pos:R:3:velocities:R:3:Z:I:1
H         4.03309270      11.92645870      13.01895207         0.00000000       0.00000000       0.00000000          1
H         6.71930894      12.61299294      12.67662412         0.00000000       0.00000000       0.00000000          1
H         5.89161169       9.97342017      12.28694268         0.00000000       0.00000000       0.00000000          1
H         3.98145759      10.84448363      10.44389353         0.00000000       0.00000000       0.00000000          1
H         6.66767839      11.53102240      10.10156548         0.00000000       0.00000000       0.00000000          1
H         4.80915993      13.48405776      10.83357069         0.00000000       0.00000000       0.00000000          1
6
pbc=[F, F, F] list_num_par=6 frozen=false iter=20000 energy=-1.26974174 Lattice="15.00000000 0.00000000 0.00000000 0.00000000 15.00000000 0.00000000 0.00000000 0.00000000 15.00000000" energy_frozen_part=0.00000000 Properties=species:S:1:pos:R:3:velocities:R:3:Z:I:1
H         4.03020722      11.93136574      13.02099331         0.00000000       0.00000000       0.00000000          1
H         6.71725470      12.61428348      12.67796717         0.00000000       0.00000000       0.00000000          1
H         5.88743432       9.97409776      12.29704047         0.00000000       0.00000000       0.00000000          1
H         3.97924291      10.84038322      10.44971754         0.00000000       0.00000000       0.00000000          1
H         6.66629433      11.52330600      10.10669317         0.00000000       0.00000000       0.00000000          1
H         4.80906137      13.48056781      10.83063596         0.00000000       0.00000000       0.00000000          1
6
pbc=[F, F, F] list_num_par=6 frozen=false iter=20000 energy=-1.26974174 Lattice="15.00000000 0.00000000 0.00000000 0.00000000 15.00000000 0.00000000 0.00000000 0.00000000 15.00000000" energy_frozen_part=0.00000000 Properties=species:S:1:pos:R:3:velocities:R:3:Z:I:1
H         8.82962701       7.29127473       2.53034955         0.00000000       0.00000000       0.00000000          1
H         7.54626200       8.16294560       4.85358701         0.00000000       0.00000000       0.00000000          1
H         6.47600651       5.60871841       5.22070790         0.00000000       0.00000000       0.00000000          1
H         7.75936560       4.73705432       2.89746393         0.00000000       0.00000000       0.00000000          1
H         9.23581978       5.93989118       4.94137488         0.00000000       0.00000000       0.00000000          1
H         6.06981345       6.96010946       2.80968238         0.00000000       0.00000000       0.00000000          1
6
pbc=[F, F, F] list_num_par=6 frozen=false iter=20000 energy=-1.26974174 Lattice="15.00000000 0.00000000 0.00000000 0.00000000 15.00000000 0.00000000 0.00000000 0.00000000 15.00000000" energy_frozen_part=0.00000000 Properties=species:S:1:pos:R:3:velocities:R:3:Z:I:1
H         4.03018999      11.93137857      13.02097198         0.00000000       0.00000000       0.00000000          1
H         6.71724240      12.61430609      12.67797183         0.00000000       0.00000000       0.00000000          1
H         5.88743799       9.97411350      12.29705925         0.00000000       0.00000000       0.00000000          1
H         3.97925168      10.84037948      10.44971249         0.00000000       0.00000000       0.00000000          1
H         6.66630176      11.52330643      10.10670298         0.00000000       0.00000000       0.00000000          1
H         4.80905754      13.48056887      10.83061598         0.00000000       0.00000000       0.00000000          1
6
pbc=[F, F, F] list_num_par=6 frozen=false iter=20000 energy=-1.26974174 Lattice="15.00000000 0.00000000 0.00000000 0.00000000 15.00000000 0.00000000 0.00000000 0.00000000 15.00000000" energy_frozen_part=0.00000000 Properties=species:S:1:pos:R:3:velocities:R:3:Z:I:1
H         4.02997396      11.93167316      13.02058740         0.00000000       0.00000000       0.00000000          1
H         6.71719750      12.61413012      12.67797206         0.00000000       0.00000000       0.00000000          1
H         5.88700214       9.97405782      12.29708801         0.00000000       0.00000000       0.00000000          1
H         3.97926426      10.84053310      10.44937395         0.00000000       0.00000000       0.00000000          1
H         6.66648702      11.52297988      10.10676725         0.00000000       0.00000000       0.00000000          1
H         4.80945492      13.48060352      10.83026670         0.00000000       0.00000000       0.00000000          1
6
pbc=[F, F, F] list_num_par=6 frozen=false iter=20000 energy=-1.26974174 Lattice="15.00000000 0.00000000 0.00000000 0.00000000 15.00000000 0.00000000 0.00000000 0.00000000 15.00000000" energy_frozen_part=0.00000000 Properties=species:S:1:pos:R:3:velocities:R:3:Z:I:1
H         4.00888444      11.87101369      12.96423781         0.00000000       0.00000000       0.00000000          1
H         6.69520474      12.59154656      12.70193597         0.00000000       0.00000000       0.00000000          1
H         5.90670406       9.95027707      12.24778738         0.00000000       0.00000000       0.00000000          1
H         4.03440929      10.83187668      10.37120339         0.00000000       0.00000000       0.00000000          1
H         6.72073459      11.55240601      10.10890491         0.00000000       0.00000000       0.00000000          1
H         4.82290336      13.47314260      10.82535388         0.00000000       0.00000000       0.00000000          1
6
pbc=[F, F, F] list_num_par=6 frozen=false iter=20000 energy=-1.26974174 Lattice="15.00000000 0.00000000 0.00000000 0.00000000 15.00000000 0.00000000 0.00000000 0.00000000 15.00000000" energy_frozen_part=0.00000000 Properties=species:S:1:pos:R:3:velocities:R:3:Z:I:1
H         8.82968883       7.29124626       2.53037361         0.00000000       0.00000000       0.00000000          1
H         7.54626722       8.16288911       4.85359321         0.00000000       0.00000000       0.00000000          1
H         6.47594232       5.60867789       5.22062262         0.00000000       0.00000000       0.00000000          1
H         7.75936821       4.73703937       2.89740417         0.00000000       0.00000000       0.00000000          1
H         9.23577568       5.93979979       4.94138274         0.00000000       0.00000000       0.00000000          1
H         6.06985790       6.96012782       2.80961792         0.00000000       0.00000000       0.00000000          1
6
pbc=[F, F, F] list_num_par=6 frozen=false iter=20000 energy=-1.26974174 Lattice="15.00000000 0.00000000 0.00000000 0.00000000 15.00000000 0.00000000 0.00000000 0.00000000 15.00000000" energy_frozen_part=0.00000000 Properties=species:S:1:pos:R:3:velocities:R:3:Z:I:1
H         8.82959795       7.29132243       2.53033494         0.00000000       0.00000000       0.00000000          1
H         7.54623156       8.16292824       4.85359885         0.00000000       0.00000000       0.00000000          1
H         6.47602457       5.60868456       5.22068540         0.00000000       0.00000000       0.00000000          1
H         7.75938751       4.73707273       2.89741897         0.00000000       0.00000000       0.00000000          1
H         9.23582978       5.93990294       4.94133073         0.00000000       0.00000000       0.00000000          1
H         6.06978995       6.96009877       2.80968282         0.00000000       0.00000000       0.00000000          1
6
pbc=[F, F, F] list_num_par=6 frozen=false iter=20000 energy=-1.26974174 Lattice="15.00000000 0.00000000 0.00000000 0.00000000 15.00000000 0.00000000 0.00000000 0.00000000 15.00000000" energy_frozen_part=0.00000000 Properties=species:S:1:pos:R:3:velocities:R:3:Z:I:1
H         4.03020084      11.93132238      13.02100028         0.00000000       0.00000000       0.00000000          1
H         6.71724082      12.61427456      12.67798738         0.00000000       0.00000000       0.00000000          1
H         5.88745214       9.97407490      12.29706622         0.00000000       0.00000000       0.00000000          1
H         3.97925496      10.84033589      10.44972543         0.00000000       0.00000000       0.00000000          1
H         6.66629361      11.52329074      10.10671405         0.00000000       0.00000000       0.00000000          1
H         4.80903902      13.48053481      10.83065367         0.00000000       0.00000000       0.00000000          1
6
pbc=[F, F, F] list_num_par=6 frozen=false iter=20000 energy=-1.26974174 Lattice="15.00000000 0.00000000 0.00000000 0.00000000 15.00000000 0.00000000 0.00000000 0.00000000 15.00000000" energy_frozen_part=0.00000000 Properties=species:S:1:pos:R:3:velocities:R:3:Z:I:1
H         8.82969242       7.29123989       2.53037998         0.00000000       0.00000000       0.00000000          1
H         7.54627176       8.16287981       4.85359763         0.00000000       0.00000000       0.00000000          1
H         6.47594706       5.60867294       5.22061827         0.00000000       0.00000000       0.00000000          1
H         7.75937361       4.73703265       2.89740393         0.00000000       0.00000000       0.00000000          1
H         9.23577954       5.93979373       4.94138992         0.00000000       0.00000000       0.00000000          1
H         6.06985891       6.96012257       2.80961003         0.00000000       0.00000000       0.00000000          1
6
pbc=[F, F, F] list_num_par=6 frozen=false iter=20000 energy=-1.26974174 Lattice="15.00000000 0.00000000 0.00000000 0.00000000 15.00000000 0.00000000 0.00000000 0.00000000 15.00000000" energy_frozen_part=0.00000000 Properties=species:S:1:pos:R:3:velocities:R:3:Z:I:1
H         4.03310567      11.92647538      13.01892999         0.00000000       0.00000000       0.00000000          1
H         6.71932653      12.61299344      12.67656756         0.00000000       0.00000000       0.00000000          1
H         5.89160500       9.97343154      12.28687190         0.00000000       0.00000000       0.00000000          1
H         3.98142330      10.84452163      10.44385768         0.00000000       0.00000000       0.00000000          1
H         6.66763947      11.53104147      10.10149164         0.00000000       0.00000000       0.00000000          1
H         4.80915114      13.48408812      10.83355039         0.00000000       0.00000000       0.00000000          1
6
pbc=[F, F, F] list_num_par=6 frozen=false iter=20000 energy=-1.26974174 Lattice="15.00000000 0.00000000 0.00000000 0.00000000 15.00000000 0.00000000 0.00000000 0.00000000 15.00000000" energy_frozen_part=0.00000000 Properties=species:S:1:pos:R:3:velocities:R:3:Z:I:1
H         4.03020709      11.93131721      13.02100371         0.00000000       0.00000000       0.00000000          1
H         6.71724993      12.61427472      12.67798965         0.00000000       0.00000000       0.00000000          1
H         5.88746564       9.97407862      12.29706531         0.00000000       0.00000000       0.00000000          1
H         3.97925495      10.84033705      10.44973157         0.00000000       0.00000000       0.00000000          1
H         6.66629754      11.52328521      10.10671452         0.00000000       0.00000000       0.00000000          1
H         4.80904832      13.48053269      10.83065529         0.00000000       0.00000000       0.00000000          1
6
pbc=[F, F, F] list_num_par=6 frozen=false iter=20000 energy=-1.26974174 Lattice="15.00000000 0.00000000 0.00000000 0.00000000 15.00000000 0.00000000 0.00000000 0.00000000 15.00000000" energy_frozen_part=0.00000000 Properties=species:S:1:pos:R:3:velocities:R:3:Z:I:1
H         4.03315906      11.92630449      13.01871738         0.00000000       0.00000000       0.00000000          1
H         6.71934372      12.61295550      12.67634796         0.00000000       0.00000000       0.00000000          1
H         5.89171019       9.97339735      12.28645490         0.00000000       0.00000000       0.00000000          1
H         3.98146175      10.84457069      10.44355220         0.00000000       0.00000000       0.00000000          1
H         6.66764362      11.53121886      10.10118633         0.00000000       0.00000000       0.00000000          1
H         4.80908815      13.48413161      10.83344763         0.00000000       0.00000000       0.00000000          1
6
pbc=[F, F, F] list_num_par=6 frozen=false iter=20000 energy=-1.26974174 Lattice="15.00000000 0.00000000 0.00000000 0.00000000 15.00000000 0.00000000 0.00000000 0.00000000 15.00000000" energy_frozen_part=0.00000000 Properties=species:S:1:pos:R:3:velocities:R:3:Z:I:1
H         8.82963655       7.29127879       2.53035118         0.00000000       0.00000000       0.00000000          1
H         7.54625193       8.16294049       4.85358532         0.00000000       0.00000000       0.00000000          1
H         6.47597531       5.60871943       5.22068046         0.00000000       0.00000000       0.00000000          1
H         7.75936595       4.73705520       2.89745206         0.00000000       0.00000000       0.00000000          1
H         9.23579536       5.93987848       4.94137784         0.00000000       0.00000000       0.00000000          1
H         6.06981423       6.96011920       2.80965418         0.00000000       0.00000000       0.00000000          1
6
pbc=[F, F, F] list_num_par=6 frozen=false iter=20000 energy=-1.26974174 Lattice="15.00000000 0.00000000 0.00000000 0.00000000 15.00000000 0.00000000 0.00000000 0.00000000 15.00000000" energy_frozen_part=0.00000000 Properties=species:S:1:pos:R:3:velocities:R:3:Z:I:1
H         4.03018641      11.93136634      13.02097642         0.00000000       0.00000000       0.00000000          1
H         6.71724065      12.61429197      12.67796555         0.00000000       0.00000000       0.00000000          1
H         5.88742874       9.97410548      12.29704437         0.00000000       0.00000000       0.00000000          1
H         3.97924274      10.84037970      10.44970222         0.00000000       0.00000000       0.00000000          1
H         6.66629280      11.52330281      10.10669341         0.00000000       0.00000000       0.00000000          1
H         4.80905752      13.48056340      10.83062237         0.00000000       0.00000000       0.00000000          1
6
pbc=[F, F, F] list_num_par=6 frozen=false iter=20000 energy=-1.26974174 Lattice="15.00000000 0.00000000 0.00000000 0.00000000 15.00000000 0.00000000 0.00000000 0.00000000 15.00000000" energy_frozen_part=0.00000000 Properties=species:S:1:pos:R:3:velocities:R:3:Z:I:1
H         4.03309249      11.92645134      13.01895508         0.00000000       0.00000000       0.00000000          1
H         6.71931482      12.61298330      12.67662453         0.00000000       0.00000000       0.00000000          1
H         5.89160939       9.97341721      12.28693481         0.00000000       0.00000000       0.00000000          1
H         3.98145250      10.84448702      10.44388611         0.00000000       0.00000000       0.00000000          1
H         6.66767616      11.53101937      10.10155624         0.00000000       0.00000000       0.00000000          1
H         4.80916256      13.48405620      10.83357457         0.00000000       0.00000000       0.00000000          1
6
pbc=[F, F, F] list_num_par=6 frozen=false iter=20000 energy=-1.26974174 Lattice="15.00000000 0.00000000 0.00000000 0.00000000 15.00000000 0.00000000 0.00000000 0.00000000 15.00000000" energy_frozen_part=0.00000000 Properties=species:S:1:pos:R:3:velocities:R:3:Z:I:1
H         4.03315071      11.92633038      13.01870452         0.00000000       0.00000000       0.00000000          1
H         6.71933701      12.61296977      12.67633323         0.00000000       0.00000000       0.00000000          1
H         5.89169303       9.97341048      12.28645290         0.00000000       0.00000000       0.00000000          1
H         3.98144008      10.84458369      10.44354865         0.00000000       0.00000000       0.00000000          1
H         6.66762835      11.53122483      10.10117774         0.00000000       0.00000000       0.00000000          1
H         4.80908937      13.48414688      10.83342948         0.00000000       0.00000000       0.00000000          1
6
pbc=[F, F, F] list_num_par=6 frozen=false iter=20000 energy=-1.26974174 Lattice="15.00000000 0.00000000 0.00000000 0.00000000 15.00000000 0.00000000 0.00000000 0.00000000 15.00000000" energy_frozen_part=0.00000000 Properties=species:S:1:pos:R:3:velocities:R:3:Z:I:1
H         8.82963116       7.29127546       2.53035079         0.00000000       0.00000000       0.00000000          1
H         7.54624403       8.16294561       4.85358029         0.00000000       0.00000000       0.00000000          1
H         6.47598496       5.60872128       5.22069616         0.00000000       0.00000000       0.00000000          1
H         7.75936569       4.73705363       2.89746559         0.00000000       0.00000000       0.00000000          1
H         9.23580552       5.93988958       4.94138110         0.00000000       0.00000000       0.00000000          1
H         6.06981190       6.96010471       2.80965959         0.00000000       0.00000000       0.00000000          1
6
pbc=[F, F, F] list_num_par=6 frozen=false iter=20000 energy=-1.26974174 Lattice="15.00000000 0.00000000 0.00000000 0.00000000 15.00000000 0.00000000 0.00000000 0.00000000 15.00000000" energy_frozen_part=0.00000000 Properties=species:S:1:pos:R:3:velocities:R:3:Z:I:1
H         4.03315538      11.92632524      13.01871980         0.00000000       0.00000000       0.00000000          1
H         6.71933162      12.61298427      12.67634435         0.00000000       0.00000000       0.00000000          1
H         5.89170486       9.97342086      12.28644420         0.00000000       0.00000000       0.00000000          1
H         3.98144431      10.84459285      10.44355636         0.00000000       0.00000000       0.00000000          1
H         6.66762154      11.53125432      10.10117507         0.00000000       0.00000000       0.00000000          1
H         4.80906838      13.48415701      10.83344965         0.00000000       0.00000000       0.00000000          1
6
pbc=[F, F, F] list_num_par=6 frozen=false iter=20000 energy=-1.26974174 Lattice="15.00000000 0.00000000 0.00000000 0.00000000 15.00000000 0.00000000 0.00000000 0.00000000 15.00000000" energy_frozen_part=0.00000000 Properties=species:S:1:pos:R:3:velocities:R:3:Z:I:1
H         8.82963486       7.29125920       2.53034839         0.00000000       0.00000000       0.00000000          1
H         7.54626419       8.16293568       4.85358171         0.00000000       0.00000000       0.00000000          1
H         6.47598004       5.60872016       5.22069205         0.00000000       0.00000000       0.00000000          1
H         7.75935390       4.73704309       2.89745652         0.00000000       0.00000000       0.00000000          1
H         9.23579718       5.93986850       4.94137316         0.00000000       0.00000000       0.00000000          1
H         6.06981641       6.96011342       2.80966686         0.00000000       0.00000000       0.00000000          1
6
pbc=[F, F, F] list_num_par=6 frozen=false iter=20000 energy=-1.26974174 Lattice="15.00000000 0.00000000 0.00000000 0.00000000 15.00000000 0.00000000 0.00000000 0.00000000 15.00000000" energy_frozen_part=0.00000000 Properties=species:S:1:pos:R:3:velocities:R:3:Z:I:1
H         4.03313989      11.92652377      13.01892509         0.00000000       0.00000000       0.00000000          1
H         6.71936716      12.61301142      12.67653474         0.00000000       0.00000000       0.00000000          1
H         5.89160798       9.97345016      12.28688485         0.00000000       0.00000000       0.00000000          1
H         3.98143411      10.84453874      10.44386569         0.00000000       0.00000000       0.00000000          1
H         6.66765491      11.53102450      10.10148048         0.00000000       0.00000000       0.00000000          1
H         4.80918536      13.48409796      10.83351541         0.00000000       0.00000000       0.00000000          1
6
pbc=[F, F, F] list_num_par=6 frozen=false iter=20000 energy=-1.26974174 Lattice="15.00000000 0.00000000 0.00000000 0.00000000 15.00000000 0.00000000 0.00000000 0.00000000 15.00000000" energy_frozen_part=0.00000000 Properties=species:S:1:pos:R:3:velocities:R:3:Z:I:1
H         8.82964433       7.29127251       2.53035901         0.00000000       0.00000000       0.00000000          1
H         7.54625081       8.16294222       4.85358135         0.00000000       0.00000000       0.00000000          1
H         6.47597033       5.60872550       5.22068202         0.00000000       0.00000000       0.00000000          1
H         7.75937182       4.73705408       2.89746053         0.00000000       0.00000000       0.00000000          1
H         9.23579309       5.93987978       4.94139361         0.00000000       0.00000000       0.00000000          1
H         6.06982667       6.96011922       2.80964795         0.00000000       0.00000000       0.00000000          1
6
pbc=[F, F, F] list_num_par=6 frozen=false iter=20000 energy=-1.26974174 Lattice="15.00000000 0.00000000 0.00000000 0.00000000 15.00000000 0.00000000 0.00000000 0.00000000 15.00000000" energy_frozen_part=0.00000000 Properties=species:S:1:pos:R:3:velocities:R:3:Z:I:1
H         4.00887249      11.87100955      12.96422995         0.00000000       0.00000000       0.00000000          1
H         6.69519160      12.59156268      12.70194660         0.00000000       0.00000000       0.00000000          1
H         5.90671431       9.95028927      12.24778722         0.00000000       0.00000000       0.00000000          1
H         4.03441824      10.83187510      10.37119483         0.00000000       0.00000000       0.00000000          1
H         6.72073112      11.55242635      10.10890862         0.00000000       0.00000000       0.00000000          1
H         4.82289353      13.47315182      10.82535670         0.00000000       0.00000000       0.00000000          1
6
pbc=[F, F, F] list_num_par=6 frozen=false iter=20000 energy=-1.26974174 Lattice="15.00000000 0.00000000 0.00000000 0.00000000 15.00000000 0.00000000 0.00000000 0.00000000 15.00000000" energy_frozen_part=0.00000000 Properties=species:S:1:pos:R:3:velocities:R:3:Z:I:1
H         4.03017842      11.93136764      13.02096960         0.00000000       0.00000000       0.00000000          1
H         6.71723444      12.61429290      12.67796994         0.00000000       0.00000000       0.00000000          1
H         5.88742454       9.97410619      12.29705485         0.00000000       0.00000000       0.00000000          1
H         3.97924456      10.84037725      10.44970323         0.00000000       0.00000000       0.00000000          1
H         6.66629724      11.52330503      10.10670288         0.00000000       0.00000000       0.00000000          1
H         4.80905624      13.48056772      10.83062231         0.00000000       0.00000000       0.00000000          1
6
pbc=[F, F, F] list_num_par=6 frozen=false iter=20000 energy=-1.26974174 Lattice="15.00000000 0.00000000 0.00000000 0.00000000 15.00000000 0.00000000 0.00000000 0.00000000 15.00000000" energy_frozen_part=0.00000000 Properties=species:S:1:pos:R:3:velocities:R:3:Z:I:1
H         4.00888576      11.87101262      12.96423914         0.00000000       0.00000000       0.00000000          1
H         6.69520744      12.59154537      12.70194496         0.00000000       0.00000000       0.00000000          1
H         5.90671251       9.95027783      12.24779160         0.00000000       0.00000000       0.00000000          1
H         4.03441629      10.83188353      10.37120625         0.00000000       0.00000000       0.00000000          1
H         6.72073869      11.55241070      10.10891416         0.00000000       0.00000000       0.00000000          1
H         4.82291443      13.47315315      10.82536095         0.00000000       0.00000000       0.00000000          1
6
pbc=[F, F, F] list_num_par=6 frozen=false iter=20000 energy=-1.26974174 Lattice="15.00000000 0.00000000 0.00000000 0.00000000 15.00000000 0.00000000 0.00000000 0.00000000 15.00000000" energy_frozen_part=0.00000000 Properties=species:S:1:pos:R:3:velocities:R:3:Z:I:1
H         4.03311140      11.92645782      13.01893100         0.00000000       0.00000000       0.00000000          1
H         6.71932683      12.61298564      12.67657416         0.00000000       0.00000000       0.00000000          1
H         5.89160350       9.97342119      12.28687132         0.00000000       0.00000000       0.00000000          1
H         3.98143234      10.84452583      10.44385331         0.00000000       0.00000000       0.00000000          1
H         6.66765160      11.53104611      10.10150032         0.00000000       0.00000000       0.00000000          1
H         4.80915188      13.48408393      10.83355987         0.00000000       0.00000000       0.00000000          1
6
pbc=[F, F, F] list_num_par=6 frozen=false iter=20000 energy=-1.26974174 Lattice="15.00000000 0.00000000 0.00000000 0.00000000 15.00000000 0.00000000 0.00000000 0.00000000 15.00000000" energy_frozen_part=0.00000000 Properties=species:S:1:pos:R:3:velocities:R:3:Z:I:1
H         8.82970224       7.29121377       2.53036095         0.00000000       0.00000000       0.00000000          1
H         7.54629038       8.16287544       4.85358398         0.00000000       0.00000000       0.00000000          1
H         6.47594567       5.60867806       5.22061243         0.00000000       0.00000000       0.00000000          1
H         7.75935580       4.73701494       2.89738974         0.00000000       0.00000000       0.00000000          1
H         9.23577791       5.93976838       4.94137186         0.00000000       0.00000000       0.00000000          1
H         6.06986685       6.96012297       2.80960021         0.00000000       0.00000000       0.00000000          1
6
pbc=[F, F, F] list_num_par=6 frozen=false iter=20000 energy=-1.26974174 Lattice="15.00000000 0.00000000 0.00000000 0.00000000 15.00000000 0.00000000 0.00000000 0.00000000 15.00000000" energy_frozen_part=0.00000000 Properties=species:S:1:pos:R:3:velocities:R:3:Z:I:1
H         4.03019082      11.93136424      13.02096760         0.00000000       0.00000000       0.00000000          1
H         6.71724414      12.61427753      12.67797554         0.00000000       0.00000000       0.00000000          1
H         5.88742472       9.97409370      12.29704346         0.00000000       0.00000000       0.00000000          1
H         3.97924734      10.84039154      10.44969425         0.00000000       0.00000000       0.00000000          1
H         6.66630425      11.52329846      10.10670143         0.00000000       0.00000000       0.00000000          1
H         4.80907088      13.48057169      10.83062763         0.00000000       0.00000000       0.00000000          1
6
pbc=[F, F, F] list_num_par=6 frozen=false iter=20000 energy=-1.26974174 Lattice="15.00000000 0.00000000 0.00000000 0.00000000 15.00000000 0.00000000 0.00000000 0.00000000 15.00000000" energy_frozen_part=0.00000000 Properties=species:S:1:pos:R:3:velocities:R:3:Z:I:1
H         4.03318628      11.92632722      13.01871367         0.00000000       0.00000000       0.00000000          1
H         6.71936389      12.61299384      12.67634295         0.00000000       0.00000000       0.00000000          1
H         5.89174390       9.97342607      12.28643776         0.00000000       0.00000000       0.00000000          1
H         3.98148110      10.84460471      10.44355057         0.00000000       0.00000000       0.00000000          1
H         6.66765486      11.53126898      10.10117620         0.00000000       0.00000000       0.00000000          1
H         4.80910093      13.48416884      10.83345671         0.00000000       0.00000000       0.00000000          1
6
pbc=[F, F, F] list_num_par=6 frozen=false iter=20000 energy=-1.26974174 Lattice="15.00000000 0.00000000 0.00000000 0.00000000 15.00000000 0.00000000 0.00000000 0.00000000 15.00000000" energy_frozen_part=0.00000000 Properties=species:S:1:pos:R:3:velocities:R:3:Z:I:1
H         4.03311308      11.92645892      13.01892564         0.00000000       0.00000000       0.00000000          1
H         6.71933227      12.61299174      12.67656580         0.00000000       0.00000000       0.00000000          1
H         5.89161651       9.97342636      12.28686667         0.00000000       0.00000000       0.00000000          1
H         3.98143901      10.84451765      10.44384676         0.00000000       0.00000000       0.00000000          1
H         6.66765581      11.53104589      10.10149482         0.00000000       0.00000000       0.00000000          1
H         4.80915151      13.48408091      10.83355241         0.00000000       0.00000000       0.00000000          1
6
pbc=[F, F, F] list_num_par=6 frozen=false iter=20000 energy=-1.26974174 Lattice="15.00000000 0.00000000 0.00000000 0.00000000 15.00000000 0.00000000 0.00000000 0.00000000 15.00000000" energy_frozen_part=0.00000000 Properties=species:S:1:pos:R:3:velocities:R:3:Z:I:1
H         4.00887657      11.87101261      12.96423623         0.00000000       0.00000000       0.00000000          1
H         6.69519738      12.59154100      12.70193582         0.00000000       0.00000000       0.00000000          1
H         5.90670498       9.95027565      12.24778443         0.00000000       0.00000000       0.00000000          1
H         4.03440511      10.83187746      10.37119786         0.00000000       0.00000000       0.00000000          1
H         6.72072635      11.55240646      10.10889933         0.00000000       0.00000000       0.00000000          1
H         4.82289845      13.47314532      10.82535518         0.00000000       0.00000000       0.00000000          1
6
pbc=[F, F, F] list_num_par=6 frozen=false iter=20000 energy=-1.26974174 Lattice="15.00000000 0.00000000 0.00000000 0.00000000 15.00000000 0.00000000 0.00000000 0.00000000 15.00000000" energy_frozen_part=0.00000000 Properties=species:S:1:pos:R:3:velocities:R:3:Z:I:1
H         8.82964699       7.29126841       2.53035539         0.00000000       0.00000000       0.00000000          1
H         7.54625868       8.16294587       4.85358130         0.00000000       0.00000000       0.00000000          1
H         6.47597700       5.60872946       5.22067897         0.00000000       0.00000000       0.00000000          1
H         7.75936852       4.73705192       2.89745276         0.00000000       0.00000000       0.00000000          1
H         9.23580005       5.93987859       4.94138178         0.00000000       0.00000000       0.00000000          1
H         6.06982757       6.96012305       2.80965322         0.00000000       0.00000000       0.00000000          1
6
pbc=[F, F, F] list_num_par=6 frozen=false iter=20000 energy=-1.26974174 Lattice="15.00000000 0.00000000 0.00000000 0.00000000 15.00000000 0.00000000 0.00000000 0.00000000 15.00000000" energy_frozen_part=0.00000000 Properties=species:S:1:pos:R:3:velocities:R:3:Z:I:1
H         4.03308067      11.92644741      13.01892850         0.00000000       0.00000000       0.00000000          1
H         6.71930014      12.61297020      12.67657337         0.00000000       0.00000000       0.00000000          1
H         5.89157605       9.97340648      12.28687593         0.00000000       0.00000000       0.00000000          1
H         3.98140801      10.84450533      10.44385035         0.00000000       0.00000000       0.00000000          1
H         6.66762779      11.53102209      10.10150464         0.00000000       0.00000000       0.00000000          1
H         4.80913098      13.48406683      10.83355389         0.00000000       0.00000000       0.00000000          1
6
pbc=[F, F, F] list_num_par=6 frozen=false iter=20000 energy=-1.26974174 Lattice="15.00000000 0.00000000 0.00000000 0.00000000 15.00000000 0.00000000 0.00000000 0.00000000 15.00000000" energy_frozen_part=0.00000000 Properties=species:S:1:pos:R:3:velocities:R:3:Z:I:1
H         4.03017209      11.93136482      13.02096364         0.00000000       0.00000000       0.00000000          1
H         6.71722860      12.61427708      12.67798291         0.00000000       0.00000000       0.00000000          1
H         5.88741082       9.97409710      12.29704475         0.00000000       0.00000000       0.00000000          1
H         3.97924993      10.84039245      10.44968623         0.00000000       0.00000000       0.00000000          1
H         6.66630799      11.52329974      10.10670564         0.00000000       0.00000000       0.00000000          1
H         4.80907197      13.48057370      10.83062778         0.00000000       0.00000000       0.00000000          1
