6
pbc=[F, F, F] list_num_par=6 frozen=false iter=20000 energy=-1.26974174 Lattice="15.00000000 0.00000000 0.00000000 0.00000000 15.00000000 0.00000000 0.00000000 0.00000000 15.00000000" energy_frozen_part=0.00000000 Properties=species:S:1:pos:R:3:velocities:R:3:Z:I:1
H         7.24079434       6.92812529       7.91237200         0.00000000       0.00000000       0.00000000          1
H         5.84237745       8.59071853       9.66864754         0.00000000       0.00000000       0.00000000          1
H         6.99747495       7.26749628      11.84100740         0.00000000       0.00000000       0.00000000          1
H         5.61672371       5.81539656       9.89441772         0.00000000       0.00000000       0.00000000          1
H         8.39588837       5.60490672      10.08472491         0.00000000       0.00000000       0.00000000          1
H         8.62154155       8.38022464       9.85895987         0.00000000       0.00000000       0.00000000          1
6
pbc=[F, F, F] list_num_par=6 frozen=false iter=20000 energy=-1.26974174 Lattice="15.00000000 0.00000000 0.00000000 0.00000000 15.00000000 0.00000000 0.00000000 0.00000000 15.00000000" energy_frozen_part=0.00000000 Properties=species:S:1:pos:R:3:velocities:R:3:Z:I:1
H         7.24699523       6.92172253       7.91805883         0.00000000       0.00000000       0.00000000          1
H         5.85767257       8.60067832       9.66596532         0.00000000       0.00000000       0.00000000          1
H         7.00227264       7.27931221      11.84499198         0.00000000       0.00000000       0.00000000          1
H         5.61400885       5.82784699       9.90327386         0.00000000       0.00000000       0.00000000          1
H         8.39159736       5.60035655      10.09708041         0.00000000       0.00000000       0.00000000          1
H         8.63525414       8.37318839       9.85977450         0.00000000       0.00000000       0.00000000          1
6
pbc=[F, F, F] list_num_par=6 frozen=false iter=20000 energy=-1.26974174 Lattice="15.00000000 0.00000000 0.00000000 0.00000000 15.00000000 0.00000000 0.00000000 0.00000000 15.00000000" energy_frozen_part=0.00000000 Properties=species:S:1:pos:R:3:velocities:R:3:Z:I:1
H         7.24701407       6.92155694       7.91820353         0.00000000       0.00000000       0.00000000          1
H         5.85779217       8.60051668       9.66618253         0.00000000       0.00000000       0.00000000          1
H         7.00250370       7.27914223      11.84515134         0.00000000       0.00000000       0.00000000          1
H         5.61413328       5.82768300       9.90351075         0.00000000       0.00000000       0.00000000          1
H         8.39172383       5.60017979      10.09716834         0.00000000       0.00000000       0.00000000          1
H         8.63538361       8.37300851       9.85985221         0.00000000       0.00000000       0.00000000          1
6
pbc=[F, F, F] list_num_par=6 frozen=false iter=20000 energy=-1.26974174 Lattice="15.00000000 0.00000000 0.00000000 0.00000000 15.00000000 0.00000000 0.00000000 0.00000000 15.00000000" energy_frozen_part=0.00000000 Properties=species:S:1:pos:R:3:velocities:R:3:Z:I:1
H         7.24699379       6.92157376       7.91818838         0.00000000       0.00000000       0.00000000          1
H         5.85777162       8.60052180       9.66618651         0.00000000       0.00000000       0.00000000          1
H         7.00249285       7.27913936      11.84514319         0.00000000       0.00000000       0.00000000          1
H         5.61412792       5.82768909       9.90349235         0.00000000       0.00000000       0.00000000          1
H         8.39171854       5.60019242      10.09714763         0.00000000       0.00000000       0.00000000          1
H         8.63536563       8.37302766       9.85984137         0.00000000       0.00000000       0.00000000          1
6
pbc=[F, F, F] list_num_par=6 frozen=false iter=20000 energy=-1.26974174 Lattice="15.00000000 0.00000000 0.00000000 0.00000000 15.00000000 0.00000000 0.00000000 0.00000000 15.00000000" energy_frozen_part=0.00000000 Properties=species:S:1:pos:R:3:velocities:R:3:Z:I:1
H         7.24688504       6.92182725       7.91803126         0.00000000       0.00000000       0.00000000          1
H         5.85768240       8.60066697       9.66614726         0.00000000       0.00000000       0.00000000          1
H         7.00249395       7.27921362      11.84500997         0.00000000       0.00000000       0.00000000          1
H         5.61409429       5.82781940       9.90333778         0.00000000       0.00000000       0.00000000          1
H         8.39169481       5.60037410      10.09690003         0.00000000       0.00000000       0.00000000          1
H         8.63528966       8.37321813       9.85970632         0.00000000       0.00000000       0.00000000          1
6
pbc=[F, F, F] list_num_par=6 frozen=false iter=20000 energy=-1.26974174 Lattice="15.00000000 0.00000000 0.00000000 0.00000000 15.00000000 0.00000000 0.00000000 0.00000000 15.00000000" energy_frozen_part=0.00000000 Properties=species:S:1:pos:R:3:velocities:R:3:Z:I:1
H         7.24680799       6.92170052       7.91804389         0.00000000       0.00000000       0.00000000          1
H         5.85764606       8.60065500       9.66607811         0.00000000       0.00000000       0.00000000          1
H         7.00248488       7.27931642      11.84499875         0.00000000       0.00000000       0.00000000          1
H         5.61403626       5.82782439       9.90343234         0.00000000       0.00000000       0.00000000          1
H         8.39163845       5.60036306      10.09696789         0.00000000       0.00000000       0.00000000          1
H         8.63525015       8.37319764       9.85960643         0.00000000       0.00000000       0.00000000          1
6
pbc=[F, F, F] list_num_par=6 frozen=false iter=20000 energy=-1.26974174 Lattice="15.00000000 0.00000000 0.00000000 0.00000000 15.00000000 0.00000000 0.00000000 0.00000000 15.00000000" energy_frozen_part=0.00000000 Properties=species:S:1:pos:R:3:velocities:R:3:Z:I:1
H         7.24680711       6.92168068       7.91803931         0.00000000       0.00000000       0.00000000          1
H         5.85765768       8.60064899       9.66607529         0.00000000       0.00000000       0.00000000          1
H         7.00247916       7.27930143      11.84499306         0.00000000       0.00000000       0.00000000          1
H         5.61402662       5.82781785       9.90342682         0.00000000       0.00000000       0.00000000          1
H         8.39163256       5.60033640      10.09696137         0.00000000       0.00000000       0.00000000          1
H         8.63525841       8.37316280       9.85960343         0.00000000       0.00000000       0.00000000          1
6
pbc=[F, F, F] list_num_par=6 frozen=false iter=20000 energy=-1.26974174 Lattice="15.00000000 0.00000000 0.00000000 0.00000000 15.00000000 0.00000000 0.00000000 0.00000000 15.00000000" energy_frozen_part=0.00000000 Properties=species:S:1:pos:R:3:velocities:R:3:Z:I:1
H         7.24085992       6.92809118       7.91236476         0.00000000       0.00000000       0.00000000          1
H         5.84237411       8.59068700       9.66858492         0.00000000       0.00000000       0.00000000          1
H         6.99741859       7.26751464      11.84099537         0.00000000       0.00000000       0.00000000          1
H         5.61674674       5.81536779       9.89437904         0.00000000       0.00000000       0.00000000          1
H         8.39590516       5.60491637      10.08477501         0.00000000       0.00000000       0.00000000          1
H         8.62153211       8.38023724       9.85898147         0.00000000       0.00000000       0.00000000          1
6
pbc=[F, F, F] list_num_par=6 frozen=false iter=20000 energy=-1.26974174 Lattice="15.00000000 0.00000000 0.00000000 0.00000000 15.00000000 0.00000000 0.00000000 0.00000000 15.00000000" energy_frozen_part=0.00000000 Properties=species:S:1:pos:R:3:velocities:R:3:Z:I:1
H         7.24699957       6.92158200       7.91818947         0.00000000       0.00000000       0.00000000          1
H         5.85777428       8.60051199       9.66619958         0.00000000       0.00000000       0.00000000          1
H         7.00249634       7.27911302      11.84513957         0.00000000       0.00000000       0.00000000          1
H         5.61412709       5.82767745       9.90347822         0.00000000       0.00000000       0.00000000          1
H         8.39172068       5.60017450      10.09713264         0.00000000       0.00000000       0.00000000          1
H         8.63537318       8.37301114       9.85985215         0.00000000       0.00000000       0.00000000          1
6
pbc=[F, F, F] list_num_par=6 frozen=false iter=20000 energy=-1.26974174 Lattice="15.00000000 0.00000000 0.00000000 0.00000000 15.00000000 0.00000000 0.00000000 0.00000000 15.00000000" energy_frozen_part=0.00000000 Properties=species:S:1:pos:R:3:velocities:R:3:Z:I:1
H         7.24690679       6.92184133       7.91802603         0.00000000       0.00000000       0.00000000          1
H         5.85768542       8.60067097       9.66613829         0.00000000       0.00000000       0.00000000          1
H         7.00248384       7.27920903      11.84500197         0.00000000       0.00000000       0.00000000          1
H         5.61410302       5.82782229       9.90331392         0.00000000       0.00000000       0.00000000          1
H         8.39170793       5.60037384      10.09689245         0.00000000       0.00000000       0.00000000          1
H         8.63528655       8.37322564       9.85971589         0.00000000       0.00000000       0.00000000          1
6
pbc=[F, F, F] list_num_par=6 frozen=false iter=20000 energy=-1.26974174 Lattice="15.00000000 0.00000000 0.00000000 0.00000000 15.00000000 0.00000000 0.00000000 0.00000000 15.00000000" energy_frozen_part=0.00000000 Properties=species:S:1:pos:R:3:velocities:R:3:Z:I:1
H         7.24080176       6.92813807       7.91237307         0.00000000       0.00000000       0.00000000          1
H         5.84239465       8.59072071       9.66866479         0.00000000       0.00000000       0.00000000          1
H         6.99747838       7.26747850      11.84101558         0.00000000       0.00000000       0.00000000          1
H         5.61672151       5.81540517       9.89440901         0.00000000       0.00000000       0.00000000          1
H         8.39588535       5.60490424      10.08472301         0.00000000       0.00000000       0.00000000          1
H         8.62155477       8.38022011       9.85897496         0.00000000       0.00000000       0.00000000          1
6
pbc=[F, F, F] list_num_par=6 frozen=false iter=20000 energy=-1.26974174 Lattice="15.00000000 0.00000000 0.00000000 0.00000000 15.00000000 0.00000000 0.00000000 0.00000000 15.00000000" energy_frozen_part=0.00000000 Properties=species:S:1:pos:R:3:velocities:R:3:Z:I:1
H         7.24682215       6.92175755       7.91802375         0.00000000       0.00000000       0.00000000          1
H         5.85761589       8.60063052       9.66610121         0.00000000       0.00000000       0.00000000          1
H         7.00243780       7.27922366      11.84498405         0.00000000       0.00000000       0.00000000          1
H         5.61403894       5.82778354       9.90335104         0.00000000       0.00000000       0.00000000          1
H         8.39164650       5.60035488      10.09690586         0.00000000       0.00000000       0.00000000          1
H         8.63522023       8.37319877       9.85966321         0.00000000       0.00000000       0.00000000          1
6
pbc=[F, F, F] list_num_par=6 frozen=false iter=20000 energy=-1.26974174 Lattice="15.00000000 0.00000000 0.00000000 0.00000000 15.00000000 0.00000000 0.00000000 0.00000000 15.00000000" energy_frozen_part=0.00000000 Properties=species:S:1:pos:R:3:velocities:R:3:Z:I:1
H        11.70116437       9.89117576      14.42412070         0.00000000       0.00000000       0.00000000          1
H        13.47650738       8.95369364      12.48155627         0.00000000       0.00000000       0.00000000          1
H        11.35287100       8.63448698      10.69477667         0.00000000       0.00000000       0.00000000          1
H         9.57753297       9.57196377      12.63734688         0.00000000       0.00000000       0.00000000          1
H        11.25999039       7.41573435      13.20680945         0.00000000       0.00000000       0.00000000          1
H        11.79405421      11.10992817      11.91209024         0.00000000       0.00000000       0.00000000          1
6
pbc=[F, F, F] list_num_par=6 frozen=false iter=20000 energy=-1.26974174 Lattice="15.00000000 0.00000000 0.00000000 0.00000000 15.00000000 0.00000000 0.00000000 0.00000000 15.00000000" energy_frozen_part=0.00000000 Properties=species:S:1:pos:R:3:velocities:R:3:Z:I:1
H         7.24699094       6.92171962       7.91805638         0.00000000       0.00000000       0.00000000          1
H         5.85767696       8.60068048       9.66596016         0.00000000       0.00000000       0.00000000          1
H         7.00228441       7.27932327      11.84499546         0.00000000       0.00000000       0.00000000          1
H         5.61401311       5.82785465       9.90328563         0.00000000       0.00000000       0.00000000          1
H         8.39159668       5.60035781      10.09709043         0.00000000       0.00000000       0.00000000          1
H         8.63526039       8.37318759       9.85976974         0.00000000       0.00000000       0.00000000          1
6
pbc=[F, F, F] list_num_par=6 frozen=false iter=20000 energy=-1.26974174 Lattice="15.00000000 0.00000000 0.00000000 0.00000000 15.00000000 0.00000000 0.00000000 0.00000000 15.00000000" energy_frozen_part=0.00000000 Properties=species:S:1:pos:R:3:velocities:R:3:Z:I:1
H        11.70117964       9.89116798      14.42412483         0.00000000       0.00000000       0.00000000          1
H        13.47650934       8.95368823      12.48154189         0.00000000       0.00000000       0.00000000          1
H        11.35286417       8.63448667      10.69478298         0.00000000       0.00000000       0.00000000          1
H         9.57752841       9.57196242      12.63736077         0.00000000       0.00000000       0.00000000          1
H        11.25998748       7.41573572      13.20681276         0.00000000       0.00000000       0.00000000          1
H        11.79404793      11.10992204      11.91209641         0.00000000       0.00000000       0.00000000          1
6
pbc=[F, F, F] list_num_par=6 frozen=false iter=20000 energy=-1.26974174 Lattice="15.00000000 0.00000000 0.00000000 0.00000000 15.00000000 0.00000000 0.00000000 0.00000000 15.00000000" energy_frozen_part=0.00000000 Properties=species:S:1:pos:R:3:velocities:R:3:Z:I:1
H         7.24699081       6.92157849       7.91818836         0.00000000       0.00000000       0.00000000          1
H         5.85776548       8.60050923       9.66619687         0.00000000       0.00000000       0.00000000          1
H         7.00247948       7.27911093      11.84514399         0.00000000       0.00000000       0.00000000          1
H         5.61411817       5.82767439       9.90347689         0.00000000       0.00000000       0.00000000          1
H         8.39171360       5.60018190      10.09713936         0.00000000       0.00000000       0.00000000          1
H         8.63535889       8.37301857       9.85985715         0.00000000       0.00000000       0.00000000          1
6
pbc=[F, F, F] list_num_par=6 frozen=false iter=20000 energy=-1.26974174 Lattice="15.00000000 0.00000000 0.00000000 0.00000000 15.00000000 0.00000000 0.00000000 0.00000000 15.00000000" energy_frozen_part=0.00000000 Properties=species:S:1:pos:R:3:velocities:R:3:Z:I:1
H         7.24701045       6.92172219       7.91807076         0.00000000       0.00000000       0.00000000          1
H         5.85766403       8.60066880       9.66596781         0.00000000       0.00000000       0.00000000          1
H         7.00226799       7.27931484      11.84499910         0.00000000       0.00000000       0.00000000          1
H         5.61402426       5.82783530       9.90328374         0.00000000       0.00000000       0.00000000          1
H         8.39160716       5.60036515      10.09710317         0.00000000       0.00000000       0.00000000          1
H         8.63525185       8.37319882       9.85979528         0.00000000       0.00000000       0.00000000          1
6
pbc=[F, F, F] list_num_par=6 frozen=false iter=20000 energy=-1.26974174 Lattice="15.00000000 0.00000000 0.00000000 0.00000000 15.00000000 0.00000000 0.00000000 0.00000000 15.00000000" energy_frozen_part=0.00000000 Properties=species:S:1:pos:R:3:velocities:R:3:Z:I:1
H         7.24080247       6.92816159       7.91236418         0.00000000       0.00000000       0.00000000          1
H         5.84239095       8.59072935       9.66867069         0.00000000       0.00000000       0.00000000          1
H         6.99746631       7.26745332      11.84100701         0.00000000       0.00000000       0.00000000          1
H         5.61671233       5.81540643       9.89437329         0.00000000       0.00000000       0.00000000          1
H         8.39587739       5.60489145      10.08469690         0.00000000       0.00000000       0.00000000          1
H         8.62155403       8.38021353       9.85898832         0.00000000       0.00000000       0.00000000          1
6
pbc=[F, F, F] list_num_par=6 frozen=false iter=20000 energy=-1.26974174 Lattice="15.00000000 0.00000000 0.00000000 0.00000000 15.00000000 0.00000000 0.00000000 0.00000000 15.00000000" energy_frozen_part=0.00000000 Properties=species:S:1:pos:R:3:velocities:R:3:Z:I:1
H         7.24681493       6.92170384       7.91804208         0.00000000       0.00000000       0.00000000          1
H         5.85764956       8.60065320       9.66608044         0.00000000       0.00000000       0.00000000          1
H         7.00248712       7.27931804      11.84499943         0.00000000       0.00000000       0.00000000          1
H         5.61404296       5.82782514       9.90343340         0.00000000       0.00000000       0.00000000          1
H         8.39164654       5.60036334      10.09696677         0.00000000       0.00000000       0.00000000          1
H         8.63525550       8.37319406       9.85960391         0.00000000       0.00000000       0.00000000          1
6
pbc=[F, F, F] list_num_par=6 frozen=false iter=20000 energy=-1.26974174 Lattice="15.00000000 0.00000000 0.00000000 0.00000000 15.00000000 0.00000000 0.00000000 0.00000000 15.00000000" energy_frozen_part=0.00000000 Properties=species:S:1:pos:R:3:velocities:R:3:Z:I:1
H         7.24702355       6.92170401       7.91809117         0.00000000       0.00000000       0.00000000          1
H         5.85766143       8.60064695       9.66598425         0.00000000       0.00000000       0.00000000          1
H         7.00225975       7.27929935      11.84501980         0.00000000       0.00000000       0.00000000          1
H         5.61403757       5.82781249       9.90329291         0.00000000       0.00000000       0.00000000          1
H         8.39162137       5.60035264      10.09712899         0.00000000       0.00000000       0.00000000          1
H         8.63524881       8.37319025       9.85981781         0.00000000       0.00000000       0.00000000          1
6
pbc=[F, F, F] list_num_par=6 frozen=false iter=20000 energy=-1.26974174 Lattice="15.00000000 0.00000000 0.00000000 0.00000000 15.00000000 0.00000000 0.00000000 0.00000000 15.00000000" energy_frozen_part=0.00000000 Properties=species:S:1:pos:R:3:velocities:R:3:Z:I:1
H         7.24086566       6.92809602       7.91235582         0.00000000       0.00000000       0.00000000          1
H         5.84239977       8.59069786       9.66857868         0.00000000       0.00000000       0.00000000          1
H         6.99743976       7.26751460      11.84098607         0.00000000       0.00000000       0.00000000          1
H         5.61674066       5.81538293       9.89437606         0.00000000       0.00000000       0.00000000          1
H         8.39590406       5.60491292      10.08476173         0.00000000       0.00000000       0.00000000          1
H         8.62156116       8.38022779       9.85896575         0.00000000       0.00000000       0.00000000          1
6
pbc=[F, F, F] list_num_par=6 frozen=false iter=20000 energy=-1.26974174 Lattice="15.00000000 0.00000000 0.00000000 0.00000000 15.00000000 0.00000000 0.00000000 0.00000000 15.00000000" energy_frozen_part=0.00000000 Properties=species:S:1:pos:R:3:velocities:R:3:Z:I:1
H        11.70117835       9.89116641      14.42413133         0.00000000       0.00000000       0.00000000          1
H        13.47651252       8.95369803      12.48154979         0.00000000       0.00000000       0.00000000          1
H        11.35286959       8.63450613      10.69478345         0.00000000       0.00000000       0.00000000          1
H         9.57753954       9.57197349      12.63737006         0.00000000       0.00000000       0.00000000          1
H        11.25999657       7.41573474      13.20680827         0.00000000       0.00000000       0.00000000          1
H        11.79405494      11.10993711      11.91211163         0.00000000       0.00000000       0.00000000          1
6
pbc=[F, F, F] list_num_par=6 frozen=false iter=20000 energy=-1.26974174 Lattice="15.00000000 0.00000000 0.00000000 0.00000000 15.00000000 0.00000000 0.00000000 0.00000000 15.00000000" energy_frozen_part=0.00000000 Properties=species:S:1:pos:R:3:velocities:R:3:Z:I:1
H        11.70108026       9.89095815      14.42419419         0.00000000       0.00000000       0.00000000          1
H        13.47662760       8.95351281      12.48179282         0.00000000       0.00000000       0.00000000          1
H        11.35319659       8.63447803      10.69473674         0.00000000       0.00000000       0.00000000          1
H         9.57765334       9.57192705      12.63713383         0.00000000       0.00000000       0.00000000          1
H        11.25995949       7.41560095      13.20669260         0.00000000       0.00000000       0.00000000          1
H        11.79432562      11.10983593      11.91223627         0.00000000       0.00000000       0.00000000          1
6
pbc=[F, F, F] list_num_par=6 frozen=false iter=20000 energy=-1.26974174 Lattice="15.00000000 0.00000000 0.00000000 0.00000000 15.00000000 0.00000000 0.00000000 0.00000000 15.00000000" energy_frozen_part=0.00000000 Properties=species:S:1:pos:R:3:velocities:R:3:Z:I:1
H         7.24698431       6.92157637       7.91818696         0.00000000       0.00000000       0.00000000          1
H         5.85777054       8.60050669       9.66619918         0.00000000       0.00000000       0.00000000          1
H         7.00248444       7.27909928      11.84514045         0.00000000       0.00000000       0.00000000          1
H         5.61410971       5.82766921       9.90347943         0.00000000       0.00000000       0.00000000          1
H         8.39170342       5.60017193      10.09713006         0.00000000       0.00000000       0.00000000          1
H         8.63535826       8.37300375       9.85985097         0.00000000       0.00000000       0.00000000          1
6
pbc=[F, F, F] list_num_par=6 frozen=false iter=20000 energy=-1.26974174 Lattice="15.00000000 0.00000000 0.00000000 0.00000000 15.00000000 0.00000000 0.00000000 0.00000000 15.00000000" energy_frozen_part=0.00000000 Properties=species:S:1:pos:R:3:velocities:R:3:Z:I:1
H         7.24700004       6.92171599       7.91806475         0.00000000       0.00000000       0.00000000          1
H         5.85767921       8.60067674       9.66596379         0.00000000       0.00000000       0.00000000          1
H         7.00227182       7.27931259      11.84499987         0.00000000       0.00000000       0.00000000          1
H         5.61401619       5.82784748       9.90328136         0.00000000       0.00000000       0.00000000          1
H         8.39159683       5.60035088      10.09709277         0.00000000       0.00000000       0.00000000          1
H         8.63526294       8.37317838       9.85978346         0.00000000       0.00000000       0.00000000          1
6
pbc=[F, F, F] list_num_par=6 frozen=false iter=20000 energy=-1.26974174 Lattice="15.00000000 0.00000000 0.00000000 0.00000000 15.00000000 0.00000000 0.00000000 0.00000000 15.00000000" energy_frozen_part=0.00000000 Properties=species:S:1:pos:R:3:velocities:R:3:Z:I:1
H         7.24690880       6.92183580       7.91802835         0.00000000       0.00000000       0.00000000          1
H         5.85769244       8.60067694       9.66613220         0.00000000       0.00000000       0.00000000          1
H         7.00248804       7.27921566      11.84499978         0.00000000       0.00000000       0.00000000          1
H         5.61410509       5.82782470       9.90331562         0.00000000       0.00000000       0.00000000          1
H         8.39170847       5.60037171      10.09689463         0.00000000       0.00000000       0.00000000          1
H         8.63529550       8.37321911       9.85971276         0.00000000       0.00000000       0.00000000          1
6
pbc=[F, F, F] list_num_par=6 frozen=false iter=20000 energy=-1.26974174 Lattice="15.00000000 0.00000000 0.00000000 0.00000000 15.00000000 0.00000000 0.00000000 0.00000000 15.00000000" energy_frozen_part=0.00000000 Properties=species:S:1:pos:R:3:velocities:R:3:Z:I:1
H         7.24681767       6.92170461       7.91803687         0.00000000       0.00000000       0.00000000          1
H         5.85765065       8.60065689       9.66606243         0.00000000       0.00000000       0.00000000          1
H         7.00247779       7.27932017      11.84498946         0.00000000       0.00000000       0.00000000          1
H         5.61404418       5.82782609       9.90341779         0.00000000       0.00000000       0.00000000          1
H         8.39164661       5.60036511      10.09695862         0.00000000       0.00000000       0.00000000          1
H         8.63525480       8.37319862       9.85960108         0.00000000       0.00000000       0.00000000          1
6
pbc=[F, F, F] list_num_par=6 frozen=false iter=20000 energy=-1.26974174 Lattice="15.00000000 0.00000000 0.00000000 0.00000000 15.00000000 0.00000000 0.00000000 0.00000000 15.00000000" energy_frozen_part=0.00000000 Properties=species:S:1:pos:R:3:velocities:R:3:Z:I:1
H         7.24702180       6.92169761       7.91808675         0.00000000       0.00000000       0.00000000          1
H         5.85767102       8.60064747       9.66597488         0.00000000       0.00000000       0.00000000          1
H         7.00225820       7.27929386      11.84502575         0.00000000       0.00000000       0.00000000          1
H         5.61402469       5.82781589       9.90329149         0.00000000       0.00000000       0.00000000          1
H         8.39160678       5.60034563      10.09713274         0.00000000       0.00000000       0.00000000          1
H         8.63525093       8.37317687       9.85981788         0.00000000       0.00000000       0.00000000          1
6
pbc=[F, F, F] list_num_par=6 frozen=false iter=20000 energy=-1.26974174 Lattice="15.00000000 0.00000000 0.00000000 0.00000000 15.00000000 0.00000000 0.00000000 0.00000000 15.00000000" energy_frozen_part=0.00000000 Properties=species:S:1:pos:R:3:velocities:R:3:Z:I:1
H         7.24690613       6.92182867       7.91803147         0.00000000       0.00000000       0.00000000          1
H         5.85769184       8.60066486       9.66613603         0.00000000       0.00000000       0.00000000          1
H         7.00247721       7.27920636      11.84500363         0.00000000       0.00000000       0.00000000          1
H         5.61409617       5.82781455       9.90331375         0.00000000       0.00000000       0.00000000          1
H         8.39169411       5.60036629      10.09690233         0.00000000       0.00000000       0.00000000          1
H         8.63529388       8.37321480       9.85971752         0.00000000       0.00000000       0.00000000          1
6
pbc=[F, F, F] list_num_par=6 frozen=false iter=20000 energy=-1.26974174 Lattice="15.00000000 0.00000000 0.00000000 0.00000000 15.00000000 0.00000000 0.00000000 0.00000000 15.00000000" energy_frozen_part=0.00000000 Properties=species:S:1:pos:R:3:velocities:R:3:Z:I:1
H         7.24691167       6.92184333       7.91803425         0.00000000       0.00000000       0.00000000          1
H         5.85770994       8.60067720       9.66615780         0.00000000       0.00000000       0.00000000          1
H         7.00252512       7.27919846      11.84501216         0.00000000       0.00000000       0.00000000          1
H         5.61411662       5.82782581       9.90332951         0.00000000       0.00000000       0.00000000          1
H         8.39171780       5.60036220      10.09688819         0.00000000       0.00000000       0.00000000          1
H         8.63531440       8.37321670       9.85971607         0.00000000       0.00000000       0.00000000          1
6
pbc=[F, F, F] list_num_par=6 frozen=false iter=20000 energy=-1.26974174 Lattice="15.00000000 0.00000000 0.00000000 0.00000000 15.00000000 0.00000000 0.00000000 0.00000000 15.00000000" energy_frozen_part=0.00000000 Properties=species:S:1:pos:R:3:velocities:R:3:Z:I:1
H         7.24699846       6.92158746       7.91819407         0.00000000       0.00000000       0.00000000          1
H         5.85777905       8.60051287       9.66621156         0.00000000       0.00000000       0.00000000          1
H         7.00249641       7.27909811      11.84515292         0.00000000       0.00000000       0.00000000          1
H         5.61412306       5.82767871       9.90347884         0.00000000       0.00000000       0.00000000          1
H         8.39171706       5.60018251      10.09713426         0.00000000       0.00000000       0.00000000          1
H         8.63536877       8.37301589       9.85986442         0.00000000       0.00000000       0.00000000          1
6
pbc=[F, F, F] list_num_par=6 frozen=false iter=20000 energy=-1.26974174 Lattice="15.00000000 0.00000000 0.00000000 0.00000000 15.00000000 0.00000000 0.00000000 0.00000000 15.00000000" energy_frozen_part=0.00000000 Properties=species:S:1:pos:R:3:velocities:R:3:Z:I:1
H        11.70119538       9.89116692      14.42413626         0.00000000       0.00000000       0.00000000          1
H        13.47652077       8.95368571      12.48154884         0.00000000       0.00000000       0.00000000          1
H        11.35286601       8.63449613      10.69479631         0.00000000       0.00000000       0.00000000          1
H         9.57754347       9.57197177      12.63738259         0.00000000       0.00000000       0.00000000          1
H        11.25999946       7.41573315      13.20682299         0.00000000       0.00000000       0.00000000          1
H        11.79406093      11.10992885      11.91210625         0.00000000       0.00000000       0.00000000          1
6
pbc=[F, F, F] list_num_par=6 frozen=false iter=20000 energy=-1.26974174 Lattice="15.00000000 0.00000000 0.00000000 0.00000000 15.00000000 0.00000000 0.00000000 0.00000000 15.00000000" energy_frozen_part=0.00000000 Properties=species:S:1:pos:R:3:velocities:R:3:Z:I:1
H         7.24681893       6.92168843       7.91804489         0.00000000       0.00000000       0.00000000          1
H         5.85766286       8.60065485       9.66606754         0.00000000       0.00000000       0.00000000          1
H         7.00248473       7.27930844      11.84499146         0.00000000       0.00000000       0.00000000          1
H         5.61403118       5.82782385       9.90342685         0.00000000       0.00000000       0.00000000          1
H         8.39163604       5.60033744      10.09696575         0.00000000       0.00000000       0.00000000          1
H         8.63527115       8.37317052       9.85961193         0.00000000       0.00000000       0.00000000          1
6
pbc=[F, F, F] list_num_par=6 frozen=false iter=20000 energy=-1.26974174 Lattice="15.00000000 0.00000000 0.00000000 0.00000000 15.00000000 0.00000000 0.00000000 0.00000000 15.00000000" energy_frozen_part=0.00000000 Properties=species:S:1:pos:R:3:velocities:R:3:Z:I:1
H         7.24698969       6.92171833       7.91805768         0.00000000       0.00000000       0.00000000          1
H         5.85767149       8.60067487       9.66596873         0.00000000       0.00000000       0.00000000          1
H         7.00227834       7.27931274      11.84499159         0.00000000       0.00000000       0.00000000          1
H         5.61401559       5.82784268       9.90327687         0.00000000       0.00000000       0.00000000          1
H         8.39160169       5.60035888      10.09708065         0.00000000       0.00000000       0.00000000          1
H         8.63525779       8.37318948       9.85977172         0.00000000       0.00000000       0.00000000          1
6
pbc=[F, F, F] list_num_par=6 frozen=false iter=20000 energy=-1.26974174 Lattice="15.00000000 0.00000000 0.00000000 0.00000000 15.00000000 0.00000000 0.00000000 0.00000000 15.00000000" energy_frozen_part=0.00000000 Properties=species:S:1:pos:R:3:velocities:R:3:Z:I:1
H         7.24698818       6.92156799       7.91819579         0.00000000       0.00000000       0.00000000          1
H         5.85777459       8.60052441       9.66619055         0.00000000       0.00000000       0.00000000          1
H         7.00250099       7.27914797      11.84514808         0.00000000       0.00000000       0.00000000          1
H         5.61411847       5.82768759       9.90350666         0.00000000       0.00000000       0.00000000          1
H         8.39171310       5.60019239      10.09715473         0.00000000       0.00000000       0.00000000          1
H         8.63536574       8.37302341       9.85983707         0.00000000       0.00000000       0.00000000          1
6
pbc=[F, F, F] list_num_par=6 frozen=false iter=20000 energy=-1.26974174 Lattice="15.00000000 0.00000000 0.00000000 0.00000000 15.00000000 0.00000000 0.00000000 0.00000000 15.00000000" energy_frozen_part=0.00000000 Properties=species:S:1:pos:R:3:velocities:R:3:Z:I:1
H        11.70115142       9.89116054      14.42412499         0.00000000       0.00000000       0.00000000          1
H        13.47650218       8.95368555      12.48155733         0.00000000       0.00000000       0.00000000          1
H        11.35286664       8.63447278      10.69478348         0.00000000       0.00000000       0.00000000          1
H         9.57752090       9.57194554      12.63735572         0.00000000       0.00000000       0.00000000          1
H        11.25998457       7.41571804      13.20681503         0.00000000       0.00000000       0.00000000          1
H        11.79404074      11.10991434      11.91209592         0.00000000       0.00000000       0.00000000          1
6
pbc=[F, F, F] list_num_par=6 frozen=false iter=20000 energy=-1.26974174 Lattice="15.00000000 0.00000000 0.00000000 0.00000000 15.00000000 0.00000000 0.00000000 0.00000000 15.00000000" energy_frozen_part=0.00000000 Properties=species:S:1:pos:R:3:velocities:R:3:Z:I:1
H         7.24681514       6.92168713       7.91803971         0.00000000       0.00000000       0.00000000          1
H         5.85766331       8.60065807       9.66606559         0.00000000       0.00000000       0.00000000          1
H         7.00248736       7.27931276      11.84499408         0.00000000       0.00000000       0.00000000          1
H         5.61403174       5.82783132       9.90343564         0.00000000       0.00000000       0.00000000          1
H         8.39163711       5.60034444      10.09696738         0.00000000       0.00000000       0.00000000          1
H         8.63526793       8.37317712       9.85960421         0.00000000       0.00000000       0.00000000          1
6
pbc=[F, F, F] list_num_par=6 frozen=false iter=20000 energy=-1.26974174 Lattice="15.00000000 0.00000000 0.00000000 0.00000000 15.00000000 0.00000000 0.00000000 0.00000000 15.00000000" energy_frozen_part=0.00000000 Properties=species:S:1:pos:R:3:velocities:R:3:Z:I:1
H         7.24689807       6.92181937       7.91803604         0.00000000       0.00000000       0.00000000          1
H         5.85768044       8.60066513       9.66613459         0.00000000       0.00000000       0.00000000          1
H         7.00248318       7.27922339      11.84501032         0.00000000       0.00000000       0.00000000          1
H         5.61409363       5.82782201       9.90333190         0.00000000       0.00000000       0.00000000          1
H         8.39169588       5.60037960      10.09691202         0.00000000       0.00000000       0.00000000          1
H         8.63528583       8.37322500       9.85971040         0.00000000       0.00000000       0.00000000          1
6
pbc=[F, F, F] list_num_par=6 frozen=false iter=20000 energy=-1.26974174 Lattice="15.00000000 0.00000000 0.00000000 0.00000000 15.00000000 0.00000000 0.00000000 0.00000000 15.00000000" energy_frozen_part=0.00000000 Properties=species:S:1:pos:R:3:velocities:R:3:Z:I:1
H        11.70118710       9.89116640      14.42413883         0.00000000       0.00000000       0.00000000          1
H        13.47651513       8.95370172      12.48154554         0.00000000       0.00000000       0.00000000          1
H        11.35286388       8.63450785      10.69478709         0.00000000       0.00000000       0.00000000          1
H         9.57753820       9.57197526      12.63737679         0.00000000       0.00000000       0.00000000          1
H        11.25999671       7.41573756      13.20680852         0.00000000       0.00000000       0.00000000          1
H        11.79406163      11.10993689      11.91211857         0.00000000       0.00000000       0.00000000          1
6
pbc=[F, F, F] list_num_par=6 frozen=false iter=20000 energy=-1.26974174 Lattice="15.00000000 0.00000000 0.00000000 0.00000000 15.00000000 0.00000000 0.00000000 0.00000000 15.00000000" energy_frozen_part=0.00000000 Properties=species:S:1:pos:R:3:velocities:R:3:Z:I:1
H        11.70119039       9.89117107      14.42413265         0.00000000       0.00000000       0.00000000          1
H        13.47651655       8.95369577      12.48154372         0.00000000       0.00000000       0.00000000          1
H        11.35286503       8.63449167      10.69478714         0.00000000       0.00000000       0.00000000          1
H         9.57753858       9.57197564      12.63737200         0.00000000       0.00000000       0.00000000          1
H        11.25999540       7.41573798      13.20681363         0.00000000       0.00000000       0.00000000          1
H        11.79406193      11.10992919      11.91210533         0.00000000       0.00000000       0.00000000          1
6
pbc=[F, F, F] list_num_par=6 frozen=false iter=20000 energy=-1.26974174 Lattice="15.00000000 0.00000000 0.00000000 0.00000000 15.00000000 0.00000000 0.00000000 0.00000000 15.00000000" energy_frozen_part=0.00000000 Properties=species:S:1:pos:R:3:velocities:R:3:Z:I:1
H         7.24701763       6.92170030       7.91808897         0.00000000       0.00000000       0.00000000          1
H         5.85766744       8.60065039       9.66597427         0.00000000       0.00000000       0.00000000          1
H         7.00224902       7.27930174      11.84501580         0.00000000       0.00000000       0.00000000          1
H         5.61401629       5.82781778       9.90328784         0.00000000       0.00000000       0.00000000          1
H         8.39159930       5.60034573      10.09713077         0.00000000       0.00000000       0.00000000          1
H         8.63525397       8.37317563       9.85981533         0.00000000       0.00000000       0.00000000          1
6
pbc=[F, F, F] list_num_par=6 frozen=false iter=20000 energy=-1.26974174 Lattice="15.00000000 0.00000000 0.00000000 0.00000000 15.00000000 0.00000000 0.00000000 0.00000000 15.00000000" energy_frozen_part=0.00000000 Properties=species:S:1:pos:R:3:velocities:R:3:Z:I:1
H        11.70119148       9.89119230      14.42412518         0.00000000       0.00000000       0.00000000          1
H        13.47653965       8.95374487      12.48154684         0.00000000       0.00000000       0.00000000          1
H        11.35290488       8.63451726      10.69477551         0.00000000       0.00000000       0.00000000          1
H         9.57755704       9.57196463      12.63734988         0.00000000       0.00000000       0.00000000          1
H        11.26003996       7.41575186      13.20680331         0.00000000       0.00000000       0.00000000          1
H        11.79405678      11.10995578      11.91210368         0.00000000       0.00000000       0.00000000          1
6
pbc=[F, F, F] list_num_par=6 frozen=false iter=20000 energy=-1.26974174 Lattice="15.00000000 0.00000000 0.00000000 0.00000000 15.00000000 0.00000000 0.00000000 0.00000000 15.00000000" energy_frozen_part=0.00000000 Properties=species:S:1:pos:R:3:velocities:R:3:Z:I:1
H         7.24700480       6.92172152       7.91807174         0.00000000       0.00000000       0.00000000          1
H         5.85767272       8.60066814       9.66598453         0.00000000       0.00000000       0.00000000          1
H         7.00227420       7.27929273      11.84500505         0.00000000       0.00000000       0.00000000          1
H         5.61401521       5.82783370       9.90327978         0.00000000       0.00000000       0.00000000          1
H         8.39160241       5.60034298      10.09709121         0.00000000       0.00000000       0.00000000          1
H         8.63525938       8.37317797       9.85979696         0.00000000       0.00000000       0.00000000          1
6
pbc=[F, F, F] list_num_par=6 frozen=false iter=20000 energy=-1.26974174 Lattice="15.00000000 0.00000000 0.00000000 0.00000000 15.00000000 0.00000000 0.00000000 0.00000000 15.00000000" energy_frozen_part=0.00000000 Properties=species:S:1:pos:R:3:velocities:R:3:Z:I:1
H        11.70107595       9.89094120      14.42419176         0.00000000       0.00000000       0.00000000          1
H        13.47662230       8.95351212      12.48178307         0.00000000       0.00000000       0.00000000          1
H        11.35319052       8.63449794      10.69472772         0.00000000       0.00000000       0.00000000          1
H         9.57764797       9.57192284      12.63713840         0.00000000       0.00000000       0.00000000          1
H        11.25995269       7.41559288      13.20667031         0.00000000       0.00000000       0.00000000          1
H        11.79431966      11.10983817      11.91224797         0.00000000       0.00000000       0.00000000          1
6
pbc=[F, F, F] list_num_par=6 frozen=false iter=20000 energy=-1.26974174 Lattice="15.00000000 0.00000000 0.00000000 0.00000000 15.00000000 0.00000000 0.00000000 0.00000000 15.00000000" energy_frozen_part=0.00000000 Properties=species:S:1:pos:R:3:velocities:R:3:Z:I:1
H         7.24681987       6.92176208       7.91801741         0.00000000       0.00000000       0.00000000          1
H         5.85761572       8.60062762       9.66610820         0.00000000       0.00000000       0.00000000          1
H         7.00244683       7.27921803      11.84498869         0.00000000       0.00000000       0.00000000          1
H         5.61403999       5.82778657       9.90334576         0.00000000       0.00000000       0.00000000          1
H         8.39164588       5.60035213      10.09690512         0.00000000       0.00000000       0.00000000          1
H         8.63522399       8.37319482       9.85965814         0.00000000       0.00000000       0.00000000          1
6
pbc=[F, F, F] list_num_par=6 frozen=false iter=20000 energy=-1.26974174 Lattice="15.00000000 0.00000000 0.00000000 0.00000000 15.00000000 0.00000000 0.00000000 0.00000000 15.00000000" energy_frozen_part=0.00000000 Properties=species:S:1:pos:R:3:velocities:R:3:Z:I:1
H         7.24700936       6.92157463       7.91817184         0.00000000       0.00000000       0.00000000          1
H         5.85777842       8.60050022       9.66617941         0.00000000       0.00000000       0.00000000          1
H         7.00250299       7.27911178      11.84513197         0.00000000       0.00000000       0.00000000          1
H         5.61414461       5.82766430       9.90347009         0.00000000       0.00000000       0.00000000          1
H         8.39173310       5.60018160      10.09712417         0.00000000       0.00000000       0.00000000          1
H         8.63537386       8.37301516       9.85983606         0.00000000       0.00000000       0.00000000          1
6
pbc=[F, F, F] list_num_par=6 frozen=false iter=20000 energy=-1.26974174 Lattice="15.00000000 0.00000000 0.00000000 0.00000000 15.00000000 0.00000000 0.00000000 0.00000000 15.00000000" energy_frozen_part=0.00000000 Properties=species:S:1:pos:R:3:velocities:R:3:Z:I:1
H         7.24082130       6.92833977       7.91241312         0.00000000       0.00000000       0.00000000          1
H         5.84244150       8.59092142       9.66872984         0.00000000       0.00000000       0.00000000          1
H         6.99743902       7.26757755      11.84106298         0.00000000       0.00000000       0.00000000          1
H         5.61666985       5.81560475       9.89439070         0.00000000       0.00000000       0.00000000          1
H         8.39581825       5.60499550      10.08474564         0.00000000       0.00000000       0.00000000          1
H         8.62159122       8.38031487       9.85909125         0.00000000       0.00000000       0.00000000          1
6
pbc=[F, F, F] list_num_par=6 frozen=false iter=20000 energy=-1.26974174 Lattice="15.00000000 0.00000000 0.00000000 0.00000000 15.00000000 0.00000000 0.00000000 0.00000000 15.00000000" energy_frozen_part=0.00000000 Properties=species:S:1:pos:R:3:velocities:R:3:Z:I:1
H         7.24697844       6.92159023       7.91818090         0.00000000       0.00000000       0.00000000          1
H         5.85775473       8.60050870       9.66619810         0.00000000       0.00000000       0.00000000          1
H         7.00248472       7.27910312      11.84513598         0.00000000       0.00000000       0.00000000          1
H         5.61411074       5.82767459       9.90347123         0.00000000       0.00000000       0.00000000          1
H         8.39170738       5.60018561      10.09711843         0.00000000       0.00000000       0.00000000          1
H         8.63535480       8.37302100       9.85984097         0.00000000       0.00000000       0.00000000          1
6
pbc=[F, F, F] list_num_par=6 frozen=false iter=20000 energy=-1.26974174 Lattice="15.00000000 0.00000000 0.00000000 0.00000000 15.00000000 0.00000000 0.00000000 0.00000000 15.00000000" energy_frozen_part=0.00000000 Properties=species:S:1:pos:R:3:velocities:R:3:Z:I:1
H         7.24700054       6.92157867       7.91818296         0.00000000       0.00000000       0.00000000          1
H         5.85777081       8.60052285       9.66617409         0.00000000       0.00000000       0.00000000          1
H         7.00249453       7.27914061      11.84513323         0.00000000       0.00000000       0.00000000          1
H         5.61412166       5.82769067       9.90348159         0.00000000       0.00000000       0.00000000          1
H         8.39171926       5.60019361      10.09714050         0.00000000       0.00000000       0.00000000          1
H         8.63536914       8.37302591       9.85983547         0.00000000       0.00000000       0.00000000          1
6
pbc=[F, F, F] list_num_par=6 frozen=false iter=20000 energy=-1.26974174 Lattice="15.00000000 0.00000000 0.00000000 0.00000000 15.00000000 0.00000000 0.00000000 0.00000000 15.00000000" energy_frozen_part=0.00000000 Properties=species:S:1:pos:R:3:velocities:R:3:Z:I:1
H         7.24699404       6.92172706       7.91806011         0.00000000       0.00000000       0.00000000          1
H         5.85767352       8.60068373       9.66596229         0.00000000       0.00000000       0.00000000          1
H         7.00226739       7.27931125      11.84499148         0.00000000       0.00000000       0.00000000          1
H         5.61400999       5.82785236       9.90327260         0.00000000       0.00000000       0.00000000          1
H         8.39159311       5.60035666      10.09709155         0.00000000       0.00000000       0.00000000          1
H         8.63525976       8.37318663       9.85977741         0.00000000       0.00000000       0.00000000          1
6
pbc=[F, F, F] list_num_par=6 frozen=false iter=20000 energy=-1.26974174 Lattice="15.00000000 0.00000000 0.00000000 0.00000000 15.00000000 0.00000000 0.00000000 0.00000000 15.00000000" energy_frozen_part=0.00000000 Properties=species:S:1:pos:R:3:velocities:R:3:Z:I:1
H         7.24680858       6.92170495       7.91804393         0.00000000       0.00000000       0.00000000          1
H         5.85765895       8.60066072       9.66607957         0.00000000       0.00000000       0.00000000          1
H         7.00249052       7.27932121      11.84499966         0.00000000       0.00000000       0.00000000          1
H         5.61403972       5.82783031       9.90344051         0.00000000       0.00000000       0.00000000          1
H         8.39164299       5.60036098      10.09696447         0.00000000       0.00000000       0.00000000          1
H         8.63526704       8.37319316       9.85960970         0.00000000       0.00000000       0.00000000          1
6
pbc=[F, F, F] list_num_par=6 frozen=false iter=20000 energy=-1.26974174 Lattice="15.00000000 0.00000000 0.00000000 0.00000000 15.00000000 0.00000000 0.00000000 0.00000000 15.00000000" energy_frozen_part=0.00000000 Properties=species:S:1:pos:R:3:velocities:R:3:Z:I:1
H         7.24086208       6.92808252       7.91236317         0.00000000       0.00000000       0.00000000          1
H         5.84237250       8.59068113       9.66856979         0.00000000       0.00000000       0.00000000          1
H         6.99742325       7.26752091      11.84098492         0.00000000       0.00000000       0.00000000          1
H         5.61674784       5.81536351       9.89437739         0.00000000       0.00000000       0.00000000          1
H         8.39590891       5.60491521      10.08477287         0.00000000       0.00000000       0.00000000          1
H         8.62153800       8.38023758       9.85896716         0.00000000       0.00000000       0.00000000          1
6
pbc=[F, F, F] list_num_par=6 frozen=false iter=20000 energy=-1.26974174 Lattice="15.00000000 0.00000000 0.00000000 0.00000000 15.00000000 0.00000000 0.00000000 0.00000000 15.00000000" energy_frozen_part=0.00000000 Properties=species:S:1:pos:R:3:velocities:R:3:Z:I:1
H        11.70108214       9.89095579      14.42419108         0.00000000       0.00000000       0.00000000          1
H        13.47662960       8.95351080      12.48179783         0.00000000       0.00000000       0.00000000          1
H        11.35320641       8.63448404      10.69473560         0.00000000       0.00000000       0.00000000          1
H         9.57765574       9.57192605      12.63713553         0.00000000       0.00000000       0.00000000          1
H        11.25996052       7.41560271      13.20668902         0.00000000       0.00000000       0.00000000          1
H        11.79432736      11.10983902      11.91223572         0.00000000       0.00000000       0.00000000          1
6
pbc=[F, F, F] list_num_par=6 frozen=false iter=20000 energy=-1.26974174 Lattice="15.00000000 0.00000000 0.00000000 0.00000000 15.00000000 0.00000000 0.00000000 0.00000000 15.00000000" energy_frozen_part=0.00000000 Properties=species:S:1:pos:R:3:velocities:R:3:Z:I:1
H         7.24699874       6.92157904       7.91818792         0.00000000       0.00000000       0.00000000          1
H         5.85775470       8.60050809       9.66618200         0.00000000       0.00000000       0.00000000          1
H         7.00245444       7.27911193      11.84513633         0.00000000       0.00000000       0.00000000          1
H         5.61410881       5.82767206       9.90346485         0.00000000       0.00000000       0.00000000          1
H         8.39170675       5.60018542      10.09714612         0.00000000       0.00000000       0.00000000          1
H         8.63534364       8.37302475       9.85986228         0.00000000       0.00000000       0.00000000          1
6
pbc=[F, F, F] list_num_par=6 frozen=false iter=20000 energy=-1.26974174 Lattice="15.00000000 0.00000000 0.00000000 0.00000000 15.00000000 0.00000000 0.00000000 0.00000000 15.00000000" energy_frozen_part=0.00000000 Properties=species:S:1:pos:R:3:velocities:R:3:Z:I:1
H         7.24681602       6.92170561       7.91803724         0.00000000       0.00000000       0.00000000          1
H         5.85765125       8.60065594       9.66607655         0.00000000       0.00000000       0.00000000          1
H         7.00249128       7.27931062      11.84499579         0.00000000       0.00000000       0.00000000          1
H         5.61405022       5.82781686       9.90342537         0.00000000       0.00000000       0.00000000          1
H         8.39165667       5.60036939      10.09695218         0.00000000       0.00000000       0.00000000          1
H         8.63525514       8.37320244       9.85960663         0.00000000       0.00000000       0.00000000          1
6
pbc=[F, F, F] list_num_par=6 frozen=false iter=20000 energy=-1.26974174 Lattice="15.00000000 0.00000000 0.00000000 0.00000000 15.00000000 0.00000000 0.00000000 0.00000000 15.00000000" energy_frozen_part=0.00000000 Properties=species:S:1:pos:R:3:velocities:R:3:Z:I:1
H         7.24080690       6.92815930       7.91236343         0.00000000       0.00000000       0.00000000          1
H         5.84239081       8.59072640       9.66866347         0.00000000       0.00000000       0.00000000          1
H         6.99746466       7.26746062      11.84100534         0.00000000       0.00000000       0.00000000          1
H         5.61671679       5.81540696       9.89437498         0.00000000       0.00000000       0.00000000          1
H         8.39587644       5.60489438      10.08470443         0.00000000       0.00000000       0.00000000          1
H         8.62155657       8.38021180       9.85898656         0.00000000       0.00000000       0.00000000          1
6
pbc=[F, F, F] list_num_par=6 frozen=false iter=20000 energy=-1.26974174 Lattice="15.00000000 0.00000000 0.00000000 0.00000000 15.00000000 0.00000000 0.00000000 0.00000000 15.00000000" energy_frozen_part=0.00000000 Properties=species:S:1:pos:R:3:velocities:R:3:Z:I:1
H         7.24688789       6.92185009       7.91802794         0.00000000       0.00000000       0.00000000          1
H         5.85769283       8.60067816       9.66615230         0.00000000       0.00000000       0.00000000          1
H         7.00249539       7.27920590      11.84500627         0.00000000       0.00000000       0.00000000          1
H         5.61409082       5.82783095       9.90332059         0.00000000       0.00000000       0.00000000          1
H         8.39169309       5.60037060      10.09687678         0.00000000       0.00000000       0.00000000          1
H         8.63529500       8.37321954       9.85971318         0.00000000       0.00000000       0.00000000          1
6
pbc=[F, F, F] list_num_par=6 frozen=false iter=20000 energy=-1.26974174 Lattice="15.00000000 0.00000000 0.00000000 0.00000000 15.00000000 0.00000000 0.00000000 0.00000000 15.00000000" energy_frozen_part=0.00000000 Properties=species:S:1:pos:R:3:velocities:R:3:Z:I:1
H         7.24699592       6.92172249       7.91805961         0.00000000       0.00000000       0.00000000          1
H         5.85766975       8.60067884       9.66596677         0.00000000       0.00000000       0.00000000          1
H         7.00227800       7.27931636      11.84499730         0.00000000       0.00000000       0.00000000          1
H         5.61401356       5.82785175       9.90328067         0.00000000       0.00000000       0.00000000          1
H         8.39159237       5.60035506      10.09709166         0.00000000       0.00000000       0.00000000          1
H         8.63525641       8.37318778       9.85977512         0.00000000       0.00000000       0.00000000          1
6
pbc=[F, F, F] list_num_par=6 frozen=false iter=20000 energy=-1.26974174 Lattice="15.00000000 0.00000000 0.00000000 0.00000000 15.00000000 0.00000000 0.00000000 0.00000000 15.00000000" energy_frozen_part=0.00000000 Properties=species:S:1:pos:R:3:velocities:R:3:Z:I:1
H         7.24701333       6.92156486       7.91820586         0.00000000       0.00000000       0.00000000          1
H         5.85778752       8.60051464       9.66619392         0.00000000       0.00000000       0.00000000          1
H         7.00250491       7.27914338      11.84515878         0.00000000       0.00000000       0.00000000          1
H         5.61414418       5.82768204       9.90350871         0.00000000       0.00000000       0.00000000          1
H         8.39173178       5.60018813      10.09717211         0.00000000       0.00000000       0.00000000          1
H         8.63537884       8.37302133       9.85985399         0.00000000       0.00000000       0.00000000          1
6
pbc=[F, F, F] list_num_par=6 frozen=false iter=20000 energy=-1.26974174 Lattice="15.00000000 0.00000000 0.00000000 0.00000000 15.00000000 0.00000000 0.00000000 0.00000000 15.00000000" energy_frozen_part=0.00000000 Properties=species:S:1:pos:R:3:velocities:R:3:Z:I:1
H         7.24698829       6.92157345       7.91819437         0.00000000       0.00000000       0.00000000          1
H         5.85777357       8.60052323       9.66618387         0.00000000       0.00000000       0.00000000          1
H         7.00250039       7.27914532      11.84514068         0.00000000       0.00000000       0.00000000          1
H         5.61412210       5.82768956       9.90350168         0.00000000       0.00000000       0.00000000          1
H         8.39171669       5.60018763      10.09714671         0.00000000       0.00000000       0.00000000          1
H         8.63537246       8.37302195       9.85983361         0.00000000       0.00000000       0.00000000          1
6
pbc=[F, F, F] list_num_par=6 frozen=false iter=20000 energy=-1.26974174 Lattice="15.00000000 0.00000000 0.00000000 0.00000000 15.00000000 0.00000000 0.00000000 0.00000000 15.00000000" energy_frozen_part=0.00000000 Properties=species:S:1:pos:R:3:velocities:R:3:Z:I:1
H        11.70118374       9.89118665      14.42412606         0.00000000       0.00000000       0.00000000          1
H        13.47653617       8.95373128      12.48155552         0.00000000       0.00000000       0.00000000          1
H        11.35290289       8.63451687      10.69477914         0.00000000       0.00000000       0.00000000          1
H         9.57754968       9.57196935      12.63734817         0.00000000       0.00000000       0.00000000          1
H        11.26002903       7.41574970      13.20680701         0.00000000       0.00000000       0.00000000          1
H        11.79405521      11.10995407      11.91210423         0.00000000       0.00000000       0.00000000          1
6
pbc=[F, F, F] list_num_par=6 frozen=false iter=20000 energy=-1.26974174 Lattice="15.00000000 0.00000000 0.00000000 0.00000000 15.00000000 0.00000000 0.00000000 0.00000000 15.00000000" energy_frozen_part=0.00000000 Properties=species:S:1:pos:R:3:velocities:R:3:Z:I:1
H         7.24690137       6.92183974       7.91803145         0.00000000       0.00000000       0.00000000          1
H         5.85768593       8.60067546       9.66613606         0.00000000       0.00000000       0.00000000          1
H         7.00248011       7.27920888      11.84500276         0.00000000       0.00000000       0.00000000          1
H         5.61409464       5.82782355       9.90331714         0.00000000       0.00000000       0.00000000          1
H         8.39170240       5.60037223      10.09690022         0.00000000       0.00000000       0.00000000          1
H         8.63528899       8.37322147       9.85971677         0.00000000       0.00000000       0.00000000          1
6
pbc=[F, F, F] list_num_par=6 frozen=false iter=20000 energy=-1.26974174 Lattice="15.00000000 0.00000000 0.00000000 0.00000000 15.00000000 0.00000000 0.00000000 0.00000000 15.00000000" energy_frozen_part=0.00000000 Properties=species:S:1:pos:R:3:velocities:R:3:Z:I:1
H        11.70115383       9.89116399      14.42412647         0.00000000       0.00000000       0.00000000          1
H        13.47649625       8.95368924      12.48155816         0.00000000       0.00000000       0.00000000          1
H        11.35286191       8.63446499      10.69478635         0.00000000       0.00000000       0.00000000          1
H         9.57752066       9.57194156      12.63735384         0.00000000       0.00000000       0.00000000          1
H        11.25998546       7.41571823      13.20681998         0.00000000       0.00000000       0.00000000          1
H        11.79403516      11.10991249      11.91209576         0.00000000       0.00000000       0.00000000          1
6
pbc=[F, F, F] list_num_par=6 frozen=false iter=20000 energy=-1.26974174 Lattice="15.00000000 0.00000000 0.00000000 0.00000000 15.00000000 0.00000000 0.00000000 0.00000000 15.00000000" energy_frozen_part=0.00000000 Properties=species:S:1:pos:R:3:velocities:R:3:Z:I:1
H        11.70115204       9.89118168      14.42412130         0.00000000       0.00000000       0.00000000          1
H        13.47649673       8.95369240      12.48156043         0.00000000       0.00000000       0.00000000          1
H        11.35286424       8.63448322      10.69478316         0.00000000       0.00000000       0.00000000          1
H         9.57751788       9.57196896      12.63735010         0.00000000       0.00000000       0.00000000          1
H        11.25997473       7.41573476      13.20681516         0.00000000       0.00000000       0.00000000          1
H        11.79403853      11.10992686      11.91208505         0.00000000       0.00000000       0.00000000          1
6
pbc=[F, F, F] list_num_par=6 frozen=false iter=20000 energy=-1.26974174 Lattice="15.00000000 0.00000000 0.00000000 0.00000000 15.00000000 0.00000000 0.00000000 0.00000000 15.00000000" energy_frozen_part=0.00000000 Properties=species:S:1:pos:R:3:velocities:R:3:Z:I:1
H         7.24701430       6.92155730       7.91820788         0.00000000       0.00000000       0.00000000          1
H         5.85779231       8.60051509       9.66619394         0.00000000       0.00000000       0.00000000          1
H         7.00251108       7.27913953      11.84515224         0.00000000       0.00000000       0.00000000          1
H         5.61413268       5.82768610       9.90350840         0.00000000       0.00000000       0.00000000          1
H         8.39173083       5.60018431      10.09716743         0.00000000       0.00000000       0.00000000          1
H         8.63538999       8.37301433       9.85984861         0.00000000       0.00000000       0.00000000          1
6
pbc=[F, F, F] list_num_par=6 frozen=false iter=20000 energy=-1.26974174 Lattice="15.00000000 0.00000000 0.00000000 0.00000000 15.00000000 0.00000000 0.00000000 0.00000000 15.00000000" energy_frozen_part=0.00000000 Properties=species:S:1:pos:R:3:velocities:R:3:Z:I:1
H         7.24682609       6.92175650       7.91802264         0.00000000       0.00000000       0.00000000          1
H         5.85761887       8.60063003       9.66610049         0.00000000       0.00000000       0.00000000          1
H         7.00244464       7.27922738      11.84499030         0.00000000       0.00000000       0.00000000          1
H         5.61404311       5.82778124       9.90335330         0.00000000       0.00000000       0.00000000          1
H         8.39164927       5.60035174      10.09691084         0.00000000       0.00000000       0.00000000          1
H         8.63522613       8.37319254       9.85965954         0.00000000       0.00000000       0.00000000          1
6
pbc=[F, F, F] list_num_par=6 frozen=false iter=20000 energy=-1.26974174 Lattice="15.00000000 0.00000000 0.00000000 0.00000000 15.00000000 0.00000000 0.00000000 0.00000000 15.00000000" energy_frozen_part=0.00000000 Properties=species:S:1:pos:R:3:velocities:R:3:Z:I:1
H         7.24080407       6.92816674       7.91236019         0.00000000       0.00000000       0.00000000          1
H         5.84239407       8.59073173       9.66867108         0.00000000       0.00000000       0.00000000          1
H         6.99746469       7.26746126      11.84100166         0.00000000       0.00000000       0.00000000          1
H         5.61670896       5.81541219       9.89437255         0.00000000       0.00000000       0.00000000          1
H         8.39587509       5.60489228      10.08469603         0.00000000       0.00000000       0.00000000          1
H         8.62155691       8.38021427       9.85898769         0.00000000       0.00000000       0.00000000          1
6
pbc=[F, F, F] list_num_par=6 frozen=false iter=20000 energy=-1.26974174 Lattice="15.00000000 0.00000000 0.00000000 0.00000000 15.00000000 0.00000000 0.00000000 0.00000000 15.00000000" energy_frozen_part=0.00000000 Properties=species:S:1:pos:R:3:velocities:R:3:Z:I:1
H         7.24079307       6.92811954       7.91236996         0.00000000       0.00000000       0.00000000          1
H         5.84237090       8.59070524       9.66864203         0.00000000       0.00000000       0.00000000          1
H         6.99745376       7.26748445      11.84100490         0.00000000       0.00000000       0.00000000          1
H         5.61671247       5.81538575       9.89440495         0.00000000       0.00000000       0.00000000          1
H         8.39588198       5.60490059      10.08473154         0.00000000       0.00000000       0.00000000          1
H         8.62153107       8.38021961       9.85896491         0.00000000       0.00000000       0.00000000          1
6
pbc=[F, F, F] list_num_par=6 frozen=false iter=20000 energy=-1.26974174 Lattice="15.00000000 0.00000000 0.00000000 0.00000000 15.00000000 0.00000000 0.00000000 0.00000000 15.00000000" energy_frozen_part=0.00000000 Properties=species:S:1:pos:R:3:velocities:R:3:Z:I:1
H         7.24700400       6.92157042       7.91817198         0.00000000       0.00000000       0.00000000          1
H         5.85778149       8.60050313       9.66617800         0.00000000       0.00000000       0.00000000          1
H         7.00250962       7.27911874      11.84512848         0.00000000       0.00000000       0.00000000          1
H         5.61413848       5.82767262       9.90347504         0.00000000       0.00000000       0.00000000          1
H         8.39173289       5.60017843      10.09712132         0.00000000       0.00000000       0.00000000          1
H         8.63537482       8.37301122       9.85982973         0.00000000       0.00000000       0.00000000          1
6
pbc=[F, F, F] list_num_par=6 frozen=false iter=20000 energy=-1.26974174 Lattice="15.00000000 0.00000000 0.00000000 0.00000000 15.00000000 0.00000000 0.00000000 0.00000000 15.00000000" energy_frozen_part=0.00000000 Properties=species:S:1:pos:R:3:velocities:R:3:Z:I:1
H         7.24690793       6.92184338       7.91803376         0.00000000       0.00000000       0.00000000          1
H         5.85769534       8.60066862       9.66615455         0.00000000       0.00000000       0.00000000          1
H         7.00250905       7.27919973      11.84500378         0.00000000       0.00000000       0.00000000          1
H         5.61411261       5.82781528       9.90332301         0.00000000       0.00000000       0.00000000          1
H         8.39172180       5.60037514      10.09688719         0.00000000       0.00000000       0.00000000          1
H         8.63530040       8.37323079       9.85971180         0.00000000       0.00000000       0.00000000          1
6
pbc=[F, F, F] list_num_par=6 frozen=false iter=20000 energy=-1.26974174 Lattice="15.00000000 0.00000000 0.00000000 0.00000000 15.00000000 0.00000000 0.00000000 0.00000000 15.00000000" energy_frozen_part=0.00000000 Properties=species:S:1:pos:R:3:velocities:R:3:Z:I:1
H         7.24698005       6.92159201       7.91817645         0.00000000       0.00000000       0.00000000          1
H         5.85776157       8.60051174       9.66619424         0.00000000       0.00000000       0.00000000          1
H         7.00249051       7.27911049      11.84513097         0.00000000       0.00000000       0.00000000          1
H         5.61411176       5.82767785       9.90346935         0.00000000       0.00000000       0.00000000          1
H         8.39170483       5.60018138      10.09711036         0.00000000       0.00000000       0.00000000          1
H         8.63535830       8.37302055       9.85984186         0.00000000       0.00000000       0.00000000          1
6
pbc=[F, F, F] list_num_par=6 frozen=false iter=20000 energy=-1.26974174 Lattice="15.00000000 0.00000000 0.00000000 0.00000000 15.00000000 0.00000000 0.00000000 0.00000000 15.00000000" energy_frozen_part=0.00000000 Properties=species:S:1:pos:R:3:velocities:R:3:Z:I:1
H         7.24683005       6.92174897       7.91802268         0.00000000       0.00000000       0.00000000          1
H         5.85761415       8.60062827       9.66609629         0.00000000       0.00000000       0.00000000          1
H         7.00243835       7.27922151      11.84498685         0.00000000       0.00000000       0.00000000          1
H         5.61404280       5.82778014       9.90334624         0.00000000       0.00000000       0.00000000          1
H         8.39165054       5.60034951      10.09691344         0.00000000       0.00000000       0.00000000          1
H         8.63522126       8.37319581       9.85966039         0.00000000       0.00000000       0.00000000          1
6
pbc=[F, F, F] list_num_par=6 frozen=false iter=20000 energy=-1.26974174 Lattice="15.00000000 0.00000000 0.00000000 0.00000000 15.00000000 0.00000000 0.00000000 0.00000000 15.00000000" energy_frozen_part=0.00000000 Properties=species:S:1:pos:R:3:velocities:R:3:Z:I:1
H        11.70115548       9.89116183      14.42412759         0.00000000       0.00000000       0.00000000          1
H        13.47650020       8.95369004      12.48156185         0.00000000       0.00000000       0.00000000          1
H        11.35286674       8.63446791      10.69479151         0.00000000       0.00000000       0.00000000          1
H         9.57751723       9.57193708      12.63735952         0.00000000       0.00000000       0.00000000          1
H        11.25998495       7.41571860      13.20681958         0.00000000       0.00000000       0.00000000          1
H        11.79403041      11.10991270      11.91209700         0.00000000       0.00000000       0.00000000          1
6
pbc=[F, F, F] list_num_par=6 frozen=false iter=20000 energy=-1.26974174 Lattice="15.00000000 0.00000000 0.00000000 0.00000000 15.00000000 0.00000000 0.00000000 0.00000000 15.00000000" energy_frozen_part=0.00000000 Properties=species:S:1:pos:R:3:velocities:R:3:Z:I:1
H         7.24678299       6.92167148       7.91803161         0.00000000       0.00000000       0.00000000          1
H         5.85764976       8.60064470       9.66606999         0.00000000       0.00000000       0.00000000          1
H         7.00248908       7.27929323      11.84498594         0.00000000       0.00000000       0.00000000          1
H         5.61401977       5.82781124       9.90343249         0.00000000       0.00000000       0.00000000          1
H         8.39162432       5.60032476      10.09694286         0.00000000       0.00000000       0.00000000          1
H         8.63525389       8.37315100       9.85958414         0.00000000       0.00000000       0.00000000          1
6
pbc=[F, F, F] list_num_par=6 frozen=false iter=20000 energy=-1.26974174 Lattice="15.00000000 0.00000000 0.00000000 0.00000000 15.00000000 0.00000000 0.00000000 0.00000000 15.00000000" energy_frozen_part=0.00000000 Properties=species:S:1:pos:R:3:velocities:R:3:Z:I:1
H        11.70118106       9.89117165      14.42413397         0.00000000       0.00000000       0.00000000          1
H        13.47651492       8.95370962      12.48155352         0.00000000       0.00000000       0.00000000          1
H        11.35287644       8.63451576      10.69478468         0.00000000       0.00000000       0.00000000          1
H         9.57753999       9.57198022      12.63736600         0.00000000       0.00000000       0.00000000          1
H        11.26000147       7.41574385      13.20680850         0.00000000       0.00000000       0.00000000          1
H        11.79405490      11.10994454      11.91211343         0.00000000       0.00000000       0.00000000          1
6
pbc=[F, F, F] list_num_par=6 frozen=false iter=20000 energy=-1.26974174 Lattice="15.00000000 0.00000000 0.00000000 0.00000000 15.00000000 0.00000000 0.00000000 0.00000000 15.00000000" energy_frozen_part=0.00000000 Properties=species:S:1:pos:R:3:velocities:R:3:Z:I:1
H         7.24680432       6.92169145       7.91804282         0.00000000       0.00000000       0.00000000          1
H         5.85766000       8.60064946       9.66608397         0.00000000       0.00000000       0.00000000          1
H         7.00248533       7.27929631      11.84499570         0.00000000       0.00000000       0.00000000          1
H         5.61402933       5.82781782       9.90343286         0.00000000       0.00000000       0.00000000          1
H         8.39163212       5.60033522      10.09695562         0.00000000       0.00000000       0.00000000          1
H         8.63526719       8.37316664       9.85960495         0.00000000       0.00000000       0.00000000          1
6
pbc=[F, F, F] list_num_par=6 frozen=false iter=20000 energy=-1.26974174 Lattice="15.00000000 0.00000000 0.00000000 0.00000000 15.00000000 0.00000000 0.00000000 0.00000000 15.00000000" energy_frozen_part=0.00000000 Properties=species:S:1:pos:R:3:velocities:R:3:Z:I:1
H        11.70119101       9.89118819      14.42413896         0.00000000       0.00000000       0.00000000          1
H        13.47653723       8.95372886      12.48156157         0.00000000       0.00000000       0.00000000          1
H        11.35290665       8.63451400      10.69478703         0.00000000       0.00000000       0.00000000          1
H         9.57755286       9.57197288      12.63736050         0.00000000       0.00000000       0.00000000          1
H        11.26002769       7.41575535      13.20681628         0.00000000       0.00000000       0.00000000          1
H        11.79406480      11.10995127      11.91210991         0.00000000       0.00000000       0.00000000          1
6
pbc=[F, F, F] list_num_par=6 frozen=false iter=20000 energy=-1.26974174 Lattice="15.00000000 0.00000000 0.00000000 0.00000000 15.00000000 0.00000000 0.00000000 0.00000000 15.00000000" energy_frozen_part=0.00000000 Properties=species:S:1:pos:R:3:velocities:R:3:Z:I:1
H         7.24688778       6.92182804       7.91803475         0.00000000       0.00000000       0.00000000          1
H         5.85768359       8.60066734       9.66614417         0.00000000       0.00000000       0.00000000          1
H         7.00249840       7.27921663      11.84500243         0.00000000       0.00000000       0.00000000          1
H         5.61409880       5.82781690       9.90333612         0.00000000       0.00000000       0.00000000          1
H         8.39170005       5.60037101      10.09689863         0.00000000       0.00000000       0.00000000          1
H         8.63529265       8.37321990       9.85969939         0.00000000       0.00000000       0.00000000          1
6
pbc=[F, F, F] list_num_par=6 frozen=false iter=20000 energy=-1.26974174 Lattice="15.00000000 0.00000000 0.00000000 0.00000000 15.00000000 0.00000000 0.00000000 0.00000000 15.00000000" energy_frozen_part=0.00000000 Properties=species:S:1:pos:R:3:velocities:R:3:Z:I:1
H         7.24086689       6.92808922       7.91235424         0.00000000       0.00000000       0.00000000          1
H         5.84237873       8.59068726       9.66857485         0.00000000       0.00000000       0.00000000          1
H         6.99742980       7.26751018      11.84098355         0.00000000       0.00000000       0.00000000          1
H         5.61675104       5.81536912       9.89437474         0.00000000       0.00000000       0.00000000          1
H         8.39591383       5.60491745      10.08476590         0.00000000       0.00000000       0.00000000          1
H         8.62154430       8.38023430       9.85896789         0.00000000       0.00000000       0.00000000          1
6
pbc=[F, F, F] list_num_par=6 frozen=false iter=20000 energy=-1.26974174 Lattice="15.00000000 0.00000000 0.00000000 0.00000000 15.00000000 0.00000000 0.00000000 0.00000000 15.00000000" energy_frozen_part=0.00000000 Properties=species:S:1:pos:R:3:velocities:R:3:Z:I:1
H         7.24690988       6.92182835       7.91802807         0.00000000       0.00000000       0.00000000          1
H         5.85768965       8.60066849       9.66612674         0.00000000       0.00000000       0.00000000          1
H         7.00247973       7.27920732      11.84500063         0.00000000       0.00000000       0.00000000          1
H         5.61409977       5.82781914       9.90331215         0.00000000       0.00000000       0.00000000          1
H         8.39170422       5.60037032      10.09689383         0.00000000       0.00000000       0.00000000          1
H         8.63529332       8.37321825       9.85971406         0.00000000       0.00000000       0.00000000          1
6
pbc=[F, F, F] list_num_par=6 frozen=false iter=20000 energy=-1.26974174 Lattice="15.00000000 0.00000000 0.00000000 0.00000000 15.00000000 0.00000000 0.00000000 0.00000000 15.00000000" energy_frozen_part=0.00000000 Properties=species:S:1:pos:R:3:velocities:R:3:Z:I:1
H         7.24082867       6.92835109       7.91241589         0.00000000       0.00000000       0.00000000          1
H         5.84245285       8.59093094       9.66873021         0.00000000       0.00000000       0.00000000          1
H         6.99743689       7.26757185      11.84105585         0.00000000       0.00000000       0.00000000          1
H         5.61665650       5.81561399       9.89437922         0.00000000       0.00000000       0.00000000          1
H         8.39581079       5.60499292      10.08474285         0.00000000       0.00000000       0.00000000          1
H         8.62160519       8.38030946       9.85909218         0.00000000       0.00000000       0.00000000          1
6
pbc=[F, F, F] list_num_par=6 frozen=false iter=20000 energy=-1.26974174 Lattice="15.00000000 0.00000000 0.00000000 0.00000000 15.00000000 0.00000000 0.00000000 0.00000000 15.00000000" energy_frozen_part=0.00000000 Properties=species:S:1:pos:R:3:velocities:R:3:Z:I:1
H         7.24689378       6.92182776       7.91804443         0.00000000       0.00000000       0.00000000          1
H         5.85767149       8.60065527       9.66615099         0.00000000       0.00000000       0.00000000          1
H         7.00248319       7.27920334      11.84501662         0.00000000       0.00000000       0.00000000          1
H         5.61409906       5.82780655       9.90333199         0.00000000       0.00000000       0.00000000          1
H         8.39170125       5.60037520      10.09691042         0.00000000       0.00000000       0.00000000          1
H         8.63527354       8.37322726       9.85972045         0.00000000       0.00000000       0.00000000          1
6
pbc=[F, F, F] list_num_par=6 frozen=false iter=20000 energy=-1.26974174 Lattice="15.00000000 0.00000000 0.00000000 0.00000000 15.00000000 0.00000000 0.00000000 0.00000000 15.00000000" energy_frozen_part=0.00000000 Properties=species:S:1:pos:R:3:velocities:R:3:Z:I:1
H         7.24688116       6.92183215       7.91802734         0.00000000       0.00000000       0.00000000          1
H         5.85767976       8.60066069       9.66614651         0.00000000       0.00000000       0.00000000          1
H         7.00250403       7.27919850      11.84499733         0.00000000       0.00000000       0.00000000          1
H         5.61409547       5.82781155       9.90332823         0.00000000       0.00000000       0.00000000          1
H         8.39170071       5.60036666      10.09688003         0.00000000       0.00000000       0.00000000          1
H         8.63528611       8.37322237       9.85969851         0.00000000       0.00000000       0.00000000          1
6
pbc=[F, F, F] list_num_par=6 frozen=false iter=20000 energy=-1.26974174 Lattice="15.00000000 0.00000000 0.00000000 0.00000000 15.00000000 0.00000000 0.00000000 0.00000000 15.00000000" energy_frozen_part=0.00000000 Properties=species:S:1:pos:R:3:velocities:R:3:Z:I:1
H         7.24690502       6.92184108       7.91803093         0.00000000       0.00000000       0.00000000          1
H         5.85769527       8.60066297       9.66615523         0.00000000       0.00000000       0.00000000          1
H         7.00250702       7.27919141      11.84500536         0.00000000       0.00000000       0.00000000          1
H         5.61411539       5.82781131       9.90332529         0.00000000       0.00000000       0.00000000          1
H         8.39171782       5.60037051      10.09688393         0.00000000       0.00000000       0.00000000          1
H         8.63529629       8.37322154       9.85971871         0.00000000       0.00000000       0.00000000          1
6
pbc=[F, F, F] list_num_par=6 frozen=false iter=20000 energy=-1.26974174 Lattice="15.00000000 0.00000000 0.00000000 0.00000000 15.00000000 0.00000000 0.00000000 0.00000000 15.00000000" energy_frozen_part=0.00000000 Properties=species:S:1:pos:R:3:velocities:R:3:Z:I:1
H         7.24698828       6.92157164       7.91818853         0.00000000       0.00000000       0.00000000          1
H         5.85777519       8.60052193       9.66618940         0.00000000       0.00000000       0.00000000          1
H         7.00250736       7.27914162      11.84513594         0.00000000       0.00000000       0.00000000          1
H         5.61412102       5.82769108       9.90349526         0.00000000       0.00000000       0.00000000          1
H         8.39171459       5.60019007      10.09714145         0.00000000       0.00000000       0.00000000          1
H         8.63537469       8.37302421       9.85982643         0.00000000       0.00000000       0.00000000          1
6
pbc=[F, F, F] list_num_par=6 frozen=false iter=20000 energy=-1.26974174 Lattice="15.00000000 0.00000000 0.00000000 0.00000000 15.00000000 0.00000000 0.00000000 0.00000000 15.00000000" energy_frozen_part=0.00000000 Properties=species:S:1:pos:R:3:velocities:R:3:Z:I:1
H         7.24678334       6.92166605       7.91802430         0.00000000       0.00000000       0.00000000          1
H         5.85764713       8.60063599       9.66606831         0.00000000       0.00000000       0.00000000          1
H         7.00249192       7.27929095      11.84498249         0.00000000       0.00000000       0.00000000          1
H         5.61402048       5.82780898       9.90343213         0.00000000       0.00000000       0.00000000          1
H         8.39162261       5.60031975      10.09694085         0.00000000       0.00000000       0.00000000          1
H         8.63525287       8.37315488       9.85957922         0.00000000       0.00000000       0.00000000          1
6
pbc=[F, F, F] list_num_par=6 frozen=false iter=20000 energy=-1.26974174 Lattice="15.00000000 0.00000000 0.00000000 0.00000000 15.00000000 0.00000000 0.00000000 0.00000000 15.00000000" energy_frozen_part=0.00000000 Properties=species:S:1:pos:R:3:velocities:R:3:Z:I:1
H        11.70115312       9.89116148      14.42411479         0.00000000       0.00000000       0.00000000          1
H        13.47650901       8.95368461      12.48155647         0.00000000       0.00000000       0.00000000          1
H        11.35288368       8.63448671      10.69476972         0.00000000       0.00000000       0.00000000          1
H         9.57752450       9.57196703      12.63732479         0.00000000       0.00000000       0.00000000          1
H        11.25997302       7.41573001      13.20679924         0.00000000       0.00000000       0.00000000          1
H        11.79405756      11.10992098      11.91209081         0.00000000       0.00000000       0.00000000          1
6
pbc=[F, F, F] list_num_par=6 frozen=false iter=20000 energy=-1.26974174 Lattice="15.00000000 0.00000000 0.00000000 0.00000000 15.00000000 0.00000000 0.00000000 0.00000000 15.00000000" energy_frozen_part=0.00000000 Properties=species:S:1:pos:R:3:velocities:R:3:Z:I:1
H         7.24698852       6.92159193       7.91818405         0.00000000       0.00000000       0.00000000          1
H         5.85776724       8.60051639       9.66619975         0.00000000       0.00000000       0.00000000          1
H         7.00248833       7.27911576      11.84514025         0.00000000       0.00000000       0.00000000          1
H         5.61411638       5.82768105       9.90347122         0.00000000       0.00000000       0.00000000          1
H         8.39170926       5.60018585      10.09712891         0.00000000       0.00000000       0.00000000          1
H         8.63536431       8.37301942       9.85984930         0.00000000       0.00000000       0.00000000          1
6
pbc=[F, F, F] list_num_par=6 frozen=false iter=20000 energy=-1.26974174 Lattice="15.00000000 0.00000000 0.00000000 0.00000000 15.00000000 0.00000000 0.00000000 0.00000000 15.00000000" energy_frozen_part=0.00000000 Properties=species:S:1:pos:R:3:velocities:R:3:Z:I:1
H         7.24688926       6.92182802       7.91803690         0.00000000       0.00000000       0.00000000          1
H         5.85768356       8.60066471       9.66614830         0.00000000       0.00000000       0.00000000          1
H         7.00250247       7.27920772      11.84501043         0.00000000       0.00000000       0.00000000          1
H         5.61409815       5.82781269       9.90333835         0.00000000       0.00000000       0.00000000          1
H         8.39170737       5.60037064      10.09689735         0.00000000       0.00000000       0.00000000          1
H         8.63529169       8.37322084       9.85970848         0.00000000       0.00000000       0.00000000          1
6
pbc=[F, F, F] list_num_par=6 frozen=false iter=20000 energy=-1.26974174 Lattice="15.00000000 0.00000000 0.00000000 0.00000000 15.00000000 0.00000000 0.00000000 0.00000000 15.00000000" energy_frozen_part=0.00000000 Properties=species:S:1:pos:R:3:velocities:R:3:Z:I:1
H        11.70115545       9.89117281      14.42411903         0.00000000       0.00000000       0.00000000          1
H        13.47650758       8.95369452      12.48155567         0.00000000       0.00000000       0.00000000          1
H        11.35287502       8.63448378      10.69477413         0.00000000       0.00000000       0.00000000          1
H         9.57752806       9.57196716      12.63733648         0.00000000       0.00000000       0.00000000          1
H        11.25998324       7.41573267      13.20680342         0.00000000       0.00000000       0.00000000          1
H        11.79405594      11.10992681      11.91208473         0.00000000       0.00000000       0.00000000          1
6
pbc=[F, F, F] list_num_par=6 frozen=false iter=20000 energy=-1.26974174 Lattice="15.00000000 0.00000000 0.00000000 0.00000000 15.00000000 0.00000000 0.00000000 0.00000000 15.00000000" energy_frozen_part=0.00000000 Properties=species:S:1:pos:R:3:velocities:R:3:Z:I:1
H         7.24681815       6.92170963       7.91803705         0.00000000       0.00000000       0.00000000          1
H         5.85765045       8.60065195       9.66607917         0.00000000       0.00000000       0.00000000          1
H         7.00249846       7.27931312      11.84499585         0.00000000       0.00000000       0.00000000          1
H         5.61404962       5.82782295       9.90342693         0.00000000       0.00000000       0.00000000          1
H         8.39165790       5.60036775      10.09695279         0.00000000       0.00000000       0.00000000          1
H         8.63526016       8.37320051       9.85960618         0.00000000       0.00000000       0.00000000          1
6
pbc=[F, F, F] list_num_par=6 frozen=false iter=20000 energy=-1.26974174 Lattice="15.00000000 0.00000000 0.00000000 0.00000000 15.00000000 0.00000000 0.00000000 0.00000000 15.00000000" energy_frozen_part=0.00000000 Properties=species:S:1:pos:R:3:velocities:R:3:Z:I:1
H         7.24702445       6.92171256       7.91808754         0.00000000       0.00000000       0.00000000          1
H         5.85766235       8.60065221       9.66597671         0.00000000       0.00000000       0.00000000          1
H         7.00225273       7.27929578      11.84501948         0.00000000       0.00000000       0.00000000          1
H         5.61403147       5.82782070       9.90328651         0.00000000       0.00000000       0.00000000          1
H         8.39161479       5.60035367      10.09712831         0.00000000       0.00000000       0.00000000          1
H         8.63524983       8.37319095       9.85982409         0.00000000       0.00000000       0.00000000          1
6
pbc=[F, F, F] list_num_par=6 frozen=false iter=20000 energy=-1.26974174 Lattice="15.00000000 0.00000000 0.00000000 0.00000000 15.00000000 0.00000000 0.00000000 0.00000000 15.00000000" energy_frozen_part=0.00000000 Properties=species:S:1:pos:R:3:velocities:R:3:Z:I:1
H         7.24080493       6.92810453       7.91236621         0.00000000       0.00000000       0.00000000          1
H         5.84237559       8.59069819       9.66862923         0.00000000       0.00000000       0.00000000          1
H         6.99744792       7.26749102      11.84100200         0.00000000       0.00000000       0.00000000          1
H         5.61670966       5.81538036       9.89440030         0.00000000       0.00000000       0.00000000          1
H         8.39587451       5.60489234      10.08474013         0.00000000       0.00000000       0.00000000          1
H         8.62153932       8.38021209       9.85896404         0.00000000       0.00000000       0.00000000          1
6
pbc=[F, F, F] list_num_par=6 frozen=false iter=20000 energy=-1.26974174 Lattice="15.00000000 0.00000000 0.00000000 0.00000000 15.00000000 0.00000000 0.00000000 0.00000000 15.00000000" energy_frozen_part=0.00000000 Properties=species:S:1:pos:R:3:velocities:R:3:Z:I:1
H         7.24700726       6.92171650       7.91806865         0.00000000       0.00000000       0.00000000          1
H         5.85766886       8.60066649       9.66596868         0.00000000       0.00000000       0.00000000          1
H         7.00227164       7.27930962      11.84500424         0.00000000       0.00000000       0.00000000          1
H         5.61402267       5.82783745       9.90328313         0.00000000       0.00000000       0.00000000          1
H         8.39160280       5.60036108      10.09710352         0.00000000       0.00000000       0.00000000          1
H         8.63525467       8.37319152       9.85978584         0.00000000       0.00000000       0.00000000          1
6
pbc=[F, F, F] list_num_par=6 frozen=false iter=20000 energy=-1.26974174 Lattice="15.00000000 0.00000000 0.00000000 0.00000000 15.00000000 0.00000000 0.00000000 0.00000000 15.00000000" energy_frozen_part=0.00000000 Properties=species:S:1:pos:R:3:velocities:R:3:Z:I:1
H        11.70119141       9.89117071      14.42413388         0.00000000       0.00000000       0.00000000          1
H        13.47651433       8.95368873      12.48154822         0.00000000       0.00000000       0.00000000          1
H        11.35286440       8.63449601      10.69479116         0.00000000       0.00000000       0.00000000          1
H         9.57754560       9.57198187      12.63737612         0.00000000       0.00000000       0.00000000          1
H        11.25999528       7.41573530      13.20682207         0.00000000       0.00000000       0.00000000          1
H        11.79406864      11.10993032      11.91210487         0.00000000       0.00000000       0.00000000          1
6
pbc=[F, F, F] list_num_par=6 frozen=false iter=20000 energy=-1.26974174 Lattice="15.00000000 0.00000000 0.00000000 0.00000000 15.00000000 0.00000000 0.00000000 0.00000000 15.00000000" energy_frozen_part=0.00000000 Properties=species:S:1:pos:R:3:velocities:R:3:Z:I:1
H         7.24690274       6.92184201       7.91803074         0.00000000       0.00000000       0.00000000          1
H         5.85768751       8.60066069       9.66615479         0.00000000       0.00000000       0.00000000          1
H         7.00250077       7.27918833      11.84500746         0.00000000       0.00000000       0.00000000          1
H         5.61410608       5.82781125       9.90332080         0.00000000       0.00000000       0.00000000          1
H         8.39171472       5.60036901      10.09688415         0.00000000       0.00000000       0.00000000          1
H         8.63529559       8.37321672       9.85971806         0.00000000       0.00000000       0.00000000          1
6
pbc=[F, F, F] list_num_par=6 frozen=false iter=20000 energy=-1.26974174 Lattice="15.00000000 0.00000000 0.00000000 0.00000000 15.00000000 0.00000000 0.00000000 0.00000000 15.00000000" energy_frozen_part=0.00000000 Properties=species:S:1:pos:R:3:velocities:R:3:Z:I:1
H         7.24702644       6.92170599       7.91808834         0.00000000       0.00000000       0.00000000          1
H         5.85766662       8.60065038       9.66597769         0.00000000       0.00000000       0.00000000          1
H         7.00225843       7.27929666      11.84501976         0.00000000       0.00000000       0.00000000          1
H         5.61402838       5.82781636       9.90329024         0.00000000       0.00000000       0.00000000          1
H         8.39161203       5.60034660      10.09712822         0.00000000       0.00000000       0.00000000          1
H         8.63525050       8.37318569       9.85982298         0.00000000       0.00000000       0.00000000          1
6
pbc=[F, F, F] list_num_par=6 frozen=false iter=20000 energy=-1.26974174 Lattice="15.00000000 0.00000000 0.00000000 0.00000000 15.00000000 0.00000000 0.00000000 0.00000000 15.00000000" energy_frozen_part=0.00000000 Properties=species:S:1:pos:R:3:velocities:R:3:Z:I:1
H        11.70118742       9.89118495      14.42412971         0.00000000       0.00000000       0.00000000          1
H        13.47653576       8.95372727      12.48154922         0.00000000       0.00000000       0.00000000          1
H        11.35289969       8.63451641      10.69477683         0.00000000       0.00000000       0.00000000          1
H         9.57755213       9.57197046      12.63735546         0.00000000       0.00000000       0.00000000          1
H        11.26002496       7.41575106      13.20680207         0.00000000       0.00000000       0.00000000          1
H        11.79406286      11.10995015      11.91211038         0.00000000       0.00000000       0.00000000          1
6
pbc=[F, F, F] list_num_par=6 frozen=false iter=20000 energy=-1.26974174 Lattice="15.00000000 0.00000000 0.00000000 0.00000000 15.00000000 0.00000000 0.00000000 0.00000000 15.00000000" energy_frozen_part=0.00000000 Properties=species:S:1:pos:R:3:velocities:R:3:Z:I:1
H         7.24681135       6.92167343       7.91802581         0.00000000       0.00000000       0.00000000          1
H         5.85767426       8.60064487       9.66606368         0.00000000       0.00000000       0.00000000          1
H         7.00250929       7.27929743      11.84498208         0.00000000       0.00000000       0.00000000          1
H         5.61403775       5.82781502       9.90342895         0.00000000       0.00000000       0.00000000          1
H         8.39164815       5.60032895      10.09694239         0.00000000       0.00000000       0.00000000          1
H         8.63527883       8.37316037       9.85957693         0.00000000       0.00000000       0.00000000          1
6
pbc=[F, F, F] list_num_par=6 frozen=false iter=20000 energy=-1.26974174 Lattice="15.00000000 0.00000000 0.00000000 0.00000000 15.00000000 0.00000000 0.00000000 0.00000000 15.00000000" energy_frozen_part=0.00000000 Properties=species:S:1:pos:R:3:velocities:R:3:Z:I:1
H         7.24681403       6.92170044       7.91803105         0.00000000       0.00000000       0.00000000          1
H         5.85764637       8.60065582       9.66606970         0.00000000       0.00000000       0.00000000          1
H         7.00247880       7.27931579      11.84498895         0.00000000       0.00000000       0.00000000          1
H         5.61404038       5.82782453       9.90341957         0.00000000       0.00000000       0.00000000          1
H         8.39164555       5.60036449      10.09695659         0.00000000       0.00000000       0.00000000          1
H         8.63525030       8.37319903       9.85959763         0.00000000       0.00000000       0.00000000          1
6
pbc=[F, F, F] list_num_par=6 frozen=false iter=20000 energy=-1.26974174 Lattice="15.00000000 0.00000000 0.00000000 0.00000000 15.00000000 0.00000000 0.00000000 0.00000000 15.00000000" energy_frozen_part=0.00000000 Properties=species:S:1:pos:R:3:velocities:R:3:Z:I:1
H         7.24699897       6.92171396       7.91807738         0.00000000       0.00000000       0.00000000          1
H         5.85766870       8.60066059       9.66598265         0.00000000       0.00000000       0.00000000          1
H         7.00227486       7.27930493      11.84500671         0.00000000       0.00000000       0.00000000          1
H         5.61402428       5.82782436       9.90329602         0.00000000       0.00000000       0.00000000          1
H         8.39161029       5.60035887      10.09710439         0.00000000       0.00000000       0.00000000          1
H         8.63525261       8.37319216       9.85978975         0.00000000       0.00000000       0.00000000          1
6
pbc=[F, F, F] list_num_par=6 frozen=false iter=20000 energy=-1.26974174 Lattice="15.00000000 0.00000000 0.00000000 0.00000000 15.00000000 0.00000000 0.00000000 0.00000000 15.00000000" energy_frozen_part=0.00000000 Properties=species:S:1:pos:R:3:velocities:R:3:Z:I:1
H         7.24699577       6.92171134       7.91807634         0.00000000       0.00000000       0.00000000          1
H         5.85766851       8.60066926       9.66597555         0.00000000       0.00000000       0.00000000          1
H         7.00227425       7.27931255      11.84500654         0.00000000       0.00000000       0.00000000          1
H         5.61401916       5.82783297       9.90329080         0.00000000       0.00000000       0.00000000          1
H         8.39160285       5.60035644      10.09710471         0.00000000       0.00000000       0.00000000          1
H         8.63525407       8.37318984       9.85978815         0.00000000       0.00000000       0.00000000          1
6
pbc=[F, F, F] list_num_par=6 frozen=false iter=20000 energy=-1.26974174 Lattice="15.00000000 0.00000000 0.00000000 0.00000000 15.00000000 0.00000000 0.00000000 0.00000000 15.00000000" energy_frozen_part=0.00000000 Properties=species:S:1:pos:R:3:velocities:R:3:Z:I:1
H        11.70119557       9.89116497      14.42412939         0.00000000       0.00000000       0.00000000          1
H        13.47652268       8.95369484      12.48154259         0.00000000       0.00000000       0.00000000          1
H        11.35287646       8.63450071      10.69477922         0.00000000       0.00000000       0.00000000          1
H         9.57755165       9.57197221      12.63736799         0.00000000       0.00000000       0.00000000          1
H        11.26000415       7.41573256      13.20680828         0.00000000       0.00000000       0.00000000          1
H        11.79406802      11.10992990      11.91210273         0.00000000       0.00000000       0.00000000          1
6
pbc=[F, F, F] list_num_par=6 frozen=false iter=20000 energy=-1.26974174 Lattice="15.00000000 0.00000000 0.00000000 0.00000000 15.00000000 0.00000000 0.00000000 0.00000000 15.00000000" energy_frozen_part=0.00000000 Properties=species:S:1:pos:R:3:velocities:R:3:Z:I:1
H         7.24681880       6.92170079       7.91803538         0.00000000       0.00000000       0.00000000          1
H         5.85764986       8.60065508       9.66606315         0.00000000       0.00000000       0.00000000          1
H         7.00247027       7.27931736      11.84499179         0.00000000       0.00000000       0.00000000          1
H         5.61403896       5.82782338       9.90341936         0.00000000       0.00000000       0.00000000          1
H         8.39164472       5.60036954      10.09696237         0.00000000       0.00000000       0.00000000          1
H         8.63525013       8.37320277       9.85960734         0.00000000       0.00000000       0.00000000          1
6
pbc=[F, F, F] list_num_par=6 frozen=false iter=20000 energy=-1.26974174 Lattice="15.00000000 0.00000000 0.00000000 0.00000000 15.00000000 0.00000000 0.00000000 0.00000000 15.00000000" energy_frozen_part=0.00000000 Properties=species:S:1:pos:R:3:velocities:R:3:Z:I:1
H        11.70115355       9.89118491      14.42412449         0.00000000       0.00000000       0.00000000          1
H        13.47649464       8.95369723      12.48155810         0.00000000       0.00000000       0.00000000          1
H        11.35285679       8.63448269      10.69478107         0.00000000       0.00000000       0.00000000          1
H         9.57751735       9.57197516      12.63734851         0.00000000       0.00000000       0.00000000          1
H        11.25997113       7.41574016      13.20681898         0.00000000       0.00000000       0.00000000          1
H        11.79403810      11.10992711      11.91208654         0.00000000       0.00000000       0.00000000          1
6
pbc=[F, F, F] list_num_par=6 frozen=false iter=20000 energy=-1.26974174 Lattice="15.00000000 0.00000000 0.00000000 0.00000000 15.00000000 0.00000000 0.00000000 0.00000000 15.00000000" energy_frozen_part=0.00000000 Properties=species:S:1:pos:R:3:velocities:R:3:Z:I:1
H         7.24678684       6.92168569       7.91802110         0.00000000       0.00000000       0.00000000          1
H         5.85763734       8.60066258       9.66604607         0.00000000       0.00000000       0.00000000          1
H         7.00245533       7.27932330      11.84497847         0.00000000       0.00000000       0.00000000          1
H         5.61399977       5.82783278       9.90341368         0.00000000       0.00000000       0.00000000          1
H         8.39160317       5.60034611      10.09695293         0.00000000       0.00000000       0.00000000          1
H         8.63524337       8.37317150       9.85958047         0.00000000       0.00000000       0.00000000          1
6
pbc=[F, F, F] list_num_par=6 frozen=false iter=20000 energy=-1.26974174 Lattice="15.00000000 0.00000000 0.00000000 0.00000000 15.00000000 0.00000000 0.00000000 0.00000000 15.00000000" energy_frozen_part=0.00000000 Properties=species:S:1:pos:R:3:velocities:R:3:Z:I:1
H        11.70116579       9.89117058      14.42412615         0.00000000       0.00000000       0.00000000          1
H        13.47650867       8.95370938      12.48154939         0.00000000       0.00000000       0.00000000          1
H        11.35287708       8.63449676      10.69477587         0.00000000       0.00000000       0.00000000          1
H         9.57753291       9.57196655      12.63734633         0.00000000       0.00000000       0.00000000          1
H        11.25999233       7.41573674      13.20680397         0.00000000       0.00000000       0.00000000          1
H        11.79404705      11.10993447      11.91209738         0.00000000       0.00000000       0.00000000          1
6
pbc=[F, F, F] list_num_par=6 frozen=false iter=20000 energy=-1.26974174 Lattice="15.00000000 0.00000000 0.00000000 0.00000000 15.00000000 0.00000000 0.00000000 0.00000000 15.00000000" energy_frozen_part=0.00000000 Properties=species:S:1:pos:R:3:velocities:R:3:Z:I:1
H         7.24697819       6.92157259       7.91819526         0.00000000       0.00000000       0.00000000          1
H         5.85778008       8.60052380       9.66619770         0.00000000       0.00000000       0.00000000          1
H         7.00250325       7.27913476      11.84514965         0.00000000       0.00000000       0.00000000          1
H         5.61411366       5.82769271       9.90350869         0.00000000       0.00000000       0.00000000          1
H         8.39170711       5.60018317      10.09714116         0.00000000       0.00000000       0.00000000          1
H         8.63537537       8.37301189       9.85983600         0.00000000       0.00000000       0.00000000          1
6
pbc=[F, F, F] list_num_par=6 frozen=false iter=20000 energy=-1.26974174 Lattice="15.00000000 0.00000000 0.00000000 0.00000000 15.00000000 0.00000000 0.00000000 0.00000000 15.00000000" energy_frozen_part=0.00000000 Properties=species:S:1:pos:R:3:velocities:R:3:Z:I:1
H         7.24700503       6.92171309       7.91808220         0.00000000       0.00000000       0.00000000          1
H         5.85766477       8.60066034       9.66598564         0.00000000       0.00000000       0.00000000          1
H         7.00227017       7.27930774      11.84501646         0.00000000       0.00000000       0.00000000          1
H         5.61402604       5.82782624       9.90329976         0.00000000       0.00000000       0.00000000          1
H         8.39161248       5.60036112      10.09712036         0.00000000       0.00000000       0.00000000          1
H         8.63524668       8.37319438       9.85979694         0.00000000       0.00000000       0.00000000          1
6
pbc=[F, F, F] list_num_par=6 frozen=false iter=20000 energy=-1.26974174 Lattice="15.00000000 0.00000000 0.00000000 0.00000000 15.00000000 0.00000000 0.00000000 0.00000000 15.00000000" energy_frozen_part=0.00000000 Properties=species:S:1:pos:R:3:velocities:R:3:Z:I:1
H         7.24689500       6.92182497       7.91803886         0.00000000       0.00000000       0.00000000          1
H         5.85768719       8.60067134       9.66614104         0.00000000       0.00000000       0.00000000          1
H         7.00249032       7.27922051      11.84500927         0.00000000       0.00000000       0.00000000          1
H         5.61409132       5.82782428       9.90333217         0.00000000       0.00000000       0.00000000          1
H         8.39169548       5.60037077      10.09690737         0.00000000       0.00000000       0.00000000          1
H         8.63529507       8.37321739       9.85970997         0.00000000       0.00000000       0.00000000          1
6
pbc=[F, F, F] list_num_par=6 frozen=false iter=20000 energy=-1.26974174 Lattice="15.00000000 0.00000000 0.00000000 0.00000000 15.00000000 0.00000000 0.00000000 0.00000000 15.00000000" energy_frozen_part=0.00000000 Properties=species:S:1:pos:R:3:velocities:R:3:Z:I:1
H         7.24701872       6.92162418       7.91818007         0.00000000       0.00000000       0.00000000          1
H         5.85775767       8.60053392       9.66617991         0.00000000       0.00000000       0.00000000          1
H         7.00243872       7.27910726      11.84513588         0.00000000       0.00000000       0.00000000          1
H         5.61410693       5.82769591       9.90342663         0.00000000       0.00000000       0.00000000          1
H         8.39169630       5.60019906      10.09713072         0.00000000       0.00000000       0.00000000          1
H         8.63534881       8.37303719       9.85988263         0.00000000       0.00000000       0.00000000          1
6
pbc=[F, F, F] list_num_par=6 frozen=false iter=20000 energy=-1.26974174 Lattice="15.00000000 0.00000000 0.00000000 0.00000000 15.00000000 0.00000000 0.00000000 0.00000000 15.00000000" energy_frozen_part=0.00000000 Properties=species:S:1:pos:R:3:velocities:R:3:Z:I:1
H        11.70115431       9.89106830      14.42414931         0.00000000       0.00000000       0.00000000          1
H        13.47663689       8.95352025      12.48173965         0.00000000       0.00000000       0.00000000          1
H        11.35316124       8.63446014      10.69475144         0.00000000       0.00000000       0.00000000          1
H         9.57767719       9.57200254      12.63716166         0.00000000       0.00000000       0.00000000          1
H        11.25996261       7.41567139      13.20675423         0.00000000       0.00000000       0.00000000          1
H        11.79434975      11.10985185      11.91214984         0.00000000       0.00000000       0.00000000          1
6
pbc=[F, F, F] list_num_par=6 frozen=false iter=20000 energy=-1.26974174 Lattice="15.00000000 0.00000000 0.00000000 0.00000000 15.00000000 0.00000000 0.00000000 0.00000000 15.00000000" energy_frozen_part=0.00000000 Properties=species:S:1:pos:R:3:velocities:R:3:Z:I:1
H         7.24700539       6.92157396       7.91818243         0.00000000       0.00000000       0.00000000          1
H         5.85777593       8.60052406       9.66617217         0.00000000       0.00000000       0.00000000          1
H         7.00249128       7.27914217      11.84513030         0.00000000       0.00000000       0.00000000          1
H         5.61412124       5.82768954       9.90347998         0.00000000       0.00000000       0.00000000          1
H         8.39171872       5.60019422      10.09714511         0.00000000       0.00000000       0.00000000          1
H         8.63536749       8.37302864       9.85983198         0.00000000       0.00000000       0.00000000          1
6
pbc=[F, F, F] list_num_par=6 frozen=false iter=20000 energy=-1.26974174 Lattice="15.00000000 0.00000000 0.00000000 0.00000000 15.00000000 0.00000000 0.00000000 0.00000000 15.00000000" energy_frozen_part=0.00000000 Properties=species:S:1:pos:R:3:velocities:R:3:Z:I:1
H         7.24701946       6.92170913       7.91807757         0.00000000       0.00000000       0.00000000          1
H         5.85768216       8.60066207       9.66597522         0.00000000       0.00000000       0.00000000          1
H         7.00227027       7.27929309      11.84501225         0.00000000       0.00000000       0.00000000          1
H         5.61402435       5.82782860       9.90328563         0.00000000       0.00000000       0.00000000          1
H         8.39161044       5.60034535      10.09711394         0.00000000       0.00000000       0.00000000          1
H         8.63526378       8.37317968       9.85980955         0.00000000       0.00000000       0.00000000          1
6
pbc=[F, F, F] list_num_par=6 frozen=false iter=20000 energy=-1.26974174 Lattice="15.00000000 0.00000000 0.00000000 0.00000000 15.00000000 0.00000000 0.00000000 0.00000000 15.00000000" energy_frozen_part=0.00000000 Properties=species:S:1:pos:R:3:velocities:R:3:Z:I:1
H         7.24702349       6.92169237       7.91808559         0.00000000       0.00000000       0.00000000          1
H         5.85766859       8.60064756       9.66597280         0.00000000       0.00000000       0.00000000          1
H         7.00226488       7.27930642      11.84501582         0.00000000       0.00000000       0.00000000          1
H         5.61403600       5.82781306       9.90329408         0.00000000       0.00000000       0.00000000          1
H         8.39162364       5.60035788      10.09713136         0.00000000       0.00000000       0.00000000          1
H         8.63525072       8.37318994       9.85980462         0.00000000       0.00000000       0.00000000          1
6
pbc=[F, F, F] list_num_par=6 frozen=false iter=20000 energy=-1.26974174 Lattice="15.00000000 0.00000000 0.00000000 0.00000000 15.00000000 0.00000000 0.00000000 0.00000000 15.00000000" energy_frozen_part=0.00000000 Properties=species:S:1:pos:R:3:velocities:R:3:Z:I:1
H        11.70118600       9.89115976      14.42413417         0.00000000       0.00000000       0.00000000          1
H        13.47651954       8.95369395      12.48154672         0.00000000       0.00000000       0.00000000          1
H        11.35286920       8.63450177      10.69478344         0.00000000       0.00000000       0.00000000          1
H         9.57754061       9.57197001      12.63737258         0.00000000       0.00000000       0.00000000          1
H        11.25999980       7.41573011      13.20680481         0.00000000       0.00000000       0.00000000          1
H        11.79406028      11.10993034      11.91211666         0.00000000       0.00000000       0.00000000          1
6
pbc=[F, F, F] list_num_par=6 frozen=false iter=20000 energy=-1.26974174 Lattice="15.00000000 0.00000000 0.00000000 0.00000000 15.00000000 0.00000000 0.00000000 0.00000000 15.00000000" energy_frozen_part=0.00000000 Properties=species:S:1:pos:R:3:velocities:R:3:Z:I:1
H        11.70117629       9.89118614      14.42413217         0.00000000       0.00000000       0.00000000          1
H        13.47653241       8.95373298      12.48155978         0.00000000       0.00000000       0.00000000          1
H        11.35290327       8.63451480      10.69477835         0.00000000       0.00000000       0.00000000          1
H         9.57755136       9.57196869      12.63735013         0.00000000       0.00000000       0.00000000          1
H        11.26002305       7.41574877      13.20680824         0.00000000       0.00000000       0.00000000          1
H        11.79405932      11.10995137      11.91210745         0.00000000       0.00000000       0.00000000          1
6
pbc=[F, F, F] list_num_par=6 frozen=false iter=20000 energy=-1.26974174 Lattice="15.00000000 0.00000000 0.00000000 0.00000000 15.00000000 0.00000000 0.00000000 0.00000000 15.00000000" energy_frozen_part=0.00000000 Properties=species:S:1:pos:R:3:velocities:R:3:Z:I:1
H        11.70114926       9.89118553      14.42412600         0.00000000       0.00000000       0.00000000          1
H        13.47649583       8.95368936      12.48156553         0.00000000       0.00000000       0.00000000          1
H        11.35286205       8.63448603      10.69478637         0.00000000       0.00000000       0.00000000          1
H         9.57751969       9.57197626      12.63735119         0.00000000       0.00000000       0.00000000          1
H        11.25996789       7.41573988      13.20681988         0.00000000       0.00000000       0.00000000          1
H        11.79405020      11.10992701      11.91209094         0.00000000       0.00000000       0.00000000          1
6
pbc=[F, F, F] list_num_par=6 frozen=false iter=20000 energy=-1.26974174 Lattice="15.00000000 0.00000000 0.00000000 0.00000000 15.00000000 0.00000000 0.00000000 0.00000000 15.00000000" energy_frozen_part=0.00000000 Properties=species:S:1:pos:R:3:velocities:R:3:Z:I:1
H         7.24689640       6.92182557       7.91803625         0.00000000       0.00000000       0.00000000          1
H         5.85769380       8.60066395       9.66615058         0.00000000       0.00000000       0.00000000          1
H         7.00251437       7.27920453      11.84500770         0.00000000       0.00000000       0.00000000          1
H         5.61410572       5.82781711       9.90333862         0.00000000       0.00000000       0.00000000          1
H         8.39171283       5.60036796      10.09689254         0.00000000       0.00000000       0.00000000          1
H         8.63530052       8.37321533       9.85970625         0.00000000       0.00000000       0.00000000          1
6
pbc=[F, F, F] list_num_par=6 frozen=false iter=20000 energy=-1.26974174 Lattice="15.00000000 0.00000000 0.00000000 0.00000000 15.00000000 0.00000000 0.00000000 0.00000000 15.00000000" energy_frozen_part=0.00000000 Properties=species:S:1:pos:R:3:velocities:R:3:Z:I:1
H         7.24689454       6.92183012       7.91803321         0.00000000       0.00000000       0.00000000          1
H         5.85768944       8.60066074       9.66615151         0.00000000       0.00000000       0.00000000          1
H         7.00251939       7.27920170      11.84500819         0.00000000       0.00000000       0.00000000          1
H         5.61411478       5.82780989       9.90333584         0.00000000       0.00000000       0.00000000          1
H         8.39171989       5.60037066      10.09688477         0.00000000       0.00000000       0.00000000          1
H         8.63529517       8.37321658       9.85970439         0.00000000       0.00000000       0.00000000          1
