6
pbc=[F, F, F] list_num_par=6 frozen=false iter=20000 energy=-1.26974174 Lattice="15.00000000 0.00000000 0.00000000 0.00000000 15.00000000 0.00000000 0.00000000 0.00000000 15.00000000" energy_frozen_part=0.00000000 Properties=species:S:1:pos:R:3:velocities:R:3:Z:I:1
H        12.53873421       2.36282529       9.14566157         0.00000000       0.00000000       0.00000000          1
H        14.12759844       4.65856109       9.04871370         0.00000000       0.00000000       0.00000000          1
H        12.01315780       6.16548656      10.07954069         0.00000000       0.00000000       0.00000000          1
H        11.63996878       4.62683505       7.77789830         0.00000000       0.00000000       0.00000000          1
H        12.91191565       3.90147833      11.44730746         0.00000000       0.00000000       0.00000000          1
H        10.42429116       3.86975303      10.17649055         0.00000000       0.00000000       0.00000000          1
6
pbc=[F, F, F] list_num_par=6 frozen=false iter=20000 energy=-1.26974174 Lattice="15.00000000 0.00000000 0.00000000 0.00000000 15.00000000 0.00000000 0.00000000 0.00000000 15.00000000" energy_frozen_part=0.00000000 Properties=species:S:1:pos:R:3:velocities:R:3:Z:I:1
H        12.53837489       2.36246439       9.14622336         0.00000000       0.00000000       0.00000000          1
H        14.12779200       4.65781355       9.04918828         0.00000000       0.00000000       0.00000000          1
H        12.01368683       6.16529437      10.07990401         0.00000000       0.00000000       0.00000000          1
H        11.64017814       4.62661502       7.77832994         0.00000000       0.00000000       0.00000000          1
H        12.91188860       3.90114239      11.44779501         0.00000000       0.00000000       0.00000000          1
H        10.42427483       3.86993980      10.17693153         0.00000000       0.00000000       0.00000000          1
6
pbc=[F, F, F] list_num_par=6 frozen=false iter=20000 energy=-1.26974174 Lattice="15.00000000 0.00000000 0.00000000 0.00000000 15.00000000 0.00000000 0.00000000 0.00000000 15.00000000" energy_frozen_part=0.00000000 Properties=species:S:1:pos:R:3:velocities:R:3:Z:I:1
H        12.53723999       2.35474590       9.14299258         0.00000000       0.00000000       0.00000000          1
H        14.12039294       4.65385670       9.03336179         0.00000000       0.00000000       0.00000000          1
H        12.00811088       6.15792977      10.07273421         0.00000000       0.00000000       0.00000000          1
H        11.62608863       4.61422142       7.77592492         0.00000000       0.00000000       0.00000000          1
H        12.91926643       3.89845455      11.43979763         0.00000000       0.00000000       0.00000000          1
H        10.42495876       3.85882308      10.18236654         0.00000000       0.00000000       0.00000000          1
6
pbc=[F, F, F] list_num_par=6 frozen=false iter=20000 energy=-1.26974174 Lattice="15.00000000 0.00000000 0.00000000 0.00000000 15.00000000 0.00000000 0.00000000 0.00000000 15.00000000" energy_frozen_part=0.00000000 Properties=species:S:1:pos:R:3:velocities:R:3:Z:I:1
H        12.53837641       2.36247659       9.14623063         0.00000000       0.00000000       0.00000000          1
H        14.12775564       4.65784721       9.04912080         0.00000000       0.00000000       0.00000000          1
H        12.01365390       6.16532811      10.07984221         0.00000000       0.00000000       0.00000000          1
H        11.64011906       4.62659112       7.77830944         0.00000000       0.00000000       0.00000000          1
H        12.91190831       3.90121358      11.44776552         0.00000000       0.00000000       0.00000000          1
H        10.42427398       3.86995288      10.17695186         0.00000000       0.00000000       0.00000000          1
6
pbc=[F, F, F] list_num_par=6 frozen=false iter=20000 energy=-1.26974174 Lattice="15.00000000 0.00000000 0.00000000 0.00000000 15.00000000 0.00000000 0.00000000 0.00000000 15.00000000" energy_frozen_part=0.00000000 Properties=species:S:1:pos:R:3:velocities:R:3:Z:I:1
H        12.53836524       2.36246386       9.14622744         0.00000000       0.00000000       0.00000000          1
H        14.12778093       4.65780708       9.04919436         0.00000000       0.00000000       0.00000000          1
H        12.01368791       6.16529243      10.07991072         0.00000000       0.00000000       0.00000000          1
H        11.64017293       4.62661998       7.77833183         0.00000000       0.00000000       0.00000000          1
H        12.91188116       3.90113706      11.44779993         0.00000000       0.00000000       0.00000000          1
H        10.42426707       3.86994690      10.17693545         0.00000000       0.00000000       0.00000000          1
6
pbc=[F, F, F] list_num_par=6 frozen=false iter=20000 energy=-1.26974174 Lattice="15.00000000 0.00000000 0.00000000 0.00000000 15.00000000 0.00000000 0.00000000 0.00000000 15.00000000" energy_frozen_part=0.00000000 Properties=species:S:1:pos:R:3:velocities:R:3:Z:I:1
H        12.53612212       2.35398570       9.15813778         0.00000000       0.00000000       0.00000000          1
H        14.11890897       4.65271238       9.03603015         0.00000000       0.00000000       0.00000000          1
H        12.00574079       6.16241076      10.06540925         0.00000000       0.00000000       0.00000000          1
H        11.62533108       4.60528563       7.77741034         0.00000000       0.00000000       0.00000000          1
H        12.91652220       3.91111337      11.44613321         0.00000000       0.00000000       0.00000000          1
H        10.42294933       3.86368114      10.18750694         0.00000000       0.00000000       0.00000000          1
6
pbc=[F, F, F] list_num_par=6 frozen=false iter=20000 energy=-1.26974174 Lattice="15.00000000 0.00000000 0.00000000 0.00000000 15.00000000 0.00000000 0.00000000 0.00000000 15.00000000" energy_frozen_part=0.00000000 Properties=species:S:1:pos:R:3:velocities:R:3:Z:I:1
H        12.53869620       2.36280723       9.14569969         0.00000000       0.00000000       0.00000000          1
H        14.12757998       4.65852220       9.04872959         0.00000000       0.00000000       0.00000000          1
H        12.01314720       6.16547571      10.07952700         0.00000000       0.00000000       0.00000000          1
H        11.63995428       4.62680118       7.77790002         0.00000000       0.00000000       0.00000000          1
H        12.91188663       3.90148106      11.44732675         0.00000000       0.00000000       0.00000000          1
H        10.42426500       3.86975938      10.17650317         0.00000000       0.00000000       0.00000000          1
6
pbc=[F, F, F] list_num_par=6 frozen=false iter=20000 energy=-1.26974174 Lattice="15.00000000 0.00000000 0.00000000 0.00000000 15.00000000 0.00000000 0.00000000 0.00000000 15.00000000" energy_frozen_part=0.00000000 Properties=species:S:1:pos:R:3:velocities:R:3:Z:I:1
H        12.53600641       2.35408942       9.15812806         0.00000000       0.00000000       0.00000000          1
H        14.11888853       4.65275119       9.03606777         0.00000000       0.00000000       0.00000000          1
H        12.00579225       6.16251044      10.06549583         0.00000000       0.00000000       0.00000000          1
H        11.62530558       4.60545771       7.77745895         0.00000000       0.00000000       0.00000000          1
H        12.91648666       3.91114281      11.44616285         0.00000000       0.00000000       0.00000000          1
H        10.42290667       3.86384897      10.18755135         0.00000000       0.00000000       0.00000000          1
6
pbc=[F, F, F] list_num_par=6 frozen=false iter=20000 energy=-1.26974174 Lattice="15.00000000 0.00000000 0.00000000 0.00000000 15.00000000 0.00000000 0.00000000 0.00000000 15.00000000" energy_frozen_part=0.00000000 Properties=species:S:1:pos:R:3:velocities:R:3:Z:I:1
H        12.53828863       2.36246107       9.14609853         0.00000000       0.00000000       0.00000000          1
H        14.12775985       4.65777739       9.04914870         0.00000000       0.00000000       0.00000000          1
H        12.01370306       6.16526806      10.07992770         0.00000000       0.00000000       0.00000000          1
H        11.64014025       4.62668883       7.77829448         0.00000000       0.00000000       0.00000000          1
H        12.91184662       3.90103286      11.44773061         0.00000000       0.00000000       0.00000000          1
H        10.42422831       3.86995359      10.17687277         0.00000000       0.00000000       0.00000000          1
6
pbc=[F, F, F] list_num_par=6 frozen=false iter=20000 energy=-1.26974174 Lattice="15.00000000 0.00000000 0.00000000 0.00000000 15.00000000 0.00000000 0.00000000 0.00000000 15.00000000" energy_frozen_part=0.00000000 Properties=species:S:1:pos:R:3:velocities:R:3:Z:I:1
H        12.53838773       2.36245658       9.14626880         0.00000000       0.00000000       0.00000000          1
H        14.12776628       4.65782441       9.04917089         0.00000000       0.00000000       0.00000000          1
H        12.01364979       6.16530027      10.07986687         0.00000000       0.00000000       0.00000000          1
H        11.64014810       4.62656535       7.77832670         0.00000000       0.00000000       0.00000000          1
H        12.91189430       3.90119409      11.44780321         0.00000000       0.00000000       0.00000000          1
H        10.42426877       3.86993002      10.17695669         0.00000000       0.00000000       0.00000000          1
6
pbc=[F, F, F] list_num_par=6 frozen=false iter=20000 energy=-1.26974174 Lattice="15.00000000 0.00000000 0.00000000 0.00000000 15.00000000 0.00000000 0.00000000 0.00000000 15.00000000" energy_frozen_part=0.00000000 Properties=species:S:1:pos:R:3:velocities:R:3:Z:I:1
H        12.53609896       2.35402667       9.15809865         0.00000000       0.00000000       0.00000000          1
H        14.11891699       4.65273163       9.03600808         0.00000000       0.00000000       0.00000000          1
H        12.00577746       6.16244359      10.06542672         0.00000000       0.00000000       0.00000000          1
H        11.62533067       4.60535406       7.77741375         0.00000000       0.00000000       0.00000000          1
H        12.91655109       3.91111850      11.44611589         0.00000000       0.00000000       0.00000000          1
H        10.42296385       3.86373255      10.18752005         0.00000000       0.00000000       0.00000000          1
6
pbc=[F, F, F] list_num_par=6 frozen=false iter=20000 energy=-1.26974174 Lattice="15.00000000 0.00000000 0.00000000 0.00000000 15.00000000 0.00000000 0.00000000 0.00000000 15.00000000" energy_frozen_part=0.00000000 Properties=species:S:1:pos:R:3:velocities:R:3:Z:I:1
H        12.53872166       2.36282222       9.14567118         0.00000000       0.00000000       0.00000000          1
H        14.12759530       4.65855665       9.04871876         0.00000000       0.00000000       0.00000000          1
H        12.01315068       6.16548308      10.07953575         0.00000000       0.00000000       0.00000000          1
H        11.63997018       4.62682376       7.77789415         0.00000000       0.00000000       0.00000000          1
H        12.91191002       3.90148148      11.44731050         0.00000000       0.00000000       0.00000000          1
H        10.42428266       3.86975338      10.17649031         0.00000000       0.00000000       0.00000000          1
6
pbc=[F, F, F] list_num_par=6 frozen=false iter=20000 energy=-1.26974174 Lattice="15.00000000 0.00000000 0.00000000 0.00000000 15.00000000 0.00000000 0.00000000 0.00000000 15.00000000" energy_frozen_part=0.00000000 Properties=species:S:1:pos:R:3:velocities:R:3:Z:I:1
H        12.53723784       2.35477083       9.14301345         0.00000000       0.00000000       0.00000000          1
H        14.12042664       4.65385418       9.03342581         0.00000000       0.00000000       0.00000000          1
H        12.00813002       6.15795144      10.07274362         0.00000000       0.00000000       0.00000000          1
H        11.62614976       4.61425466       7.77592329         0.00000000       0.00000000       0.00000000          1
H        12.91921192       3.89846515      11.43982660         0.00000000       0.00000000       0.00000000          1
H        10.42493684       3.85886628      10.18232414         0.00000000       0.00000000       0.00000000          1
6
pbc=[F, F, F] list_num_par=6 frozen=false iter=20000 energy=-1.26974174 Lattice="15.00000000 0.00000000 0.00000000 0.00000000 15.00000000 0.00000000 0.00000000 0.00000000 15.00000000" energy_frozen_part=0.00000000 Properties=species:S:1:pos:R:3:velocities:R:3:Z:I:1
H        12.53723533       2.35476212       9.14300577         0.00000000       0.00000000       0.00000000          1
H        14.12042900       4.65384203       9.03343250         0.00000000       0.00000000       0.00000000          1
H        12.00813525       6.15794243      10.07274885         0.00000000       0.00000000       0.00000000          1
H        11.62615313       4.61425472       7.77592348         0.00000000       0.00000000       0.00000000          1
H        12.91921794       3.89844899      11.43982626         0.00000000       0.00000000       0.00000000          1
H        10.42494454       3.85885989      10.18232645         0.00000000       0.00000000       0.00000000          1
6
pbc=[F, F, F] list_num_par=6 frozen=false iter=20000 energy=-1.26974174 Lattice="15.00000000 0.00000000 0.00000000 0.00000000 15.00000000 0.00000000 0.00000000 0.00000000 15.00000000" energy_frozen_part=0.00000000 Properties=species:S:1:pos:R:3:velocities:R:3:Z:I:1
H        12.53872027       2.36282303       9.14566306         0.00000000       0.00000000       0.00000000          1
H        14.12759472       4.65854952       9.04871111         0.00000000       0.00000000       0.00000000          1
H        12.01315784       6.16549341      10.07952987         0.00000000       0.00000000       0.00000000          1
H        11.63996984       4.62682839       7.77789206         0.00000000       0.00000000       0.00000000          1
H        12.91191363       3.90148242      11.44730136         0.00000000       0.00000000       0.00000000          1
H        10.42428575       3.86976338      10.17648272         0.00000000       0.00000000       0.00000000          1
6
pbc=[F, F, F] list_num_par=6 frozen=false iter=20000 energy=-1.26974174 Lattice="15.00000000 0.00000000 0.00000000 0.00000000 15.00000000 0.00000000 0.00000000 0.00000000 15.00000000" energy_frozen_part=0.00000000 Properties=species:S:1:pos:R:3:velocities:R:3:Z:I:1
H        12.53869764       2.36281800       9.14570105         0.00000000       0.00000000       0.00000000          1
H        14.12757132       4.65854013       9.04872262         0.00000000       0.00000000       0.00000000          1
H        12.01314424       6.16548436      10.07954785         0.00000000       0.00000000       0.00000000          1
H        11.63993213       4.62681300       7.77791760         0.00000000       0.00000000       0.00000000          1
H        12.91191173       3.90149071      11.44732846         0.00000000       0.00000000       0.00000000          1
H        10.42427461       3.86975890      10.17652800         0.00000000       0.00000000       0.00000000          1
6
pbc=[F, F, F] list_num_par=6 frozen=false iter=20000 energy=-1.26974174 Lattice="15.00000000 0.00000000 0.00000000 0.00000000 15.00000000 0.00000000 0.00000000 0.00000000 15.00000000" energy_frozen_part=0.00000000 Properties=species:S:1:pos:R:3:velocities:R:3:Z:I:1
H        12.53838272       2.36248880       9.14620277         0.00000000       0.00000000       0.00000000          1
H        14.12780187       4.65783780       9.04918819         0.00000000       0.00000000       0.00000000          1
H        12.01370070       6.16531222      10.07990465         0.00000000       0.00000000       0.00000000          1
H        11.64018522       4.62664922       7.77832607         0.00000000       0.00000000       0.00000000          1
H        12.91189861       3.90115193      11.44779092         0.00000000       0.00000000       0.00000000          1
H        10.42428298       3.86996491      10.17692559         0.00000000       0.00000000       0.00000000          1
6
pbc=[F, F, F] list_num_par=6 frozen=false iter=20000 energy=-1.26974174 Lattice="15.00000000 0.00000000 0.00000000 0.00000000 15.00000000 0.00000000 0.00000000 0.00000000 15.00000000" energy_frozen_part=0.00000000 Properties=species:S:1:pos:R:3:velocities:R:3:Z:I:1
H        12.53837103       2.36246987       9.14623737         0.00000000       0.00000000       0.00000000          1
H        14.12779432       4.65782036       9.04921166         0.00000000       0.00000000       0.00000000          1
H        12.01367998       6.16530487      10.07989139         0.00000000       0.00000000       0.00000000          1
H        11.64019488       4.62661315       7.77832131         0.00000000       0.00000000       0.00000000          1
H        12.91185852       3.90115685      11.44780707         0.00000000       0.00000000       0.00000000          1
H        10.42425879       3.86995548      10.17691391         0.00000000       0.00000000       0.00000000          1
6
pbc=[F, F, F] list_num_par=6 frozen=false iter=20000 energy=-1.26974174 Lattice="15.00000000 0.00000000 0.00000000 0.00000000 15.00000000 0.00000000 0.00000000 0.00000000 15.00000000" energy_frozen_part=0.00000000 Properties=species:S:1:pos:R:3:velocities:R:3:Z:I:1
H        12.53874437       2.36282879       9.14567902         0.00000000       0.00000000       0.00000000          1
H        14.12759673       4.65857245       9.04871011         0.00000000       0.00000000       0.00000000          1
H        12.01315598       6.16549971      10.07953109         0.00000000       0.00000000       0.00000000          1
H        11.63996588       4.62682806       7.77790298         0.00000000       0.00000000       0.00000000          1
H        12.91193528       3.90150111      11.44730970         0.00000000       0.00000000       0.00000000          1
H        10.42430218       3.86975776      10.17650287         0.00000000       0.00000000       0.00000000          1
6
pbc=[F, F, F] list_num_par=6 frozen=false iter=20000 energy=-1.26974174 Lattice="15.00000000 0.00000000 0.00000000 0.00000000 15.00000000 0.00000000 0.00000000 0.00000000 15.00000000" energy_frozen_part=0.00000000 Properties=species:S:1:pos:R:3:velocities:R:3:Z:I:1
H        12.53597462       2.35405449       9.15811645         0.00000000       0.00000000       0.00000000          1
H        14.11889379       4.65269836       9.03604611         0.00000000       0.00000000       0.00000000          1
H        12.00582641       6.16249431      10.06548579         0.00000000       0.00000000       0.00000000          1
H        11.62530266       4.60543933       7.77745629         0.00000000       0.00000000       0.00000000          1
H        12.91649448       3.91110588      11.44614631         0.00000000       0.00000000       0.00000000          1
H        10.42290475       3.86384780      10.18754969         0.00000000       0.00000000       0.00000000          1
6
pbc=[F, F, F] list_num_par=6 frozen=false iter=20000 energy=-1.26974174 Lattice="15.00000000 0.00000000 0.00000000 0.00000000 15.00000000 0.00000000 0.00000000 0.00000000 15.00000000" energy_frozen_part=0.00000000 Properties=species:S:1:pos:R:3:velocities:R:3:Z:I:1
H        12.53838153       2.36244854       9.14624341         0.00000000       0.00000000       0.00000000          1
H        14.12777667       4.65781043       9.04915956         0.00000000       0.00000000       0.00000000          1
H        12.01366708       6.16529757      10.07985507         0.00000000       0.00000000       0.00000000          1
H        11.64016029       4.62657383       7.77830831         0.00000000       0.00000000       0.00000000          1
H        12.91189186       3.90117569      11.44778650         0.00000000       0.00000000       0.00000000          1
H        10.42427751       3.86993177      10.17693371         0.00000000       0.00000000       0.00000000          1
6
pbc=[F, F, F] list_num_par=6 frozen=false iter=20000 energy=-1.26974174 Lattice="15.00000000 0.00000000 0.00000000 0.00000000 15.00000000 0.00000000 0.00000000 0.00000000 15.00000000" energy_frozen_part=0.00000000 Properties=species:S:1:pos:R:3:velocities:R:3:Z:I:1
H        12.53873030       2.36281800       9.14568493         0.00000000       0.00000000       0.00000000          1
H        14.12761209       4.65854279       9.04872490         0.00000000       0.00000000       0.00000000          1
H        12.01317308       6.16548969      10.07952650         0.00000000       0.00000000       0.00000000          1
H        11.63999185       4.62682297       7.77789429         0.00000000       0.00000000       0.00000000          1
H        12.91191248       3.90148845      11.44731514         0.00000000       0.00000000       0.00000000          1
H        10.42429622       3.86976539      10.17648375         0.00000000       0.00000000       0.00000000          1
6
pbc=[F, F, F] list_num_par=6 frozen=false iter=20000 energy=-1.26974174 Lattice="15.00000000 0.00000000 0.00000000 0.00000000 15.00000000 0.00000000 0.00000000 0.00000000 15.00000000" energy_frozen_part=0.00000000 Properties=species:S:1:pos:R:3:velocities:R:3:Z:I:1
H        12.53873226       2.36281959       9.14567902         0.00000000       0.00000000       0.00000000          1
H        14.12761742       4.65854051       9.04872651         0.00000000       0.00000000       0.00000000          1
H        12.01317708       6.16548688      10.07952015         0.00000000       0.00000000       0.00000000          1
H        11.63999995       4.62682142       7.77789173         0.00000000       0.00000000       0.00000000          1
H        12.91191621       3.90148641      11.44731236         0.00000000       0.00000000       0.00000000          1
H        10.42429379       3.86976499      10.17647742         0.00000000       0.00000000       0.00000000          1
6
pbc=[F, F, F] list_num_par=6 frozen=false iter=20000 energy=-1.26974174 Lattice="15.00000000 0.00000000 0.00000000 0.00000000 15.00000000 0.00000000 0.00000000 0.00000000 15.00000000" energy_frozen_part=0.00000000 Properties=species:S:1:pos:R:3:velocities:R:3:Z:I:1
H        12.53872400       2.36279795       9.14564241         0.00000000       0.00000000       0.00000000          1
H        14.12761859       4.65850937       9.04867439         0.00000000       0.00000000       0.00000000          1
H        12.01322170       6.16545499      10.07956184         0.00000000       0.00000000       0.00000000          1
H        11.63995739       4.62682920       7.77791607         0.00000000       0.00000000       0.00000000          1
H        12.91198027       3.90142508      11.44728922         0.00000000       0.00000000       0.00000000          1
H        10.42432419       3.86974582      10.17653120         0.00000000       0.00000000       0.00000000          1
6
pbc=[F, F, F] list_num_par=6 frozen=false iter=20000 energy=-1.26974174 Lattice="15.00000000 0.00000000 0.00000000 0.00000000 15.00000000 0.00000000 0.00000000 0.00000000 15.00000000" energy_frozen_part=0.00000000 Properties=species:S:1:pos:R:3:velocities:R:3:Z:I:1
H        12.53601729       2.35410076       9.15811025         0.00000000       0.00000000       0.00000000          1
H        14.11889715       4.65277282       9.03606593         0.00000000       0.00000000       0.00000000          1
H        12.00579460       6.16252421      10.06550088         0.00000000       0.00000000       0.00000000          1
H        11.62531907       4.60548092       7.77745649         0.00000000       0.00000000       0.00000000          1
H        12.91649681       3.91114394      11.44614629         0.00000000       0.00000000       0.00000000          1
H        10.42291441       3.86385394      10.18753449         0.00000000       0.00000000       0.00000000          1
6
pbc=[F, F, F] list_num_par=6 frozen=false iter=20000 energy=-1.26974174 Lattice="15.00000000 0.00000000 0.00000000 0.00000000 15.00000000 0.00000000 0.00000000 0.00000000 15.00000000" energy_frozen_part=0.00000000 Properties=species:S:1:pos:R:3:velocities:R:3:Z:I:1
H        12.53873711       2.36282255       9.14567036         0.00000000       0.00000000       0.00000000          1
H        14.12760106       4.65855850       9.04869055         0.00000000       0.00000000       0.00000000          1
H        12.01315997       6.16548877      10.07951853         0.00000000       0.00000000       0.00000000          1
H        11.63996388       4.62681994       7.77789052         0.00000000       0.00000000       0.00000000          1
H        12.91193556       3.90149159      11.44729683         0.00000000       0.00000000       0.00000000          1
H        10.42429951       3.86975478      10.17649459         0.00000000       0.00000000       0.00000000          1
6
pbc=[F, F, F] list_num_par=6 frozen=false iter=20000 energy=-1.26974174 Lattice="15.00000000 0.00000000 0.00000000 0.00000000 15.00000000 0.00000000 0.00000000 0.00000000 15.00000000" energy_frozen_part=0.00000000 Properties=species:S:1:pos:R:3:velocities:R:3:Z:I:1
H        12.53870795       2.36280027       9.14571699         0.00000000       0.00000000       0.00000000          1
H        14.12758179       4.65853041       9.04872837         0.00000000       0.00000000       0.00000000          1
H        12.01315064       6.16547647      10.07953588         0.00000000       0.00000000       0.00000000          1
H        11.63994858       4.62678972       7.77791919         0.00000000       0.00000000       0.00000000          1
H        12.91191541       3.90149100      11.44733812         0.00000000       0.00000000       0.00000000          1
H        10.42428242       3.86974835      10.17652725         0.00000000       0.00000000       0.00000000          1
6
pbc=[F, F, F] list_num_par=6 frozen=false iter=20000 energy=-1.26974174 Lattice="15.00000000 0.00000000 0.00000000 0.00000000 15.00000000 0.00000000 0.00000000 0.00000000 15.00000000" energy_frozen_part=0.00000000 Properties=species:S:1:pos:R:3:velocities:R:3:Z:I:1
H        12.53836424       2.36247141       9.14623945         0.00000000       0.00000000       0.00000000          1
H        14.12778338       4.65781376       9.04921386         0.00000000       0.00000000       0.00000000          1
H        12.01367696       6.16530429      10.07988518         0.00000000       0.00000000       0.00000000          1
H        11.64018127       4.62661403       7.77832036         0.00000000       0.00000000       0.00000000          1
H        12.91185164       3.90116095      11.44781031         0.00000000       0.00000000       0.00000000          1
H        10.42425205       3.86995874      10.17691835         0.00000000       0.00000000       0.00000000          1
6
pbc=[F, F, F] list_num_par=6 frozen=false iter=20000 energy=-1.26974174 Lattice="15.00000000 0.00000000 0.00000000 0.00000000 15.00000000 0.00000000 0.00000000 0.00000000 15.00000000" energy_frozen_part=0.00000000 Properties=species:S:1:pos:R:3:velocities:R:3:Z:I:1
H        12.53828031       2.36245893       9.14609168         0.00000000       0.00000000       0.00000000          1
H        14.12775279       4.65777346       9.04913782         0.00000000       0.00000000       0.00000000          1
H        12.01370506       6.16526956      10.07992436         0.00000000       0.00000000       0.00000000          1
H        11.64013201       4.62669211       7.77829115         0.00000000       0.00000000       0.00000000          1
H        12.91185016       3.90103245      11.44772364         0.00000000       0.00000000       0.00000000          1
H        10.42422819       3.86995635      10.17687979         0.00000000       0.00000000       0.00000000          1
6
pbc=[F, F, F] list_num_par=6 frozen=false iter=20000 energy=-1.26974174 Lattice="15.00000000 0.00000000 0.00000000 0.00000000 15.00000000 0.00000000 0.00000000 0.00000000 15.00000000" energy_frozen_part=0.00000000 Properties=species:S:1:pos:R:3:velocities:R:3:Z:I:1
H        12.53601700       2.35409766       9.15810683         0.00000000       0.00000000       0.00000000          1
H        14.11889920       4.65276398       9.03606638         0.00000000       0.00000000       0.00000000          1
H        12.00580293       6.16251998      10.06549433         0.00000000       0.00000000       0.00000000          1
H        11.62532201       4.60547982       7.77745230         0.00000000       0.00000000       0.00000000          1
H        12.91649926       3.91114032      11.44614714         0.00000000       0.00000000       0.00000000          1
H        10.42291952       3.86385377      10.18753250         0.00000000       0.00000000       0.00000000          1
6
pbc=[F, F, F] list_num_par=6 frozen=false iter=20000 energy=-1.26974174 Lattice="15.00000000 0.00000000 0.00000000 0.00000000 15.00000000 0.00000000 0.00000000 0.00000000 15.00000000" energy_frozen_part=0.00000000 Properties=species:S:1:pos:R:3:velocities:R:3:Z:I:1
H        12.53874191       2.36282076       9.14566791         0.00000000       0.00000000       0.00000000          1
H        14.12759759       4.65856184       9.04869319         0.00000000       0.00000000       0.00000000          1
H        12.01315291       6.16548366      10.07951943         0.00000000       0.00000000       0.00000000          1
H        11.63996437       4.62681322       7.77789011         0.00000000       0.00000000       0.00000000          1
H        12.91193603       3.90148830      11.44729658         0.00000000       0.00000000       0.00000000          1
H        10.42430175       3.86974810      10.17649269         0.00000000       0.00000000       0.00000000          1
6
pbc=[F, F, F] list_num_par=6 frozen=false iter=20000 energy=-1.26974174 Lattice="15.00000000 0.00000000 0.00000000 0.00000000 15.00000000 0.00000000 0.00000000 0.00000000 15.00000000" energy_frozen_part=0.00000000 Properties=species:S:1:pos:R:3:velocities:R:3:Z:I:1
H        12.53609840       2.35401975       9.15809226         0.00000000       0.00000000       0.00000000          1
H        14.11890622       4.65273883       9.03600311         0.00000000       0.00000000       0.00000000          1
H        12.00575612       6.16244025      10.06542157         0.00000000       0.00000000       0.00000000          1
H        11.62531381       4.60534463       7.77741106         0.00000000       0.00000000       0.00000000          1
H        12.91654405       3.91111165      11.44610577         0.00000000       0.00000000       0.00000000          1
H        10.42295780       3.86372066      10.18751807         0.00000000       0.00000000       0.00000000          1
6
pbc=[F, F, F] list_num_par=6 frozen=false iter=20000 energy=-1.26974174 Lattice="15.00000000 0.00000000 0.00000000 0.00000000 15.00000000 0.00000000 0.00000000 0.00000000 15.00000000" energy_frozen_part=0.00000000 Properties=species:S:1:pos:R:3:velocities:R:3:Z:I:1
H        12.53872104       2.36282307       9.14567960         0.00000000       0.00000000       0.00000000          1
H        14.12759675       4.65854506       9.04871763         0.00000000       0.00000000       0.00000000          1
H        12.01316433       6.16549053      10.07953608         0.00000000       0.00000000       0.00000000          1
H        11.63996827       4.62682728       7.77790114         0.00000000       0.00000000       0.00000000          1
H        12.91191352       3.90149116      11.44731489         0.00000000       0.00000000       0.00000000          1
H        10.42428225       3.86976414      10.17649286         0.00000000       0.00000000       0.00000000          1
6
pbc=[F, F, F] list_num_par=6 frozen=false iter=20000 energy=-1.26974174 Lattice="15.00000000 0.00000000 0.00000000 0.00000000 15.00000000 0.00000000 0.00000000 0.00000000 15.00000000" energy_frozen_part=0.00000000 Properties=species:S:1:pos:R:3:velocities:R:3:Z:I:1
H        12.53872600       2.36281668       9.14568942         0.00000000       0.00000000       0.00000000          1
H        14.12760158       4.65854013       9.04871387         0.00000000       0.00000000       0.00000000          1
H        12.01316667       6.16548729      10.07952771         0.00000000       0.00000000       0.00000000          1
H        11.63996809       4.62681413       7.77789767         0.00000000       0.00000000       0.00000000          1
H        12.91191916       3.90148762      11.44731506         0.00000000       0.00000000       0.00000000          1
H        10.42429023       3.86976280      10.17650031         0.00000000       0.00000000       0.00000000          1
6
pbc=[F, F, F] list_num_par=6 frozen=false iter=20000 energy=-1.26974174 Lattice="15.00000000 0.00000000 0.00000000 0.00000000 15.00000000 0.00000000 0.00000000 0.00000000 15.00000000" energy_frozen_part=0.00000000 Properties=species:S:1:pos:R:3:velocities:R:3:Z:I:1
H        12.53838508       2.36249062       9.14620221         0.00000000       0.00000000       0.00000000          1
H        14.12780738       4.65783998       9.04918935         0.00000000       0.00000000       0.00000000          1
H        12.01370730       6.16531331      10.07990537         0.00000000       0.00000000       0.00000000          1
H        11.64019284       4.62665186       7.77832191         0.00000000       0.00000000       0.00000000          1
H        12.91189824       3.90115505      11.44778931         0.00000000       0.00000000       0.00000000          1
H        10.42428755       3.86996438      10.17692510         0.00000000       0.00000000       0.00000000          1
6
pbc=[F, F, F] list_num_par=6 frozen=false iter=20000 energy=-1.26974174 Lattice="15.00000000 0.00000000 0.00000000 0.00000000 15.00000000 0.00000000 0.00000000 0.00000000 15.00000000" energy_frozen_part=0.00000000 Properties=species:S:1:pos:R:3:velocities:R:3:Z:I:1
H        12.53610026       2.35402502       9.15810700         0.00000000       0.00000000       0.00000000          1
H        14.11891130       4.65273452       9.03599514         0.00000000       0.00000000       0.00000000          1
H        12.00577148       6.16244862      10.06541471         0.00000000       0.00000000       0.00000000          1
H        11.62531465       4.60534860       7.77741523         0.00000000       0.00000000       0.00000000          1
H        12.91655632       3.91113038      11.44610954         0.00000000       0.00000000       0.00000000          1
H        10.42296201       3.86373212      10.18752788         0.00000000       0.00000000       0.00000000          1
6
pbc=[F, F, F] list_num_par=6 frozen=false iter=20000 energy=-1.26974174 Lattice="15.00000000 0.00000000 0.00000000 0.00000000 15.00000000 0.00000000 0.00000000 0.00000000 15.00000000" energy_frozen_part=0.00000000 Properties=species:S:1:pos:R:3:velocities:R:3:Z:I:1
H        12.53837921       2.36245453       9.14624382         0.00000000       0.00000000       0.00000000          1
H        14.12777688       4.65781468       9.04916315         0.00000000       0.00000000       0.00000000          1
H        12.01367343       6.16529624      10.07985119         0.00000000       0.00000000       0.00000000          1
H        11.64015973       4.62656874       7.77830642         0.00000000       0.00000000       0.00000000          1
H        12.91189153       3.90117897      11.44778804         0.00000000       0.00000000       0.00000000          1
H        10.42427360       3.86994149      10.17693512         0.00000000       0.00000000       0.00000000          1
6
pbc=[F, F, F] list_num_par=6 frozen=false iter=20000 energy=-1.26974174 Lattice="15.00000000 0.00000000 0.00000000 0.00000000 15.00000000 0.00000000 0.00000000 0.00000000 15.00000000" energy_frozen_part=0.00000000 Properties=species:S:1:pos:R:3:velocities:R:3:Z:I:1
H        12.53602078       2.35409418       9.15811299         0.00000000       0.00000000       0.00000000          1
H        14.11890582       4.65276080       9.03606271         0.00000000       0.00000000       0.00000000          1
H        12.00579732       6.16251618      10.06548660         0.00000000       0.00000000       0.00000000          1
H        11.62532932       4.60546852       7.77744876         0.00000000       0.00000000       0.00000000          1
H        12.91649489       3.91114326      11.44614698         0.00000000       0.00000000       0.00000000          1
H        10.42291595       3.86384824      10.18753438         0.00000000       0.00000000       0.00000000          1
6
pbc=[F, F, F] list_num_par=6 frozen=false iter=20000 energy=-1.26974174 Lattice="15.00000000 0.00000000 0.00000000 0.00000000 15.00000000 0.00000000 0.00000000 0.00000000 15.00000000" energy_frozen_part=0.00000000 Properties=species:S:1:pos:R:3:velocities:R:3:Z:I:1
H        12.53722389       2.35475903       9.14300700         0.00000000       0.00000000       0.00000000          1
H        14.12042631       4.65383575       9.03341772         0.00000000       0.00000000       0.00000000          1
H        12.00813999       6.15794849      10.07273245         0.00000000       0.00000000       0.00000000          1
H        11.62614375       4.61424985       7.77591892         0.00000000       0.00000000       0.00000000          1
H        12.91922089       3.89845724      11.43982019         0.00000000       0.00000000       0.00000000          1
H        10.42494060       3.85887486      10.18232614         0.00000000       0.00000000       0.00000000          1
6
pbc=[F, F, F] list_num_par=6 frozen=false iter=20000 energy=-1.26974174 Lattice="15.00000000 0.00000000 0.00000000 0.00000000 15.00000000 0.00000000 0.00000000 0.00000000 15.00000000" energy_frozen_part=0.00000000 Properties=species:S:1:pos:R:3:velocities:R:3:Z:I:1
H        12.53837907       2.36244476       9.14625455         0.00000000       0.00000000       0.00000000          1
H        14.12776946       4.65780513       9.04916510         0.00000000       0.00000000       0.00000000          1
H        12.01366269       6.16529140      10.07985607         0.00000000       0.00000000       0.00000000          1
H        11.64015323       4.62656275       7.77831242         0.00000000       0.00000000       0.00000000          1
H        12.91188116       3.90117465      11.44779174         0.00000000       0.00000000       0.00000000          1
H        10.42426396       3.86993121      10.17693942         0.00000000       0.00000000       0.00000000          1
6
pbc=[F, F, F] list_num_par=6 frozen=false iter=20000 energy=-1.26974174 Lattice="15.00000000 0.00000000 0.00000000 0.00000000 15.00000000 0.00000000 0.00000000 0.00000000 15.00000000" energy_frozen_part=0.00000000 Properties=species:S:1:pos:R:3:velocities:R:3:Z:I:1
H        12.53611229       2.35400991       9.15808401         0.00000000       0.00000000       0.00000000          1
H        14.11891979       4.65273065       9.03601420         0.00000000       0.00000000       0.00000000          1
H        12.00576673       6.16243239      10.06541075         0.00000000       0.00000000       0.00000000          1
H        11.62534778       4.60534112       7.77739352         0.00000000       0.00000000       0.00000000          1
H        12.91653269       3.91110723      11.44610640         0.00000000       0.00000000       0.00000000          1
H        10.42295845       3.86371390      10.18748003         0.00000000       0.00000000       0.00000000          1
6
pbc=[F, F, F] list_num_par=6 frozen=false iter=20000 energy=-1.26974174 Lattice="15.00000000 0.00000000 0.00000000 0.00000000 15.00000000 0.00000000 0.00000000 0.00000000 15.00000000" energy_frozen_part=0.00000000 Properties=species:S:1:pos:R:3:velocities:R:3:Z:I:1
H        12.53596867       2.35405423       9.15811208         0.00000000       0.00000000       0.00000000          1
H        14.11889277       4.65268682       9.03603808         0.00000000       0.00000000       0.00000000          1
H        12.00583479       6.16249038      10.06547758         0.00000000       0.00000000       0.00000000          1
H        11.62530149       4.60543581       7.77745140         0.00000000       0.00000000       0.00000000          1
H        12.91649765       3.91110518      11.44614179         0.00000000       0.00000000       0.00000000          1
H        10.42290631       3.86385862      10.18755356         0.00000000       0.00000000       0.00000000          1
6
pbc=[F, F, F] list_num_par=6 frozen=false iter=20000 energy=-1.26974174 Lattice="15.00000000 0.00000000 0.00000000 0.00000000 15.00000000 0.00000000 0.00000000 0.00000000 15.00000000" energy_frozen_part=0.00000000 Properties=species:S:1:pos:R:3:velocities:R:3:Z:I:1
H        12.53600917       2.35409720       9.15810202         0.00000000       0.00000000       0.00000000          1
H        14.11889748       4.65276439       9.03605546         0.00000000       0.00000000       0.00000000          1
H        12.00580192       6.16252177      10.06549627         0.00000000       0.00000000       0.00000000          1
H        11.62531639       4.60547989       7.77745597         0.00000000       0.00000000       0.00000000          1
H        12.91650191       3.91113495      11.44614367         0.00000000       0.00000000       0.00000000          1
H        10.42291665       3.86385915      10.18754188         0.00000000       0.00000000       0.00000000          1
6
pbc=[F, F, F] list_num_par=6 frozen=false iter=20000 energy=-1.26974174 Lattice="15.00000000 0.00000000 0.00000000 0.00000000 15.00000000 0.00000000 0.00000000 0.00000000 15.00000000" energy_frozen_part=0.00000000 Properties=species:S:1:pos:R:3:velocities:R:3:Z:I:1
H        12.53874031       2.36280222       9.14564371         0.00000000       0.00000000       0.00000000          1
H        14.12762131       4.65852106       9.04868650         0.00000000       0.00000000       0.00000000          1
H        12.01321735       6.16546249      10.07956294         0.00000000       0.00000000       0.00000000          1
H        11.63996616       4.62682845       7.77791796         0.00000000       0.00000000       0.00000000          1
H        12.91198307       3.90143367      11.44729776         0.00000000       0.00000000       0.00000000          1
H        10.42433286       3.86974109      10.17652629         0.00000000       0.00000000       0.00000000          1
6
pbc=[F, F, F] list_num_par=6 frozen=false iter=20000 energy=-1.26974174 Lattice="15.00000000 0.00000000 0.00000000 0.00000000 15.00000000 0.00000000 0.00000000 0.00000000 15.00000000" energy_frozen_part=0.00000000 Properties=species:S:1:pos:R:3:velocities:R:3:Z:I:1
H        12.53872727       2.36281602       9.14568487         0.00000000       0.00000000       0.00000000          1
H        14.12760126       4.65854053       9.04871101         0.00000000       0.00000000       0.00000000          1
H        12.01316380       6.16549224      10.07951852         0.00000000       0.00000000       0.00000000          1
H        11.63996871       4.62680949       7.77789639         0.00000000       0.00000000       0.00000000          1
H        12.91191659       3.90149784      11.44731137         0.00000000       0.00000000       0.00000000          1
H        10.42429138       3.86976203      10.17649466         0.00000000       0.00000000       0.00000000          1
6
pbc=[F, F, F] list_num_par=6 frozen=false iter=20000 energy=-1.26974174 Lattice="15.00000000 0.00000000 0.00000000 0.00000000 15.00000000 0.00000000 0.00000000 0.00000000 15.00000000" energy_frozen_part=0.00000000 Properties=species:S:1:pos:R:3:velocities:R:3:Z:I:1
H        12.53838592       2.36245311       9.14624565         0.00000000       0.00000000       0.00000000          1
H        14.12777976       4.65781460       9.04915732         0.00000000       0.00000000       0.00000000          1
H        12.01367007       6.16530014      10.07984902         0.00000000       0.00000000       0.00000000          1
H        11.64016174       4.62657486       7.77830982         0.00000000       0.00000000       0.00000000          1
H        12.91189431       3.90117963      11.44778366         0.00000000       0.00000000       0.00000000          1
H        10.42427436       3.86994179      10.17693366         0.00000000       0.00000000       0.00000000          1
6
pbc=[F, F, F] list_num_par=6 frozen=false iter=20000 energy=-1.26974174 Lattice="15.00000000 0.00000000 0.00000000 0.00000000 15.00000000 0.00000000 0.00000000 0.00000000 15.00000000" energy_frozen_part=0.00000000 Properties=species:S:1:pos:R:3:velocities:R:3:Z:I:1
H        12.53610858       2.35401132       9.15808767         0.00000000       0.00000000       0.00000000          1
H        14.11892045       4.65272961       9.03601421         0.00000000       0.00000000       0.00000000          1
H        12.00576890       6.16243340      10.06541041         0.00000000       0.00000000       0.00000000          1
H        11.62534280       4.60533712       7.77739205         0.00000000       0.00000000       0.00000000          1
H        12.91652937       3.91110476      11.44610733         0.00000000       0.00000000       0.00000000          1
H        10.42295520       3.86371483      10.18748356         0.00000000       0.00000000       0.00000000          1
6
pbc=[F, F, F] list_num_par=6 frozen=false iter=20000 energy=-1.26974174 Lattice="15.00000000 0.00000000 0.00000000 0.00000000 15.00000000 0.00000000 0.00000000 0.00000000 15.00000000" energy_frozen_part=0.00000000 Properties=species:S:1:pos:R:3:velocities:R:3:Z:I:1
H        12.53874830       2.36283166       9.14566934         0.00000000       0.00000000       0.00000000          1
H        14.12759917       4.65857231       9.04870523         0.00000000       0.00000000       0.00000000          1
H        12.01315365       6.16548849      10.07953324         0.00000000       0.00000000       0.00000000          1
H        11.63996522       4.62682580       7.77789533         0.00000000       0.00000000       0.00000000          1
H        12.91194165       3.90149000      11.44730433         0.00000000       0.00000000       0.00000000          1
H        10.42430211       3.86974801      10.17649416         0.00000000       0.00000000       0.00000000          1
6
pbc=[F, F, F] list_num_par=6 frozen=false iter=20000 energy=-1.26974174 Lattice="15.00000000 0.00000000 0.00000000 0.00000000 15.00000000 0.00000000 0.00000000 0.00000000 15.00000000" energy_frozen_part=0.00000000 Properties=species:S:1:pos:R:3:velocities:R:3:Z:I:1
H        12.53829021       2.36245061       9.14608929         0.00000000       0.00000000       0.00000000          1
H        14.12776390       4.65776641       9.04914015         0.00000000       0.00000000       0.00000000          1
H        12.01370456       6.16526108      10.07992512         0.00000000       0.00000000       0.00000000          1
H        11.64013876       4.62668426       7.77829354         0.00000000       0.00000000       0.00000000          1
H        12.91185435       3.90103019      11.44772285         0.00000000       0.00000000       0.00000000          1
H        10.42422993       3.86994661      10.17687468         0.00000000       0.00000000       0.00000000          1
6
pbc=[F, F, F] list_num_par=6 frozen=false iter=20000 energy=-1.26974174 Lattice="15.00000000 0.00000000 0.00000000 0.00000000 15.00000000 0.00000000 0.00000000 0.00000000 15.00000000" energy_frozen_part=0.00000000 Properties=species:S:1:pos:R:3:velocities:R:3:Z:I:1
H        12.53872420       2.36281653       9.14567250         0.00000000       0.00000000       0.00000000          1
H        14.12759839       4.65854683       9.04871411         0.00000000       0.00000000       0.00000000          1
H        12.01316094       6.16547982      10.07952697         0.00000000       0.00000000       0.00000000          1
H        11.63996831       4.62681262       7.77789289         0.00000000       0.00000000       0.00000000          1
H        12.91191247       3.90148286      11.44730918         0.00000000       0.00000000       0.00000000          1
H        10.42428561       3.86975003      10.17648881         0.00000000       0.00000000       0.00000000          1
6
pbc=[F, F, F] list_num_par=6 frozen=false iter=20000 energy=-1.26974174 Lattice="15.00000000 0.00000000 0.00000000 0.00000000 15.00000000 0.00000000 0.00000000 0.00000000 15.00000000" energy_frozen_part=0.00000000 Properties=species:S:1:pos:R:3:velocities:R:3:Z:I:1
H        12.53598329       2.35410255       9.15809960         0.00000000       0.00000000       0.00000000          1
H        14.11888817       4.65275381       9.03604504         0.00000000       0.00000000       0.00000000          1
H        12.00581023       6.16253267      10.06548814         0.00000000       0.00000000       0.00000000          1
H        11.62530237       4.60548932       7.77744504         0.00000000       0.00000000       0.00000000          1
H        12.91648946       3.91114667      11.44613840         0.00000000       0.00000000       0.00000000          1
H        10.42290110       3.86387993      10.18753181         0.00000000       0.00000000       0.00000000          1
6
pbc=[F, F, F] list_num_par=6 frozen=false iter=20000 energy=-1.26974174 Lattice="15.00000000 0.00000000 0.00000000 0.00000000 15.00000000 0.00000000 0.00000000 0.00000000 15.00000000" energy_frozen_part=0.00000000 Properties=species:S:1:pos:R:3:velocities:R:3:Z:I:1
H        12.53839117       2.36243889       9.14622866         0.00000000       0.00000000       0.00000000          1
H        14.12776695       4.65781158       9.04915619         0.00000000       0.00000000       0.00000000          1
H        12.01365364       6.16528062      10.07985743         0.00000000       0.00000000       0.00000000          1
H        11.64014734       4.62656100       7.77831007         0.00000000       0.00000000       0.00000000          1
H        12.91188858       3.90116105      11.44778089         0.00000000       0.00000000       0.00000000          1
H        10.42427233       3.86990745      10.17693132         0.00000000       0.00000000       0.00000000          1
6
pbc=[F, F, F] list_num_par=6 frozen=false iter=20000 energy=-1.26974174 Lattice="15.00000000 0.00000000 0.00000000 0.00000000 15.00000000 0.00000000 0.00000000 0.00000000 15.00000000" energy_frozen_part=0.00000000 Properties=species:S:1:pos:R:3:velocities:R:3:Z:I:1
H        12.53872882       2.36280581       9.14563938         0.00000000       0.00000000       0.00000000          1
H        14.12762188       4.65851847       9.04868568         0.00000000       0.00000000       0.00000000          1
H        12.01321496       6.16545925      10.07956892         0.00000000       0.00000000       0.00000000          1
H        11.63996532       4.62683674       7.77791449         0.00000000       0.00000000       0.00000000          1
H        12.91197963       3.90142630      11.44729438         0.00000000       0.00000000       0.00000000          1
H        10.42432633       3.86974873      10.17652285         0.00000000       0.00000000       0.00000000          1
6
pbc=[F, F, F] list_num_par=6 frozen=false iter=20000 energy=-1.26974174 Lattice="15.00000000 0.00000000 0.00000000 0.00000000 15.00000000 0.00000000 0.00000000 0.00000000 15.00000000" energy_frozen_part=0.00000000 Properties=species:S:1:pos:R:3:velocities:R:3:Z:I:1
H        12.53872702       2.36281800       9.14568559         0.00000000       0.00000000       0.00000000          1
H        14.12761659       4.65853595       9.04872213         0.00000000       0.00000000       0.00000000          1
H        12.01318192       6.16549126      10.07951779         0.00000000       0.00000000       0.00000000          1
H        11.63998957       4.62681570       7.77789162         0.00000000       0.00000000       0.00000000          1
H        12.91192306       3.90148822      11.44731674         0.00000000       0.00000000       0.00000000          1
H        10.42429645       3.86977505      10.17648806         0.00000000       0.00000000       0.00000000          1
6
pbc=[F, F, F] list_num_par=6 frozen=false iter=20000 energy=-1.26974174 Lattice="15.00000000 0.00000000 0.00000000 0.00000000 15.00000000 0.00000000 0.00000000 0.00000000 15.00000000" energy_frozen_part=0.00000000 Properties=species:S:1:pos:R:3:velocities:R:3:Z:I:1
H        12.53836962       2.36247501       9.14621439         0.00000000       0.00000000       0.00000000          1
H        14.12779726       4.65781696       9.04919109         0.00000000       0.00000000       0.00000000          1
H        12.01370345       6.16530801      10.07990197         0.00000000       0.00000000       0.00000000          1
H        11.64018787       4.62664215       7.77832226         0.00000000       0.00000000       0.00000000          1
H        12.91188910       3.90114816      11.44779151         0.00000000       0.00000000       0.00000000          1
H        10.42427711       3.86996492      10.17692866         0.00000000       0.00000000       0.00000000          1
6
pbc=[F, F, F] list_num_par=6 frozen=false iter=20000 energy=-1.26974174 Lattice="15.00000000 0.00000000 0.00000000 0.00000000 15.00000000 0.00000000 0.00000000 0.00000000 15.00000000" energy_frozen_part=0.00000000 Properties=species:S:1:pos:R:3:velocities:R:3:Z:I:1
H        12.53612648       2.35398624       9.15813054         0.00000000       0.00000000       0.00000000          1
H        14.11891478       4.65271784       9.03602932         0.00000000       0.00000000       0.00000000          1
H        12.00573870       6.16241511      10.06540497         0.00000000       0.00000000       0.00000000          1
H        11.62534325       4.60529051       7.77740973         0.00000000       0.00000000       0.00000000          1
H        12.91652488       3.91111381      11.44612932         0.00000000       0.00000000       0.00000000          1
H        10.42295528       3.86368165      10.18750308         0.00000000       0.00000000       0.00000000          1
6
pbc=[F, F, F] list_num_par=6 frozen=false iter=20000 energy=-1.26974174 Lattice="15.00000000 0.00000000 0.00000000 0.00000000 15.00000000 0.00000000 0.00000000 0.00000000 15.00000000" energy_frozen_part=0.00000000 Properties=species:S:1:pos:R:3:velocities:R:3:Z:I:1
H        12.53599227       2.35408753       9.15814945         0.00000000       0.00000000       0.00000000          1
H        14.11887355       4.65275012       9.03605433         0.00000000       0.00000000       0.00000000          1
H        12.00578899       6.16252061      10.06550376         0.00000000       0.00000000       0.00000000          1
H        11.62527086       4.60545276       7.77748591         0.00000000       0.00000000       0.00000000          1
H        12.91650608       3.91115653      11.44616546         0.00000000       0.00000000       0.00000000          1
H        10.42290289       3.86385650      10.18759032         0.00000000       0.00000000       0.00000000          1
6
pbc=[F, F, F] list_num_par=6 frozen=false iter=20000 energy=-1.26974174 Lattice="15.00000000 0.00000000 0.00000000 0.00000000 15.00000000 0.00000000 0.00000000 0.00000000 15.00000000" energy_frozen_part=0.00000000 Properties=species:S:1:pos:R:3:velocities:R:3:Z:I:1
H        12.53597734       2.35410534       9.15809969         0.00000000       0.00000000       0.00000000          1
H        14.11887591       4.65276587       9.03605446         0.00000000       0.00000000       0.00000000          1
H        12.00579001       6.16253534      10.06548452         0.00000000       0.00000000       0.00000000          1
H        11.62529112       4.60549002       7.77744514         0.00000000       0.00000000       0.00000000          1
H        12.91647441       3.91115185      11.44614087         0.00000000       0.00000000       0.00000000          1
H        10.42289182       3.86387488      10.18753508         0.00000000       0.00000000       0.00000000          1
6
pbc=[F, F, F] list_num_par=6 frozen=false iter=20000 energy=-1.26974174 Lattice="15.00000000 0.00000000 0.00000000 0.00000000 15.00000000 0.00000000 0.00000000 0.00000000 15.00000000" energy_frozen_part=0.00000000 Properties=species:S:1:pos:R:3:velocities:R:3:Z:I:1
H        12.53836817       2.36246167       9.14621040         0.00000000       0.00000000       0.00000000          1
H        14.12779104       4.65780573       9.04918889         0.00000000       0.00000000       0.00000000          1
H        12.01369349       6.16528987      10.07990962         0.00000000       0.00000000       0.00000000          1
H        11.64017395       4.62662352       7.77832814         0.00000000       0.00000000       0.00000000          1
H        12.91189538       3.90112644      11.44779069         0.00000000       0.00000000       0.00000000          1
H        10.42427751       3.86993987      10.17693435         0.00000000       0.00000000       0.00000000          1
6
pbc=[F, F, F] list_num_par=6 frozen=false iter=20000 energy=-1.26974174 Lattice="15.00000000 0.00000000 0.00000000 0.00000000 15.00000000 0.00000000 0.00000000 0.00000000 15.00000000" energy_frozen_part=0.00000000 Properties=species:S:1:pos:R:3:velocities:R:3:Z:I:1
H        12.53872368       2.36281367       9.14567166         0.00000000       0.00000000       0.00000000          1
H        14.12759579       4.65853718       9.04870597         0.00000000       0.00000000       0.00000000          1
H        12.01316666       6.16548032      10.07952184         0.00000000       0.00000000       0.00000000          1
H        11.63996384       4.62681059       7.77788770         0.00000000       0.00000000       0.00000000          1
H        12.91192127       3.90147836      11.44730529         0.00000000       0.00000000       0.00000000          1
H        10.42428739       3.86975404      10.17648992         0.00000000       0.00000000       0.00000000          1
6
pbc=[F, F, F] list_num_par=6 frozen=false iter=20000 energy=-1.26974174 Lattice="15.00000000 0.00000000 0.00000000 0.00000000 15.00000000 0.00000000 0.00000000 0.00000000 15.00000000" energy_frozen_part=0.00000000 Properties=species:S:1:pos:R:3:velocities:R:3:Z:I:1
H        12.53609697       2.35402190       9.15808557         0.00000000       0.00000000       0.00000000          1
H        14.11890006       4.65274056       9.03600625         0.00000000       0.00000000       0.00000000          1
H        12.00575430       6.16244125      10.06542249         0.00000000       0.00000000       0.00000000          1
H        11.62531897       4.60535568       7.77739709         0.00000000       0.00000000       0.00000000          1
H        12.91652614       3.91110991      11.44610613         0.00000000       0.00000000       0.00000000          1
H        10.42294690       3.86372311      10.18749462         0.00000000       0.00000000       0.00000000          1
6
pbc=[F, F, F] list_num_par=6 frozen=false iter=20000 energy=-1.26974174 Lattice="15.00000000 0.00000000 0.00000000 0.00000000 15.00000000 0.00000000 0.00000000 0.00000000 15.00000000" energy_frozen_part=0.00000000 Properties=species:S:1:pos:R:3:velocities:R:3:Z:I:1
H        12.53598503       2.35408756       9.15814599         0.00000000       0.00000000       0.00000000          1
H        14.11887047       4.65274634       9.03605733         0.00000000       0.00000000       0.00000000          1
H        12.00578735       6.16251768      10.06550407         0.00000000       0.00000000       0.00000000          1
H        11.62526748       4.60545456       7.77748651         0.00000000       0.00000000       0.00000000          1
H        12.91651048       3.91115250      11.44616581         0.00000000       0.00000000       0.00000000          1
H        10.42290493       3.86385279      10.18760012         0.00000000       0.00000000       0.00000000          1
6
pbc=[F, F, F] list_num_par=6 frozen=false iter=20000 energy=-1.26974174 Lattice="15.00000000 0.00000000 0.00000000 0.00000000 15.00000000 0.00000000 0.00000000 0.00000000 15.00000000" energy_frozen_part=0.00000000 Properties=species:S:1:pos:R:3:velocities:R:3:Z:I:1
H        12.53609372       2.35402000       9.15808952         0.00000000       0.00000000       0.00000000          1
H        14.11890441       4.65273263       9.03600944         0.00000000       0.00000000       0.00000000          1
H        12.00576415       6.16243956      10.06541708         0.00000000       0.00000000       0.00000000          1
H        11.62532132       4.60535134       7.77740144         0.00000000       0.00000000       0.00000000          1
H        12.91652779       3.91111313      11.44611006         0.00000000       0.00000000       0.00000000          1
H        10.42294899       3.86372959      10.18749931         0.00000000       0.00000000       0.00000000          1
6
pbc=[F, F, F] list_num_par=6 frozen=false iter=20000 energy=-1.26974174 Lattice="15.00000000 0.00000000 0.00000000 0.00000000 15.00000000 0.00000000 0.00000000 0.00000000 15.00000000" energy_frozen_part=0.00000000 Properties=species:S:1:pos:R:3:velocities:R:3:Z:I:1
H        12.53827421       2.36245489       9.14608570         0.00000000       0.00000000       0.00000000          1
H        14.12775223       4.65776477       9.04913141         0.00000000       0.00000000       0.00000000          1
H        12.01370281       6.16526631      10.07992609         0.00000000       0.00000000       0.00000000          1
H        11.64012311       4.62669126       7.77829482         0.00000000       0.00000000       0.00000000          1
H        12.91184840       3.90102886      11.44771967         0.00000000       0.00000000       0.00000000          1
H        10.42422731       3.86995659      10.17688203         0.00000000       0.00000000       0.00000000          1
6
pbc=[F, F, F] list_num_par=6 frozen=false iter=20000 energy=-1.26974174 Lattice="15.00000000 0.00000000 0.00000000 0.00000000 15.00000000 0.00000000 0.00000000 0.00000000 15.00000000" energy_frozen_part=0.00000000 Properties=species:S:1:pos:R:3:velocities:R:3:Z:I:1
H        12.53837065       2.36247855       9.14621417         0.00000000       0.00000000       0.00000000          1
H        14.12779751       4.65781941       9.04919408         0.00000000       0.00000000       0.00000000          1
H        12.01370169       6.16530464      10.07989895         0.00000000       0.00000000       0.00000000          1
H        11.64019653       4.62663852       7.77831549         0.00000000       0.00000000       0.00000000          1
H        12.91187930       3.90114800      11.44779640         0.00000000       0.00000000       0.00000000          1
H        10.42427338       3.86996548      10.17691247         0.00000000       0.00000000       0.00000000          1
6
pbc=[F, F, F] list_num_par=6 frozen=false iter=20000 energy=-1.26974174 Lattice="15.00000000 0.00000000 0.00000000 0.00000000 15.00000000 0.00000000 0.00000000 0.00000000 15.00000000" energy_frozen_part=0.00000000 Properties=species:S:1:pos:R:3:velocities:R:3:Z:I:1
H        12.53838352       2.36244618       9.14623765         0.00000000       0.00000000       0.00000000          1
H        14.12776874       4.65781301       9.04914925         0.00000000       0.00000000       0.00000000          1
H        12.01364672       6.16528527      10.07984338         0.00000000       0.00000000       0.00000000          1
H        11.64015055       4.62656136       7.77830137         0.00000000       0.00000000       0.00000000          1
H        12.91188576       3.90117258      11.44777818         0.00000000       0.00000000       0.00000000          1
H        10.42426727       3.86991543      10.17692925         0.00000000       0.00000000       0.00000000          1
6
pbc=[F, F, F] list_num_par=6 frozen=false iter=20000 energy=-1.26974174 Lattice="15.00000000 0.00000000 0.00000000 0.00000000 15.00000000 0.00000000 0.00000000 0.00000000 15.00000000" energy_frozen_part=0.00000000 Properties=species:S:1:pos:R:3:velocities:R:3:Z:I:1
H        12.53836694       2.36248659       9.14620516         0.00000000       0.00000000       0.00000000          1
H        14.12780339       4.65782295       9.04919944         0.00000000       0.00000000       0.00000000          1
H        12.01370719       6.16531498      10.07991159         0.00000000       0.00000000       0.00000000          1
H        11.64019932       4.62665537       7.77832408         0.00000000       0.00000000       0.00000000          1
H        12.91188116       3.90114469      11.44778890         0.00000000       0.00000000       0.00000000          1
H        10.42427347       3.86997854      10.17691890         0.00000000       0.00000000       0.00000000          1
6
pbc=[F, F, F] list_num_par=6 frozen=false iter=20000 energy=-1.26974174 Lattice="15.00000000 0.00000000 0.00000000 0.00000000 15.00000000 0.00000000 0.00000000 0.00000000 15.00000000" energy_frozen_part=0.00000000 Properties=species:S:1:pos:R:3:velocities:R:3:Z:I:1
H        12.53872829       2.36282243       9.14568663         0.00000000       0.00000000       0.00000000          1
H        14.12760779       4.65854979       9.04873025         0.00000000       0.00000000       0.00000000          1
H        12.01316692       6.16549333      10.07952471         0.00000000       0.00000000       0.00000000          1
H        11.63998552       4.62682165       7.77789359         0.00000000       0.00000000       0.00000000          1
H        12.91190429       3.90149988      11.44731923         0.00000000       0.00000000       0.00000000          1
H        10.42428728       3.86976678      10.17648015         0.00000000       0.00000000       0.00000000          1
6
pbc=[F, F, F] list_num_par=6 frozen=false iter=20000 energy=-1.26974174 Lattice="15.00000000 0.00000000 0.00000000 0.00000000 15.00000000 0.00000000 0.00000000 0.00000000 15.00000000" energy_frozen_part=0.00000000 Properties=species:S:1:pos:R:3:velocities:R:3:Z:I:1
H        12.53838376       2.36249226       9.14621708         0.00000000       0.00000000       0.00000000          1
H        14.12773798       4.65787985       9.04910003         0.00000000       0.00000000       0.00000000          1
H        12.01362589       6.16533031      10.07982848         0.00000000       0.00000000       0.00000000          1
H        11.64009470       4.62659020       7.77829349         0.00000000       0.00000000       0.00000000          1
H        12.91191732       3.90122966      11.44775204         0.00000000       0.00000000       0.00000000          1
H        10.42427084       3.86994182      10.17694761         0.00000000       0.00000000       0.00000000          1
6
pbc=[F, F, F] list_num_par=6 frozen=false iter=20000 energy=-1.26974174 Lattice="15.00000000 0.00000000 0.00000000 0.00000000 15.00000000 0.00000000 0.00000000 0.00000000 15.00000000" energy_frozen_part=0.00000000 Properties=species:S:1:pos:R:3:velocities:R:3:Z:I:1
H        12.53610418       2.35401388       9.15809595         0.00000000       0.00000000       0.00000000          1
H        14.11890458       4.65273974       9.03599013         0.00000000       0.00000000       0.00000000          1
H        12.00576495       6.16243476      10.06542280         0.00000000       0.00000000       0.00000000          1
H        11.62530557       4.60533841       7.77741553         0.00000000       0.00000000       0.00000000          1
H        12.91656129       3.91111099      11.44610310         0.00000000       0.00000000       0.00000000          1
H        10.42296101       3.86371075      10.18753029         0.00000000       0.00000000       0.00000000          1
6
pbc=[F, F, F] list_num_par=6 frozen=false iter=20000 energy=-1.26974174 Lattice="15.00000000 0.00000000 0.00000000 0.00000000 15.00000000 0.00000000 0.00000000 0.00000000 15.00000000" energy_frozen_part=0.00000000 Properties=species:S:1:pos:R:3:velocities:R:3:Z:I:1
H        12.53873612       2.36279407       9.14562404         0.00000000       0.00000000       0.00000000          1
H        14.12761437       4.65852183       9.04867925         0.00000000       0.00000000       0.00000000          1
H        12.01320096       6.16544149      10.07957268         0.00000000       0.00000000       0.00000000          1
H        11.63995901       4.62682657       7.77791281         0.00000000       0.00000000       0.00000000          1
H        12.91199099       3.90141123      11.44728270         0.00000000       0.00000000       0.00000000          1
H        10.42432797       3.86971347      10.17652073         0.00000000       0.00000000       0.00000000          1
6
pbc=[F, F, F] list_num_par=6 frozen=false iter=20000 energy=-1.26974174 Lattice="15.00000000 0.00000000 0.00000000 0.00000000 15.00000000 0.00000000 0.00000000 0.00000000 15.00000000" energy_frozen_part=0.00000000 Properties=species:S:1:pos:R:3:velocities:R:3:Z:I:1
H        12.53870268       2.36281198       9.14570359         0.00000000       0.00000000       0.00000000          1
H        14.12758162       4.65852974       9.04871681         0.00000000       0.00000000       0.00000000          1
H        12.01316094       6.16548496      10.07953882         0.00000000       0.00000000       0.00000000          1
H        11.63994116       4.62680462       7.77791878         0.00000000       0.00000000       0.00000000          1
H        12.91191397       3.90148820      11.44732951         0.00000000       0.00000000       0.00000000          1
H        10.42427695       3.86976350      10.17653209         0.00000000       0.00000000       0.00000000          1
6
pbc=[F, F, F] list_num_par=6 frozen=false iter=20000 energy=-1.26974174 Lattice="15.00000000 0.00000000 0.00000000 0.00000000 15.00000000 0.00000000 0.00000000 0.00000000 15.00000000" energy_frozen_part=0.00000000 Properties=species:S:1:pos:R:3:velocities:R:3:Z:I:1
H        12.53724018       2.35476218       9.14301158         0.00000000       0.00000000       0.00000000          1
H        14.12042937       4.65384949       9.03343119         0.00000000       0.00000000       0.00000000          1
H        12.00813700       6.15794641      10.07274531         0.00000000       0.00000000       0.00000000          1
H        11.62615253       4.61425326       7.77592782         0.00000000       0.00000000       0.00000000          1
H        12.91921605       3.89845552      11.43983170         0.00000000       0.00000000       0.00000000          1
H        10.42494439       3.85886581      10.18232766         0.00000000       0.00000000       0.00000000          1
6
pbc=[F, F, F] list_num_par=6 frozen=false iter=20000 energy=-1.26974174 Lattice="15.00000000 0.00000000 0.00000000 0.00000000 15.00000000 0.00000000 0.00000000 0.00000000 15.00000000" energy_frozen_part=0.00000000 Properties=species:S:1:pos:R:3:velocities:R:3:Z:I:1
H        12.53610151       2.35401188       9.15809371         0.00000000       0.00000000       0.00000000          1
H        14.11891905       4.65272438       9.03601936         0.00000000       0.00000000       0.00000000          1
H        12.00577177       6.16243419      10.06541820         0.00000000       0.00000000       0.00000000          1
H        11.62534325       4.60534077       7.77740194         0.00000000       0.00000000       0.00000000          1
H        12.91653113       3.91109897      11.44611383         0.00000000       0.00000000       0.00000000          1
H        10.42295193       3.86372174      10.18749426         0.00000000       0.00000000       0.00000000          1
6
pbc=[F, F, F] list_num_par=6 frozen=false iter=20000 energy=-1.26974174 Lattice="15.00000000 0.00000000 0.00000000 0.00000000 15.00000000 0.00000000 0.00000000 0.00000000 15.00000000" energy_frozen_part=0.00000000 Properties=species:S:1:pos:R:3:velocities:R:3:Z:I:1
H        12.53873258       2.36279871       9.14565410         0.00000000       0.00000000       0.00000000          1
H        14.12762615       4.65851442       9.04868940         0.00000000       0.00000000       0.00000000          1
H        12.01321763       6.16545635      10.07956409         0.00000000       0.00000000       0.00000000          1
H        11.63997040       4.62682661       7.77792113         0.00000000       0.00000000       0.00000000          1
H        12.91198315       3.90143429      11.44729881         0.00000000       0.00000000       0.00000000          1
H        10.42432963       3.86974415      10.17653215         0.00000000       0.00000000       0.00000000          1
6
pbc=[F, F, F] list_num_par=6 frozen=false iter=20000 energy=-1.26974174 Lattice="15.00000000 0.00000000 0.00000000 0.00000000 15.00000000 0.00000000 0.00000000 0.00000000 15.00000000" energy_frozen_part=0.00000000 Properties=species:S:1:pos:R:3:velocities:R:3:Z:I:1
H        12.53836970       2.36246411       9.14622179         0.00000000       0.00000000       0.00000000          1
H        14.12778968       4.65781307       9.04919974         0.00000000       0.00000000       0.00000000          1
H        12.01368775       6.16529370      10.07990921         0.00000000       0.00000000       0.00000000          1
H        11.64017645       4.62662355       7.77833302         0.00000000       0.00000000       0.00000000          1
H        12.91188256       3.90113919      11.44780086         0.00000000       0.00000000       0.00000000          1
H        10.42426957       3.86994698      10.17694117         0.00000000       0.00000000       0.00000000          1
6
pbc=[F, F, F] list_num_par=6 frozen=false iter=20000 energy=-1.26974174 Lattice="15.00000000 0.00000000 0.00000000 0.00000000 15.00000000 0.00000000 0.00000000 0.00000000 15.00000000" energy_frozen_part=0.00000000 Properties=species:S:1:pos:R:3:velocities:R:3:Z:I:1
H        12.53600502       2.35409717       9.15810321         0.00000000       0.00000000       0.00000000          1
H        14.11889601       4.65276257       9.03607015         0.00000000       0.00000000       0.00000000          1
H        12.00580134       6.16252581      10.06550155         0.00000000       0.00000000       0.00000000          1
H        11.62532033       4.60548704       7.77745781         0.00000000       0.00000000       0.00000000          1
H        12.91648701       3.91113460      11.44614868         0.00000000       0.00000000       0.00000000          1
H        10.42290944       3.86386146      10.18753974         0.00000000       0.00000000       0.00000000          1
6
pbc=[F, F, F] list_num_par=6 frozen=false iter=20000 energy=-1.26974174 Lattice="15.00000000 0.00000000 0.00000000 0.00000000 15.00000000 0.00000000 0.00000000 0.00000000 15.00000000" energy_frozen_part=0.00000000 Properties=species:S:1:pos:R:3:velocities:R:3:Z:I:1
H        12.53873551       2.36280680       9.14564136         0.00000000       0.00000000       0.00000000          1
H        14.12761849       4.65852623       9.04868717         0.00000000       0.00000000       0.00000000          1
H        12.01321473       6.16545796      10.07956769         0.00000000       0.00000000       0.00000000          1
H        11.63996821       4.62683501       7.77791606         0.00000000       0.00000000       0.00000000          1
H        12.91197849       3.90143033      11.44729473         0.00000000       0.00000000       0.00000000          1
H        10.42433030       3.86974139      10.17652217         0.00000000       0.00000000       0.00000000          1
6
pbc=[F, F, F] list_num_par=6 frozen=false iter=20000 energy=-1.26974174 Lattice="15.00000000 0.00000000 0.00000000 0.00000000 15.00000000 0.00000000 0.00000000 0.00000000 15.00000000" energy_frozen_part=0.00000000 Properties=species:S:1:pos:R:3:velocities:R:3:Z:I:1
H        12.53837632       2.36247135       9.14622280         0.00000000       0.00000000       0.00000000          1
H        14.12779183       4.65781458       9.04919149         0.00000000       0.00000000       0.00000000          1
H        12.01369291       6.16529947      10.07990203         0.00000000       0.00000000       0.00000000          1
H        11.64017509       4.62662380       7.77832753         0.00000000       0.00000000       0.00000000          1
H        12.91188474       3.90114527      11.44779665         0.00000000       0.00000000       0.00000000          1
H        10.42427195       3.86995462      10.17693359         0.00000000       0.00000000       0.00000000          1
6
pbc=[F, F, F] list_num_par=6 frozen=false iter=20000 energy=-1.26974174 Lattice="15.00000000 0.00000000 0.00000000 0.00000000 15.00000000 0.00000000 0.00000000 0.00000000 15.00000000" energy_frozen_part=0.00000000 Properties=species:S:1:pos:R:3:velocities:R:3:Z:I:1
H        12.53602103       2.35409331       9.15811340         0.00000000       0.00000000       0.00000000          1
H        14.11890102       4.65276015       9.03605868         0.00000000       0.00000000       0.00000000          1
H        12.00580000       6.16251829      10.06548375         0.00000000       0.00000000       0.00000000          1
H        11.62532273       4.60546680       7.77744855         0.00000000       0.00000000       0.00000000          1
H        12.91649544       3.91114631      11.44614878         0.00000000       0.00000000       0.00000000          1
H        10.42291430       3.86384919      10.18753732         0.00000000       0.00000000       0.00000000          1
6
pbc=[F, F, F] list_num_par=6 frozen=false iter=20000 energy=-1.26974174 Lattice="15.00000000 0.00000000 0.00000000 0.00000000 15.00000000 0.00000000 0.00000000 0.00000000 15.00000000" energy_frozen_part=0.00000000 Properties=species:S:1:pos:R:3:velocities:R:3:Z:I:1
H        12.53610208       2.35401411       9.15808235         0.00000000       0.00000000       0.00000000          1
H        14.11891690       4.65272438       9.03601558         0.00000000       0.00000000       0.00000000          1
H        12.00576976       6.16243569      10.06541217         0.00000000       0.00000000       0.00000000          1
H        11.62534150       4.60534591       7.77739254         0.00000000       0.00000000       0.00000000          1
H        12.91653347       3.91110240      11.44610459         0.00000000       0.00000000       0.00000000          1
H        10.42295681       3.86372679      10.18748713         0.00000000       0.00000000       0.00000000          1
6
pbc=[F, F, F] list_num_par=6 frozen=false iter=20000 energy=-1.26974174 Lattice="15.00000000 0.00000000 0.00000000 0.00000000 15.00000000 0.00000000 0.00000000 0.00000000 15.00000000" energy_frozen_part=0.00000000 Properties=species:S:1:pos:R:3:velocities:R:3:Z:I:1
H        12.53838982       2.36245545       9.14624336         0.00000000       0.00000000       0.00000000          1
H        14.12778195       4.65781534       9.04915976         0.00000000       0.00000000       0.00000000          1
H        12.01366836       6.16529870      10.07984922         0.00000000       0.00000000       0.00000000          1
H        11.64016007       4.62657327       7.77830811         0.00000000       0.00000000       0.00000000          1
H        12.91189913       3.90117833      11.44778688         0.00000000       0.00000000       0.00000000          1
H        10.42428010       3.86993201      10.17693614         0.00000000       0.00000000       0.00000000          1
6
pbc=[F, F, F] list_num_par=6 frozen=false iter=20000 energy=-1.26974174 Lattice="15.00000000 0.00000000 0.00000000 0.00000000 15.00000000 0.00000000 0.00000000 0.00000000 15.00000000" energy_frozen_part=0.00000000 Properties=species:S:1:pos:R:3:velocities:R:3:Z:I:1
H        12.53833954       2.36246285       9.14624515         0.00000000       0.00000000       0.00000000          1
H        14.12778183       4.65779067       9.04918108         0.00000000       0.00000000       0.00000000          1
H        12.01371160       6.16530327      10.07990296         0.00000000       0.00000000       0.00000000          1
H        11.64015216       4.62661612       7.77834383         0.00000000       0.00000000       0.00000000          1
H        12.91189065       3.90114988      11.44780924         0.00000000       0.00000000       0.00000000          1
H        10.42426916       3.86997758      10.17697022         0.00000000       0.00000000       0.00000000          1
6
pbc=[F, F, F] list_num_par=6 frozen=false iter=20000 energy=-1.26974174 Lattice="15.00000000 0.00000000 0.00000000 0.00000000 15.00000000 0.00000000 0.00000000 0.00000000 15.00000000" energy_frozen_part=0.00000000 Properties=species:S:1:pos:R:3:velocities:R:3:Z:I:1
H        12.53829521       2.36245218       9.14609519         0.00000000       0.00000000       0.00000000          1
H        14.12776449       4.65777355       9.04916461         0.00000000       0.00000000       0.00000000          1
H        12.01368592       6.16525652      10.07992876         0.00000000       0.00000000       0.00000000          1
H        11.64015447       4.62668273       7.77828996         0.00000000       0.00000000       0.00000000          1
H        12.91183461       3.90103223      11.44773268         0.00000000       0.00000000       0.00000000          1
H        10.42422275       3.86993703      10.17686090         0.00000000       0.00000000       0.00000000          1
6
pbc=[F, F, F] list_num_par=6 frozen=false iter=20000 energy=-1.26974174 Lattice="15.00000000 0.00000000 0.00000000 0.00000000 15.00000000 0.00000000 0.00000000 0.00000000 15.00000000" energy_frozen_part=0.00000000 Properties=species:S:1:pos:R:3:velocities:R:3:Z:I:1
H        12.53602090       2.35409702       9.15810353         0.00000000       0.00000000       0.00000000          1
H        14.11890575       4.65276736       9.03605044         0.00000000       0.00000000       0.00000000          1
H        12.00581635       6.16252260      10.06549254         0.00000000       0.00000000       0.00000000          1
H        11.62531827       4.60547846       7.77745546         0.00000000       0.00000000       0.00000000          1
H        12.91652216       3.91114317      11.44614083         0.00000000       0.00000000       0.00000000          1
H        10.42292896       3.86385815      10.18755054         0.00000000       0.00000000       0.00000000          1
6
pbc=[F, F, F] list_num_par=6 frozen=false iter=20000 energy=-1.26974174 Lattice="15.00000000 0.00000000 0.00000000 0.00000000 15.00000000 0.00000000 0.00000000 0.00000000 15.00000000" energy_frozen_part=0.00000000 Properties=species:S:1:pos:R:3:velocities:R:3:Z:I:1
H        12.53836949       2.36246214       9.14622207         0.00000000       0.00000000       0.00000000          1
H        14.12778961       4.65781246       9.04919887         0.00000000       0.00000000       0.00000000          1
H        12.01368589       6.16529580      10.07990470         0.00000000       0.00000000       0.00000000          1
H        11.64017966       4.62662249       7.77833132         0.00000000       0.00000000       0.00000000          1
H        12.91187469       3.90114035      11.44779813         0.00000000       0.00000000       0.00000000          1
H        10.42426593       3.86994331      10.17693052         0.00000000       0.00000000       0.00000000          1
6
pbc=[F, F, F] list_num_par=6 frozen=false iter=20000 energy=-1.26974174 Lattice="15.00000000 0.00000000 0.00000000 0.00000000 15.00000000 0.00000000 0.00000000 0.00000000 15.00000000" energy_frozen_part=0.00000000 Properties=species:S:1:pos:R:3:velocities:R:3:Z:I:1
H        12.53836433       2.36246470       9.14621426         0.00000000       0.00000000       0.00000000          1
H        14.12778121       4.65781733       9.04918771         0.00000000       0.00000000       0.00000000          1
H        12.01368452       6.16529698      10.07990929         0.00000000       0.00000000       0.00000000          1
H        11.64016446       4.62662484       7.77833406         0.00000000       0.00000000       0.00000000          1
H        12.91188459       3.90113574      11.44779515         0.00000000       0.00000000       0.00000000          1
H        10.42426650       3.86994593      10.17694231         0.00000000       0.00000000       0.00000000          1
6
pbc=[F, F, F] list_num_par=6 frozen=false iter=20000 energy=-1.26974174 Lattice="15.00000000 0.00000000 0.00000000 0.00000000 15.00000000 0.00000000 0.00000000 0.00000000 15.00000000" energy_frozen_part=0.00000000 Properties=species:S:1:pos:R:3:velocities:R:3:Z:I:1
H        12.53839348       2.36245939       9.14625209         0.00000000       0.00000000       0.00000000          1
H        14.12777440       4.65782813       9.04916965         0.00000000       0.00000000       0.00000000          1
H        12.01366178       6.16529599      10.07987141         0.00000000       0.00000000       0.00000000          1
H        11.64015145       4.62657497       7.77832169         0.00000000       0.00000000       0.00000000          1
H        12.91189366       3.90118154      11.44779701         0.00000000       0.00000000       0.00000000          1
H        10.42427596       3.86992787      10.17694684         0.00000000       0.00000000       0.00000000          1
6
pbc=[F, F, F] list_num_par=6 frozen=false iter=20000 energy=-1.26974174 Lattice="15.00000000 0.00000000 0.00000000 0.00000000 15.00000000 0.00000000 0.00000000 0.00000000 15.00000000" energy_frozen_part=0.00000000 Properties=species:S:1:pos:R:3:velocities:R:3:Z:I:1
H        12.53828960       2.36245711       9.14609740         0.00000000       0.00000000       0.00000000          1
H        14.12776531       4.65776812       9.04915139         0.00000000       0.00000000       0.00000000          1
H        12.01370834       6.16526335      10.07993559         0.00000000       0.00000000       0.00000000          1
H        11.64014681       4.62669208       7.77830045         0.00000000       0.00000000       0.00000000          1
H        12.91184748       3.90102782      11.44773519         0.00000000       0.00000000       0.00000000          1
H        10.42422879       3.86995260      10.17687742         0.00000000       0.00000000       0.00000000          1
6
pbc=[F, F, F] list_num_par=6 frozen=false iter=20000 energy=-1.26974174 Lattice="15.00000000 0.00000000 0.00000000 0.00000000 15.00000000 0.00000000 0.00000000 0.00000000 15.00000000" energy_frozen_part=0.00000000 Properties=species:S:1:pos:R:3:velocities:R:3:Z:I:1
H        12.53597349       2.35409554       9.15808755         0.00000000       0.00000000       0.00000000          1
H        14.11887978       4.65275087       9.03604169         0.00000000       0.00000000       0.00000000          1
H        12.00579962       6.16251816      10.06549833         0.00000000       0.00000000       0.00000000          1
H        11.62529008       4.60548979       7.77744665         0.00000000       0.00000000       0.00000000          1
H        12.91648415       3.91112349      11.44613405         0.00000000       0.00000000       0.00000000          1
H        10.42289489       3.86386924      10.18753672         0.00000000       0.00000000       0.00000000          1
6
pbc=[F, F, F] list_num_par=6 frozen=false iter=20000 energy=-1.26974174 Lattice="15.00000000 0.00000000 0.00000000 0.00000000 15.00000000 0.00000000 0.00000000 0.00000000 15.00000000" energy_frozen_part=0.00000000 Properties=species:S:1:pos:R:3:velocities:R:3:Z:I:1
H        12.53610443       2.35402486       9.15810283         0.00000000       0.00000000       0.00000000          1
H        14.11890945       4.65274437       9.03599932         0.00000000       0.00000000       0.00000000          1
H        12.00576863       6.16244952      10.06542569         0.00000000       0.00000000       0.00000000          1
H        11.62531665       4.60534838       7.77741763         0.00000000       0.00000000       0.00000000          1
H        12.91655071       3.91112759      11.44611085         0.00000000       0.00000000       0.00000000          1
H        10.42295999       3.86373432      10.18752238         0.00000000       0.00000000       0.00000000          1
6
pbc=[F, F, F] list_num_par=6 frozen=false iter=20000 energy=-1.26974174 Lattice="15.00000000 0.00000000 0.00000000 0.00000000 15.00000000 0.00000000 0.00000000 0.00000000 15.00000000" energy_frozen_part=0.00000000 Properties=species:S:1:pos:R:3:velocities:R:3:Z:I:1
H        12.53828541       2.36244689       9.14609903         0.00000000       0.00000000       0.00000000          1
H        14.12776436       4.65775409       9.04914911         0.00000000       0.00000000       0.00000000          1
H        12.01371225       6.16526053      10.07992545         0.00000000       0.00000000       0.00000000          1
H        11.64014324       4.62667901       7.77829818         0.00000000       0.00000000       0.00000000          1
H        12.91184943       3.90102980      11.44772947         0.00000000       0.00000000       0.00000000          1
H        10.42422995       3.86994629      10.17687888         0.00000000       0.00000000       0.00000000          1
6
pbc=[F, F, F] list_num_par=6 frozen=false iter=20000 energy=-1.26974174 Lattice="15.00000000 0.00000000 0.00000000 0.00000000 15.00000000 0.00000000 0.00000000 0.00000000 15.00000000" energy_frozen_part=0.00000000 Properties=species:S:1:pos:R:3:velocities:R:3:Z:I:1
H        12.53839136       2.36248966       9.14621549         0.00000000       0.00000000       0.00000000          1
H        14.12774554       4.65787228       9.04909424         0.00000000       0.00000000       0.00000000          1
H        12.01362883       6.16532109      10.07982356         0.00000000       0.00000000       0.00000000          1
H        11.64010292       4.62658544       7.77828961         0.00000000       0.00000000       0.00000000          1
H        12.91191175       3.90122420      11.44774770         0.00000000       0.00000000       0.00000000          1
H        10.42427239       3.86993494      10.17694082         0.00000000       0.00000000       0.00000000          1
6
pbc=[F, F, F] list_num_par=6 frozen=false iter=20000 energy=-1.26974174 Lattice="15.00000000 0.00000000 0.00000000 0.00000000 15.00000000 0.00000000 0.00000000 0.00000000 15.00000000" energy_frozen_part=0.00000000 Properties=species:S:1:pos:R:3:velocities:R:3:Z:I:1
H        12.53870168       2.36279377       9.14570802         0.00000000       0.00000000       0.00000000          1
H        14.12759432       4.65850711       9.04871202         0.00000000       0.00000000       0.00000000          1
H        12.01317608       6.16547746      10.07950797         0.00000000       0.00000000       0.00000000          1
H        11.63996030       4.62678453       7.77789518         0.00000000       0.00000000       0.00000000          1
H        12.91190861       3.90148731      11.44732002         0.00000000       0.00000000       0.00000000          1
H        10.42427715       3.86976417      10.17650467         0.00000000       0.00000000       0.00000000          1
6
pbc=[F, F, F] list_num_par=6 frozen=false iter=20000 energy=-1.26974174 Lattice="15.00000000 0.00000000 0.00000000 0.00000000 15.00000000 0.00000000 0.00000000 0.00000000 15.00000000" energy_frozen_part=0.00000000 Properties=species:S:1:pos:R:3:velocities:R:3:Z:I:1
H        12.53873723       2.36282186       9.14566953         0.00000000       0.00000000       0.00000000          1
H        14.12759761       4.65856147       9.04869510         0.00000000       0.00000000       0.00000000          1
H        12.01315625       6.16548449      10.07951824         0.00000000       0.00000000       0.00000000          1
H        11.63995713       4.62680949       7.77789091         0.00000000       0.00000000       0.00000000          1
H        12.91193676       3.90149104      11.44729979         0.00000000       0.00000000       0.00000000          1
H        10.42429979       3.86974472      10.17649722         0.00000000       0.00000000       0.00000000          1
6
pbc=[F, F, F] list_num_par=6 frozen=false iter=20000 energy=-1.26974174 Lattice="15.00000000 0.00000000 0.00000000 0.00000000 15.00000000 0.00000000 0.00000000 0.00000000 15.00000000" energy_frozen_part=0.00000000 Properties=species:S:1:pos:R:3:velocities:R:3:Z:I:1
H        12.53875176       2.36282103       9.14567417         0.00000000       0.00000000       0.00000000          1
H        14.12760217       4.65856730       9.04870103         0.00000000       0.00000000       0.00000000          1
H        12.01315197       6.16548981      10.07951237         0.00000000       0.00000000       0.00000000          1
H        11.63996761       4.62680514       7.77788465         0.00000000       0.00000000       0.00000000          1
H        12.91193267       3.90150454      11.44730028         0.00000000       0.00000000       0.00000000          1
H        10.42430375       3.86974481      10.17648843         0.00000000       0.00000000       0.00000000          1
6
pbc=[F, F, F] list_num_par=6 frozen=false iter=20000 energy=-1.26974174 Lattice="15.00000000 0.00000000 0.00000000 0.00000000 15.00000000 0.00000000 0.00000000 0.00000000 15.00000000" energy_frozen_part=0.00000000 Properties=species:S:1:pos:R:3:velocities:R:3:Z:I:1
H        12.53837314       2.36246337       9.14624027         0.00000000       0.00000000       0.00000000          1
H        14.12779275       4.65780973       9.04920337         0.00000000       0.00000000       0.00000000          1
H        12.01368953       6.16530783      10.07989084         0.00000000       0.00000000       0.00000000          1
H        11.64019116       4.62661196       7.77832474         0.00000000       0.00000000       0.00000000          1
H        12.91187070       3.90115887      11.44780413         0.00000000       0.00000000       0.00000000          1
H        10.42427093       3.86995707      10.17692527         0.00000000       0.00000000       0.00000000          1
6
pbc=[F, F, F] list_num_par=6 frozen=false iter=20000 energy=-1.26974174 Lattice="15.00000000 0.00000000 0.00000000 0.00000000 15.00000000 0.00000000 0.00000000 0.00000000 15.00000000" energy_frozen_part=0.00000000 Properties=species:S:1:pos:R:3:velocities:R:3:Z:I:1
H        12.53837870       2.36246311       9.14621369         0.00000000       0.00000000       0.00000000          1
H        14.12779337       4.65781236       9.04918226         0.00000000       0.00000000       0.00000000          1
H        12.01369659       6.16528942      10.07990303         0.00000000       0.00000000       0.00000000          1
H        11.64017483       4.62662048       7.77833057         0.00000000       0.00000000       0.00000000          1
H        12.91189463       3.90113139      11.44779231         0.00000000       0.00000000       0.00000000          1
H        10.42427877       3.86993919      10.17693842         0.00000000       0.00000000       0.00000000          1
6
pbc=[F, F, F] list_num_par=6 frozen=false iter=20000 energy=-1.26974174 Lattice="15.00000000 0.00000000 0.00000000 0.00000000 15.00000000 0.00000000 0.00000000 0.00000000 15.00000000" energy_frozen_part=0.00000000 Properties=species:S:1:pos:R:3:velocities:R:3:Z:I:1
H        12.53609401       2.35402285       9.15808426         0.00000000       0.00000000       0.00000000          1
H        14.11890271       4.65273752       9.03599477         0.00000000       0.00000000       0.00000000          1
H        12.00576134       6.16243887      10.06542138         0.00000000       0.00000000       0.00000000          1
H        11.62531706       4.60535092       7.77740504         0.00000000       0.00000000       0.00000000          1
H        12.91654135       3.91111228      11.44610366         0.00000000       0.00000000       0.00000000          1
H        10.42295210       3.86372461      10.18750958         0.00000000       0.00000000       0.00000000          1
6
pbc=[F, F, F] list_num_par=6 frozen=false iter=20000 energy=-1.26974174 Lattice="15.00000000 0.00000000 0.00000000 0.00000000 15.00000000 0.00000000 0.00000000 0.00000000 15.00000000" energy_frozen_part=0.00000000 Properties=species:S:1:pos:R:3:velocities:R:3:Z:I:1
H        12.53836362       2.36248096       9.14620457         0.00000000       0.00000000       0.00000000          1
H        14.12780181       4.65781784       9.04919470         0.00000000       0.00000000       0.00000000          1
H        12.01370252       6.16530847      10.07990157         0.00000000       0.00000000       0.00000000          1
H        11.64019546       4.62665132       7.77831644         0.00000000       0.00000000       0.00000000          1
H        12.91187936       3.90114015      11.44778878         0.00000000       0.00000000       0.00000000          1
H        10.42427134       3.86997187      10.17691522         0.00000000       0.00000000       0.00000000          1
6
pbc=[F, F, F] list_num_par=6 frozen=false iter=20000 energy=-1.26974174 Lattice="15.00000000 0.00000000 0.00000000 0.00000000 15.00000000 0.00000000 0.00000000 0.00000000 15.00000000" energy_frozen_part=0.00000000 Properties=species:S:1:pos:R:3:velocities:R:3:Z:I:1
H        12.53598105       2.35404774       9.15812278         0.00000000       0.00000000       0.00000000          1
H        14.11889684       4.65268634       9.03604564         0.00000000       0.00000000       0.00000000          1
H        12.00583060       6.16248567      10.06548514         0.00000000       0.00000000       0.00000000          1
H        11.62530504       4.60543383       7.77746022         0.00000000       0.00000000       0.00000000          1
H        12.91650710       3.91110718      11.44615039         0.00000000       0.00000000       0.00000000          1
H        10.42291535       3.86384244      10.18756147         0.00000000       0.00000000       0.00000000          1
6
pbc=[F, F, F] list_num_par=6 frozen=false iter=20000 energy=-1.26974174 Lattice="15.00000000 0.00000000 0.00000000 0.00000000 15.00000000 0.00000000 0.00000000 0.00000000 15.00000000" energy_frozen_part=0.00000000 Properties=species:S:1:pos:R:3:velocities:R:3:Z:I:1
H        12.53828592       2.36245883       9.14608943         0.00000000       0.00000000       0.00000000          1
H        14.12775890       4.65776728       9.04913319         0.00000000       0.00000000       0.00000000          1
H        12.01370990       6.16526698      10.07992392         0.00000000       0.00000000       0.00000000          1
H        11.64013680       4.62669146       7.77829279         0.00000000       0.00000000       0.00000000          1
H        12.91185614       3.90103617      11.44771806         0.00000000       0.00000000       0.00000000          1
H        10.42423211       3.86995391      10.17687676         0.00000000       0.00000000       0.00000000          1
6
pbc=[F, F, F] list_num_par=6 frozen=false iter=20000 energy=-1.26974174 Lattice="15.00000000 0.00000000 0.00000000 0.00000000 15.00000000 0.00000000 0.00000000 0.00000000 15.00000000" energy_frozen_part=0.00000000 Properties=species:S:1:pos:R:3:velocities:R:3:Z:I:1
H        12.53838591       2.36243952       9.14623694         0.00000000       0.00000000       0.00000000          1
H        14.12776607       4.65781401       9.04914883         0.00000000       0.00000000       0.00000000          1
H        12.01364698       6.16527939      10.07985407         0.00000000       0.00000000       0.00000000          1
H        11.64014747       4.62655601       7.77830704         0.00000000       0.00000000       0.00000000          1
H        12.91189203       3.90116363      11.44777676         0.00000000       0.00000000       0.00000000          1
H        10.42426860       3.86990488      10.17693237         0.00000000       0.00000000       0.00000000          1
6
pbc=[F, F, F] list_num_par=6 frozen=false iter=20000 energy=-1.26974174 Lattice="15.00000000 0.00000000 0.00000000 0.00000000 15.00000000 0.00000000 0.00000000 0.00000000 15.00000000" energy_frozen_part=0.00000000 Properties=species:S:1:pos:R:3:velocities:R:3:Z:I:1
H        12.53612097       2.35398240       9.15812585         0.00000000       0.00000000       0.00000000          1
H        14.11891250       4.65270977       9.03603042         0.00000000       0.00000000       0.00000000          1
H        12.00574894       6.16241283      10.06540497         0.00000000       0.00000000       0.00000000          1
H        11.62534086       4.60529144       7.77740802         0.00000000       0.00000000       0.00000000          1
H        12.91652541       3.91110505      11.44612442         0.00000000       0.00000000       0.00000000          1
H        10.42295489       3.86368754      10.18750608         0.00000000       0.00000000       0.00000000          1
6
pbc=[F, F, F] list_num_par=6 frozen=false iter=20000 energy=-1.26974174 Lattice="15.00000000 0.00000000 0.00000000 0.00000000 15.00000000 0.00000000 0.00000000 0.00000000 15.00000000" energy_frozen_part=0.00000000 Properties=species:S:1:pos:R:3:velocities:R:3:Z:I:1
H        12.53597184       2.35404439       9.15811796         0.00000000       0.00000000       0.00000000          1
H        14.11889414       4.65268606       9.03604323         0.00000000       0.00000000       0.00000000          1
H        12.00582991       6.16248817      10.06548210         0.00000000       0.00000000       0.00000000          1
H        11.62530621       4.60543247       7.77745122         0.00000000       0.00000000       0.00000000          1
H        12.91649691       3.91110016      11.44614295         0.00000000       0.00000000       0.00000000          1
H        10.42290675       3.86385015      10.18755299         0.00000000       0.00000000       0.00000000          1
6
pbc=[F, F, F] list_num_par=6 frozen=false iter=20000 energy=-1.26974174 Lattice="15.00000000 0.00000000 0.00000000 0.00000000 15.00000000 0.00000000 0.00000000 0.00000000 15.00000000" energy_frozen_part=0.00000000 Properties=species:S:1:pos:R:3:velocities:R:3:Z:I:1
H        12.53837183       2.36248834       9.14621054         0.00000000       0.00000000       0.00000000          1
H        14.12780322       4.65782671       9.04920115         0.00000000       0.00000000       0.00000000          1
H        12.01371035       6.16531309      10.07991123         0.00000000       0.00000000       0.00000000          1
H        11.64019797       4.62665533       7.77832495         0.00000000       0.00000000       0.00000000          1
H        12.91188505       3.90114410      11.44780050         0.00000000       0.00000000       0.00000000          1
H        10.42427583       3.86997602      10.17692305         0.00000000       0.00000000       0.00000000          1
6
pbc=[F, F, F] list_num_par=6 frozen=false iter=20000 energy=-1.26974174 Lattice="15.00000000 0.00000000 0.00000000 0.00000000 15.00000000 0.00000000 0.00000000 0.00000000 15.00000000" energy_frozen_part=0.00000000 Properties=species:S:1:pos:R:3:velocities:R:3:Z:I:1
H        12.53827689       2.36246201       9.14609034         0.00000000       0.00000000       0.00000000          1
H        14.12775272       4.65776792       9.04913236         0.00000000       0.00000000       0.00000000          1
H        12.01370928       6.16526738      10.07992417         0.00000000       0.00000000       0.00000000          1
H        11.64012697       4.62669012       7.77829258         0.00000000       0.00000000       0.00000000          1
H        12.91185223       3.90103507      11.44772538         0.00000000       0.00000000       0.00000000          1
H        10.42422687       3.86996178      10.17688317         0.00000000       0.00000000       0.00000000          1
6
pbc=[F, F, F] list_num_par=6 frozen=false iter=20000 energy=-1.26974174 Lattice="15.00000000 0.00000000 0.00000000 0.00000000 15.00000000 0.00000000 0.00000000 0.00000000 15.00000000" energy_frozen_part=0.00000000 Properties=species:S:1:pos:R:3:velocities:R:3:Z:I:1
H        12.53602044       2.35410451       9.15810708         0.00000000       0.00000000       0.00000000          1
H        14.11890737       4.65276637       9.03606980         0.00000000       0.00000000       0.00000000          1
H        12.00580609       6.16252157      10.06551011         0.00000000       0.00000000       0.00000000          1
H        11.62532571       4.60548679       7.77746339         0.00000000       0.00000000       0.00000000          1
H        12.91650630       3.91113755      11.44615191         0.00000000       0.00000000       0.00000000          1
H        10.42292033       3.86385480      10.18754510         0.00000000       0.00000000       0.00000000          1
6
pbc=[F, F, F] list_num_par=6 frozen=false iter=20000 energy=-1.26974174 Lattice="15.00000000 0.00000000 0.00000000 0.00000000 15.00000000 0.00000000 0.00000000 0.00000000 15.00000000" energy_frozen_part=0.00000000 Properties=species:S:1:pos:R:3:velocities:R:3:Z:I:1
H        12.53839702       2.36245108       9.14624860         0.00000000       0.00000000       0.00000000          1
H        14.12777754       4.65781944       9.04916464         0.00000000       0.00000000       0.00000000          1
H        12.01366449       6.16528962      10.07985862         0.00000000       0.00000000       0.00000000          1
H        11.64016302       4.62656579       7.77831274         0.00000000       0.00000000       0.00000000          1
H        12.91190075       3.90117578      11.44779438         0.00000000       0.00000000       0.00000000          1
H        10.42428245       3.86992572      10.17694206         0.00000000       0.00000000       0.00000000          1
6
pbc=[F, F, F] list_num_par=6 frozen=false iter=20000 energy=-1.26974174 Lattice="15.00000000 0.00000000 0.00000000 0.00000000 15.00000000 0.00000000 0.00000000 0.00000000 15.00000000" energy_frozen_part=0.00000000 Properties=species:S:1:pos:R:3:velocities:R:3:Z:I:1
H        12.53836995       2.36247780       9.14622315         0.00000000       0.00000000       0.00000000          1
H        14.12778728       4.65782065       9.04919892         0.00000000       0.00000000       0.00000000          1
H        12.01368841       6.16530847      10.07989336         0.00000000       0.00000000       0.00000000          1
H        11.64018375       4.62662985       7.77831846         0.00000000       0.00000000       0.00000000          1
H        12.91186923       3.90115902      11.44779903         0.00000000       0.00000000       0.00000000          1
H        10.42426519       3.86996627      10.17691863         0.00000000       0.00000000       0.00000000          1
6
pbc=[F, F, F] list_num_par=6 frozen=false iter=20000 energy=-1.26974174 Lattice="15.00000000 0.00000000 0.00000000 0.00000000 15.00000000 0.00000000 0.00000000 0.00000000 15.00000000" energy_frozen_part=0.00000000 Properties=species:S:1:pos:R:3:velocities:R:3:Z:I:1
H        12.53871455       2.36280295       9.14571374         0.00000000       0.00000000       0.00000000          1
H        14.12758430       4.65853053       9.04872659         0.00000000       0.00000000       0.00000000          1
H        12.01315110       6.16547392      10.07954426         0.00000000       0.00000000       0.00000000          1
H        11.63995069       4.62679060       7.77792339         0.00000000       0.00000000       0.00000000          1
H        12.91191968       3.90148598      11.44733484         0.00000000       0.00000000       0.00000000          1
H        10.42428470       3.86974807      10.17653429         0.00000000       0.00000000       0.00000000          1
6
pbc=[F, F, F] list_num_par=6 frozen=false iter=20000 energy=-1.26974174 Lattice="15.00000000 0.00000000 0.00000000 0.00000000 15.00000000 0.00000000 0.00000000 0.00000000 15.00000000" energy_frozen_part=0.00000000 Properties=species:S:1:pos:R:3:velocities:R:3:Z:I:1
H        12.53836627       2.36246528       9.14622629         0.00000000       0.00000000       0.00000000          1
H        14.12778388       4.65781111       9.04919673         0.00000000       0.00000000       0.00000000          1
H        12.01369039       6.16529587      10.07990534         0.00000000       0.00000000       0.00000000          1
H        11.64017062       4.62662178       7.77833258         0.00000000       0.00000000       0.00000000          1
H        12.91187847       3.90114141      11.44780076         0.00000000       0.00000000       0.00000000          1
H        10.42426852       3.86995305      10.17693737         0.00000000       0.00000000       0.00000000          1
6
pbc=[F, F, F] list_num_par=6 frozen=false iter=20000 energy=-1.26974174 Lattice="15.00000000 0.00000000 0.00000000 0.00000000 15.00000000 0.00000000 0.00000000 0.00000000 15.00000000" energy_frozen_part=0.00000000 Properties=species:S:1:pos:R:3:velocities:R:3:Z:I:1
H        12.53609691       2.35401751       9.15810703         0.00000000       0.00000000       0.00000000          1
H        14.11890797       4.65273283       9.03600230         0.00000000       0.00000000       0.00000000          1
H        12.00576704       6.16244488      10.06542299         0.00000000       0.00000000       0.00000000          1
H        11.62531625       4.60534256       7.77741399         0.00000000       0.00000000       0.00000000          1
H        12.91655058       3.91112280      11.44610963         0.00000000       0.00000000       0.00000000          1
H        10.42296001       3.86373009      10.18752234         0.00000000       0.00000000       0.00000000          1
6
pbc=[F, F, F] list_num_par=6 frozen=false iter=20000 energy=-1.26974174 Lattice="15.00000000 0.00000000 0.00000000 0.00000000 15.00000000 0.00000000 0.00000000 0.00000000 15.00000000" energy_frozen_part=0.00000000 Properties=species:S:1:pos:R:3:velocities:R:3:Z:I:1
H        12.53598164       2.35405012       9.15811623         0.00000000       0.00000000       0.00000000          1
H        14.11889728       4.65269206       9.03604360         0.00000000       0.00000000       0.00000000          1
H        12.00582435       6.16248850      10.06548078         0.00000000       0.00000000       0.00000000          1
H        11.62530558       4.60543278       7.77745326         0.00000000       0.00000000       0.00000000          1
H        12.91650694       3.91110344      11.44614235         0.00000000       0.00000000       0.00000000          1
H        10.42291227       3.86384477      10.18755739         0.00000000       0.00000000       0.00000000          1
6
pbc=[F, F, F] list_num_par=6 frozen=false iter=20000 energy=-1.26974174 Lattice="15.00000000 0.00000000 0.00000000 0.00000000 15.00000000 0.00000000 0.00000000 0.00000000 15.00000000" energy_frozen_part=0.00000000 Properties=species:S:1:pos:R:3:velocities:R:3:Z:I:1
H        12.53602032       2.35410186       9.15810884         0.00000000       0.00000000       0.00000000          1
H        14.11890037       4.65277036       9.03606831         0.00000000       0.00000000       0.00000000          1
H        12.00579947       6.16252485      10.06549909         0.00000000       0.00000000       0.00000000          1
H        11.62531653       4.60548316       7.77746023         0.00000000       0.00000000       0.00000000          1
H        12.91649605       3.91114204      11.44615096         0.00000000       0.00000000       0.00000000          1
H        10.42291467       3.86385675      10.18753951         0.00000000       0.00000000       0.00000000          1
6
pbc=[F, F, F] list_num_par=6 frozen=false iter=20000 energy=-1.26974174 Lattice="15.00000000 0.00000000 0.00000000 0.00000000 15.00000000 0.00000000 0.00000000 0.00000000 15.00000000" energy_frozen_part=0.00000000 Properties=species:S:1:pos:R:3:velocities:R:3:Z:I:1
H        12.53838300       2.36249425       9.14620096         0.00000000       0.00000000       0.00000000          1
H        14.12780204       4.65784305       9.04918548         0.00000000       0.00000000       0.00000000          1
H        12.01370487       6.16532066      10.07990361         0.00000000       0.00000000       0.00000000          1
H        11.64018822       4.62665489       7.77831895         0.00000000       0.00000000       0.00000000          1
H        12.91189423       3.90115639      11.44778791         0.00000000       0.00000000       0.00000000          1
H        10.42428599       3.86997097      10.17692156         0.00000000       0.00000000       0.00000000          1
6
pbc=[F, F, F] list_num_par=6 frozen=false iter=20000 energy=-1.26974174 Lattice="15.00000000 0.00000000 0.00000000 0.00000000 15.00000000 0.00000000 0.00000000 0.00000000 15.00000000" energy_frozen_part=0.00000000 Properties=species:S:1:pos:R:3:velocities:R:3:Z:I:1
H        12.53602179       2.35409528       9.15811068         0.00000000       0.00000000       0.00000000          1
H        14.11889635       4.65276682       9.03606679         0.00000000       0.00000000       0.00000000          1
H        12.00578987       6.16252011      10.06548188         0.00000000       0.00000000       0.00000000          1
H        11.62532262       4.60546766       7.77744584         0.00000000       0.00000000       0.00000000          1
H        12.91648453       3.91114661      11.44614896         0.00000000       0.00000000       0.00000000          1
H        10.42291113       3.86385348      10.18752662         0.00000000       0.00000000       0.00000000          1
6
pbc=[F, F, F] list_num_par=6 frozen=false iter=20000 energy=-1.26974174 Lattice="15.00000000 0.00000000 0.00000000 0.00000000 15.00000000 0.00000000 0.00000000 0.00000000 15.00000000" energy_frozen_part=0.00000000 Properties=species:S:1:pos:R:3:velocities:R:3:Z:I:1
H        12.53876060       2.36280971       9.14568279         0.00000000       0.00000000       0.00000000          1
H        14.12760561       4.65855773       9.04869007         0.00000000       0.00000000       0.00000000          1
H        12.01315433       6.16547480      10.07950254         0.00000000       0.00000000       0.00000000          1
H        11.63996524       4.62678387       7.77788748         0.00000000       0.00000000       0.00000000          1
H        12.91194524       3.90149793      11.44729973         0.00000000       0.00000000       0.00000000          1
H        10.42430799       3.86972883      10.17649742         0.00000000       0.00000000       0.00000000          1
6
pbc=[F, F, F] list_num_par=6 frozen=false iter=20000 energy=-1.26974174 Lattice="15.00000000 0.00000000 0.00000000 0.00000000 15.00000000 0.00000000 0.00000000 0.00000000 15.00000000" energy_frozen_part=0.00000000 Properties=species:S:1:pos:R:3:velocities:R:3:Z:I:1
H        12.53609891       2.35401913       9.15809755         0.00000000       0.00000000       0.00000000          1
H        14.11890250       4.65273896       9.03600261         0.00000000       0.00000000       0.00000000          1
H        12.00575979       6.16243512      10.06542599         0.00000000       0.00000000       0.00000000          1
H        11.62531136       4.60534437       7.77741292         0.00000000       0.00000000       0.00000000          1
H        12.91654436       3.91111067      11.44611119         0.00000000       0.00000000       0.00000000          1
H        10.42295518       3.86371714      10.18752284         0.00000000       0.00000000       0.00000000          1
6
pbc=[F, F, F] list_num_par=6 frozen=false iter=20000 energy=-1.26974174 Lattice="15.00000000 0.00000000 0.00000000 0.00000000 15.00000000 0.00000000 0.00000000 0.00000000 15.00000000" energy_frozen_part=0.00000000 Properties=species:S:1:pos:R:3:velocities:R:3:Z:I:1
H        12.53838383       2.36244439       9.14623348         0.00000000       0.00000000       0.00000000          1
H        14.12775829       4.65781439       9.04914886         0.00000000       0.00000000       0.00000000          1
H        12.01364259       6.16528700      10.07984731         0.00000000       0.00000000       0.00000000          1
H        11.64014072       4.62656327       7.77830070         0.00000000       0.00000000       0.00000000          1
H        12.91188500       3.90117014      11.44777772         0.00000000       0.00000000       0.00000000          1
H        10.42426638       3.86991287      10.17692980         0.00000000       0.00000000       0.00000000          1
