6
pbc=[F, F, F] list_num_par=6 frozen=false iter=20000 energy=-1.26974174 Lattice="15.00000000 0.00000000 0.00000000 0.00000000 15.00000000 0.00000000 0.00000000 0.00000000 15.00000000" energy_frozen_part=0.00000000 Properties=species:S:1:pos:R:3:velocities:R:3:Z:I:1
H        10.91737781      12.92265363       8.30447518         0.00000000       0.00000000       0.00000000          1
H        14.42159313      11.92245461       6.77850005         0.00000000       0.00000000       0.00000000          1
H        13.27504190      11.82444279       9.32410428         0.00000000       0.00000000       0.00000000          1
H        11.98717304      10.60752813       7.16429276         0.00000000       0.00000000       0.00000000          1
H        13.35180363      14.23756873       7.91868879         0.00000000       0.00000000       0.00000000          1
H        12.06392770      13.02065991       5.75887226         0.00000000       0.00000000       0.00000000          1
6
pbc=[F, F, F] list_num_par=6 frozen=false iter=20000 energy=-1.26974174 Lattice="15.00000000 0.00000000 0.00000000 0.00000000 15.00000000 0.00000000 0.00000000 0.00000000 15.00000000" energy_frozen_part=0.00000000 Properties=species:S:1:pos:R:3:velocities:R:3:Z:I:1
H        10.78023591      13.48773099       7.93195950         0.00000000       0.00000000       0.00000000          1
H        14.25154741      11.66806970       7.43460605         0.00000000       0.00000000       0.00000000          1
H        12.80252792      12.59051661       9.63772468         0.00000000       0.00000000       0.00000000          1
H        11.61729978      10.82456453       7.82638810         0.00000000       0.00000000       0.00000000          1
H        13.41448393      14.33123684       7.54017954         0.00000000       0.00000000       0.00000000          1
H        12.22924703      12.56528413       5.72884565         0.00000000       0.00000000       0.00000000          1
6
pbc=[F, F, F] list_num_par=6 frozen=false iter=20000 energy=-1.26974174 Lattice="15.00000000 0.00000000 0.00000000 0.00000000 15.00000000 0.00000000 0.00000000 0.00000000 15.00000000" energy_frozen_part=0.00000000 Properties=species:S:1:pos:R:3:velocities:R:3:Z:I:1
H        10.91694637      12.92290804       8.30506441         0.00000000       0.00000000       0.00000000          1
H        14.42124367      11.92231847       6.77951107         0.00000000       0.00000000       0.00000000          1
H        13.27438448      11.82448095       9.32498714         0.00000000       0.00000000       0.00000000          1
H        11.98664366      10.60764539       7.16505504         0.00000000       0.00000000       0.00000000          1
H        13.35154075      14.23757268       7.91952102         0.00000000       0.00000000       0.00000000          1
H        12.06380171      13.02073239       5.75958974         0.00000000       0.00000000       0.00000000          1
6
pbc=[F, F, F] list_num_par=6 frozen=false iter=20000 energy=-1.26974174 Lattice="15.00000000 0.00000000 0.00000000 0.00000000 15.00000000 0.00000000 0.00000000 0.00000000 15.00000000" energy_frozen_part=0.00000000 Properties=species:S:1:pos:R:3:velocities:R:3:Z:I:1
H        10.91732296      12.92252074       8.30445129         0.00000000       0.00000000       0.00000000          1
H        14.42163724      11.92239345       6.77865381         0.00000000       0.00000000       0.00000000          1
H        13.27493737      11.82430877       9.32418099         0.00000000       0.00000000       0.00000000          1
H        11.98720578      10.60743244       7.16426587         0.00000000       0.00000000       0.00000000          1
H        13.35175274      14.23748151       7.91883097         0.00000000       0.00000000       0.00000000          1
H        12.06402173      13.02059469       5.75891323         0.00000000       0.00000000       0.00000000          1
6
pbc=[F, F, F] list_num_par=6 frozen=false iter=20000 energy=-1.26974174 Lattice="15.00000000 0.00000000 0.00000000 0.00000000 15.00000000 0.00000000 0.00000000 0.00000000 15.00000000" energy_frozen_part=0.00000000 Properties=species:S:1:pos:R:3:velocities:R:3:Z:I:1
H        10.91737825      12.92264920       8.30446978         0.00000000       0.00000000       0.00000000          1
H        14.42159058      11.92244324       6.77849869         0.00000000       0.00000000       0.00000000          1
H        13.27503717      11.82443126       9.32409653         0.00000000       0.00000000       0.00000000          1
H        11.98716712      10.60751816       7.16428737         0.00000000       0.00000000       0.00000000          1
H        13.35179960      14.23756586       7.91868577         0.00000000       0.00000000       0.00000000          1
H        12.06393232      13.02064970       5.75886943         0.00000000       0.00000000       0.00000000          1
6
pbc=[F, F, F] list_num_par=6 frozen=false iter=20000 energy=-1.26974174 Lattice="15.00000000 0.00000000 0.00000000 0.00000000 15.00000000 0.00000000 0.00000000 0.00000000 15.00000000" energy_frozen_part=0.00000000 Properties=species:S:1:pos:R:3:velocities:R:3:Z:I:1
H        10.91675266      12.92289515       8.30398033         0.00000000       0.00000000       0.00000000          1
H        14.42123498      11.92235439       6.77881787         0.00000000       0.00000000       0.00000000          1
H        13.27421863      11.82484737       9.32423981         0.00000000       0.00000000       0.00000000          1
H        11.98672005      10.60753742       7.16442355         0.00000000       0.00000000       0.00000000          1
H        13.35126179      14.23770701       7.91837081         0.00000000       0.00000000       0.00000000          1
H        12.06376279      13.02039220       5.75856083         0.00000000       0.00000000       0.00000000          1
6
pbc=[F, F, F] list_num_par=6 frozen=false iter=20000 energy=-1.26974174 Lattice="15.00000000 0.00000000 0.00000000 0.00000000 15.00000000 0.00000000 0.00000000 0.00000000 15.00000000" energy_frozen_part=0.00000000 Properties=species:S:1:pos:R:3:velocities:R:3:Z:I:1
H        10.91673723      12.92295600       8.30403330         0.00000000       0.00000000       0.00000000          1
H        14.42123078      11.92247477       6.77886069         0.00000000       0.00000000       0.00000000          1
H        13.27423905      11.82498073       9.32427955         0.00000000       0.00000000       0.00000000          1
H        11.98675263      10.60760216       7.16450678         0.00000000       0.00000000       0.00000000          1
H        13.35121260      14.23782297       7.91838428         0.00000000       0.00000000       0.00000000          1
H        12.06372493      13.02044465       5.75860887         0.00000000       0.00000000       0.00000000          1
6
pbc=[F, F, F] list_num_par=6 frozen=false iter=20000 energy=-1.26974174 Lattice="15.00000000 0.00000000 0.00000000 0.00000000 15.00000000 0.00000000 0.00000000 0.00000000 15.00000000" energy_frozen_part=0.00000000 Properties=species:S:1:pos:R:3:velocities:R:3:Z:I:1
H        10.91674506      12.92292229       8.30405254         0.00000000       0.00000000       0.00000000          1
H        14.42124490      11.92247517       6.77887597         0.00000000       0.00000000       0.00000000          1
H        13.27426151      11.82497204       9.32430191         0.00000000       0.00000000       0.00000000          1
H        11.98677777      10.60757976       7.16452286         0.00000000       0.00000000       0.00000000          1
H        13.35121313      14.23781015       7.91840568         0.00000000       0.00000000       0.00000000          1
H        12.06373405      13.02042326       5.75862054         0.00000000       0.00000000       0.00000000          1
6
pbc=[F, F, F] list_num_par=6 frozen=false iter=20000 energy=-1.26974174 Lattice="15.00000000 0.00000000 0.00000000 0.00000000 15.00000000 0.00000000 0.00000000 0.00000000 15.00000000" energy_frozen_part=0.00000000 Properties=species:S:1:pos:R:3:velocities:R:3:Z:I:1
H        10.91679002      12.92302545       8.30402339         0.00000000       0.00000000       0.00000000          1
H        14.42124924      11.92243111       6.77885422         0.00000000       0.00000000       0.00000000          1
H        13.27426318      11.82500203       9.32428895         0.00000000       0.00000000       0.00000000          1
H        11.98673766      10.60762744       7.16453140         0.00000000       0.00000000       0.00000000          1
H        13.35130128      14.23782337       7.91836119         0.00000000       0.00000000       0.00000000          1
H        12.06377617      13.02045550       5.75859571         0.00000000       0.00000000       0.00000000          1
6
pbc=[F, F, F] list_num_par=6 frozen=false iter=20000 energy=-1.26974174 Lattice="15.00000000 0.00000000 0.00000000 0.00000000 15.00000000 0.00000000 0.00000000 0.00000000 15.00000000" energy_frozen_part=0.00000000 Properties=species:S:1:pos:R:3:velocities:R:3:Z:I:1
H        10.91736491      12.92262097       8.30447019         0.00000000       0.00000000       0.00000000          1
H        14.42159336      11.92245058       6.77848636         0.00000000       0.00000000       0.00000000          1
H        13.27504142      11.82442168       9.32409142         0.00000000       0.00000000       0.00000000          1
H        11.98717747      10.60750170       7.16427544         0.00000000       0.00000000       0.00000000          1
H        13.35178584      14.23756120       7.91868034         0.00000000       0.00000000       0.00000000          1
H        12.06391897      13.02063800       5.75886759         0.00000000       0.00000000       0.00000000          1
6
pbc=[F, F, F] list_num_par=6 frozen=false iter=20000 energy=-1.26974174 Lattice="15.00000000 0.00000000 0.00000000 0.00000000 15.00000000 0.00000000 0.00000000 0.00000000 15.00000000" energy_frozen_part=0.00000000 Properties=species:S:1:pos:R:3:velocities:R:3:Z:I:1
H        10.91720302      12.92255419       8.30460918         0.00000000       0.00000000       0.00000000          1
H        14.42134575      11.92236469       6.77846667         0.00000000       0.00000000       0.00000000          1
H        13.27493581      11.82440164       9.32413570         0.00000000       0.00000000       0.00000000          1
H        11.98696113      10.60742391       7.16442061         0.00000000       0.00000000       0.00000000          1
H        13.35158601      14.23750139       7.91866343         0.00000000       0.00000000       0.00000000          1
H        12.06361122      13.02052575       5.75894583         0.00000000       0.00000000       0.00000000          1
6
pbc=[F, F, F] list_num_par=6 frozen=false iter=20000 energy=-1.26974174 Lattice="15.00000000 0.00000000 0.00000000 0.00000000 15.00000000 0.00000000 0.00000000 0.00000000 15.00000000" energy_frozen_part=0.00000000 Properties=species:S:1:pos:R:3:velocities:R:3:Z:I:1
H        10.91694278      12.92291372       8.30506275         0.00000000       0.00000000       0.00000000          1
H        14.42122265      11.92234059       6.77948156         0.00000000       0.00000000       0.00000000          1
H        13.27439710      11.82450870       9.32496454         0.00000000       0.00000000       0.00000000          1
H        11.98663082      10.60766156       7.16504798         0.00000000       0.00000000       0.00000000          1
H        13.35153367      14.23759252       7.91949666         0.00000000       0.00000000       0.00000000          1
H        12.06377289      13.02075125       5.75957232         0.00000000       0.00000000       0.00000000          1
6
pbc=[F, F, F] list_num_par=6 frozen=false iter=20000 energy=-1.26974174 Lattice="15.00000000 0.00000000 0.00000000 0.00000000 15.00000000 0.00000000 0.00000000 0.00000000 15.00000000" energy_frozen_part=0.00000000 Properties=species:S:1:pos:R:3:velocities:R:3:Z:I:1
H        10.91725494      12.92265976       8.30467035         0.00000000       0.00000000       0.00000000          1
H        14.42134845      11.92238540       6.77844792         0.00000000       0.00000000       0.00000000          1
H        13.27499141      11.82445844       9.32414660         0.00000000       0.00000000       0.00000000          1
H        11.98693641      10.60749344       7.16447274         0.00000000       0.00000000       0.00000000          1
H        13.35166217      14.23754974       7.91865450         0.00000000       0.00000000       0.00000000          1
H        12.06360839      13.02058349       5.75897310         0.00000000       0.00000000       0.00000000          1
6
pbc=[F, F, F] list_num_par=6 frozen=false iter=20000 energy=-1.26974174 Lattice="15.00000000 0.00000000 0.00000000 0.00000000 15.00000000 0.00000000 0.00000000 0.00000000 15.00000000" energy_frozen_part=0.00000000 Properties=species:S:1:pos:R:3:velocities:R:3:Z:I:1
H        10.91730423      12.92248823       8.30442589         0.00000000       0.00000000       0.00000000          1
H        14.42162718      11.92239334       6.77860678         0.00000000       0.00000000       0.00000000          1
H        13.27494166      11.82430059       9.32414842         0.00000000       0.00000000       0.00000000          1
H        11.98720653      10.60741774       7.16424586         0.00000000       0.00000000       0.00000000          1
H        13.35172220      14.23746751       7.91879867         0.00000000       0.00000000       0.00000000          1
H        12.06399472      13.02057684       5.75888819         0.00000000       0.00000000       0.00000000          1
6
pbc=[F, F, F] list_num_par=6 frozen=false iter=20000 energy=-1.26974174 Lattice="15.00000000 0.00000000 0.00000000 0.00000000 15.00000000 0.00000000 0.00000000 0.00000000 15.00000000" energy_frozen_part=0.00000000 Properties=species:S:1:pos:R:3:velocities:R:3:Z:I:1
H        10.91693156      12.92291702       8.30505945         0.00000000       0.00000000       0.00000000          1
H        14.42122330      11.92233226       6.77948781         0.00000000       0.00000000       0.00000000          1
H        13.27437632      11.82449253       9.32496635         0.00000000       0.00000000       0.00000000          1
H        11.98662255      10.60766191       7.16504699         0.00000000       0.00000000       0.00000000          1
H        13.35152510      14.23758573       7.91950546         0.00000000       0.00000000       0.00000000          1
H        12.06377476      13.02074435       5.75957666         0.00000000       0.00000000       0.00000000          1
6
pbc=[F, F, F] list_num_par=6 frozen=false iter=20000 energy=-1.26974174 Lattice="15.00000000 0.00000000 0.00000000 0.00000000 15.00000000 0.00000000 0.00000000 0.00000000 15.00000000" energy_frozen_part=0.00000000 Properties=species:S:1:pos:R:3:velocities:R:3:Z:I:1
H        10.91718194      12.92258967       8.30463496         0.00000000       0.00000000       0.00000000          1
H        14.42131853      11.92237120       6.77848953         0.00000000       0.00000000       0.00000000          1
H        13.27489242      11.82437725       9.32414275         0.00000000       0.00000000       0.00000000          1
H        11.98690841      10.60745596       7.16440257         0.00000000       0.00000000       0.00000000          1
H        13.35159765      14.23750401       7.91872133         0.00000000       0.00000000       0.00000000          1
H        12.06360588      13.02058899       5.75898069         0.00000000       0.00000000       0.00000000          1
6
pbc=[F, F, F] list_num_par=6 frozen=false iter=20000 energy=-1.26974174 Lattice="15.00000000 0.00000000 0.00000000 0.00000000 15.00000000 0.00000000 0.00000000 0.00000000 15.00000000" energy_frozen_part=0.00000000 Properties=species:S:1:pos:R:3:velocities:R:3:Z:I:1
H        10.91724730      12.92266136       8.30467801         0.00000000       0.00000000       0.00000000          1
H        14.42135352      11.92241105       6.77846457         0.00000000       0.00000000       0.00000000          1
H        13.27499649      11.82447859       9.32415479         0.00000000       0.00000000       0.00000000          1
H        11.98695023      10.60750483       7.16448246         0.00000000       0.00000000       0.00000000          1
H        13.35164553      14.23756875       7.91866757         0.00000000       0.00000000       0.00000000          1
H        12.06361195      13.02058700       5.75898335         0.00000000       0.00000000       0.00000000          1
6
pbc=[F, F, F] list_num_par=6 frozen=false iter=20000 energy=-1.26974174 Lattice="15.00000000 0.00000000 0.00000000 0.00000000 15.00000000 0.00000000 0.00000000 0.00000000 15.00000000" energy_frozen_part=0.00000000 Properties=species:S:1:pos:R:3:velocities:R:3:Z:I:1
H        10.91720712      12.92257784       8.30467036         0.00000000       0.00000000       0.00000000          1
H        14.42132820      11.92238090       6.77847808         0.00000000       0.00000000       0.00000000          1
H        13.27493156      11.82436798       9.32415062         0.00000000       0.00000000       0.00000000          1
H        11.98693556      10.60745063       7.16441523         0.00000000       0.00000000       0.00000000          1
H        13.35160865      14.23750511       7.91872771         0.00000000       0.00000000       0.00000000          1
H        12.06359858      13.02058420       5.75899655         0.00000000       0.00000000       0.00000000          1
6
pbc=[F, F, F] list_num_par=6 frozen=false iter=20000 energy=-1.26974174 Lattice="15.00000000 0.00000000 0.00000000 0.00000000 15.00000000 0.00000000 0.00000000 0.00000000 15.00000000" energy_frozen_part=0.00000000 Properties=species:S:1:pos:R:3:velocities:R:3:Z:I:1
H        10.91672518      12.92296117       8.30402799         0.00000000       0.00000000       0.00000000          1
H        14.42122885      11.92246784       6.77887124         0.00000000       0.00000000       0.00000000          1
H        13.27422305      11.82498471       9.32428742         0.00000000       0.00000000       0.00000000          1
H        11.98674254      10.60760705       7.16451112         0.00000000       0.00000000       0.00000000          1
H        13.35121145      14.23781845       7.91838640         0.00000000       0.00000000       0.00000000          1
H        12.06372993      13.02044334       5.75860872         0.00000000       0.00000000       0.00000000          1
6
pbc=[F, F, F] list_num_par=6 frozen=false iter=20000 energy=-1.26974174 Lattice="15.00000000 0.00000000 0.00000000 0.00000000 15.00000000 0.00000000 0.00000000 0.00000000 15.00000000" energy_frozen_part=0.00000000 Properties=species:S:1:pos:R:3:velocities:R:3:Z:I:1
H        10.91678315      12.92303403       8.30401839         0.00000000       0.00000000       0.00000000          1
H        14.42125332      11.92242871       6.77885951         0.00000000       0.00000000       0.00000000          1
H        13.27426327      11.82501633       9.32428592         0.00000000       0.00000000       0.00000000          1
H        11.98673219      10.60763881       7.16453399         0.00000000       0.00000000       0.00000000          1
H        13.35129857      14.23782907       7.91834521         0.00000000       0.00000000       0.00000000          1
H        12.06377943      13.02045419       5.75859258         0.00000000       0.00000000       0.00000000          1
6
pbc=[F, F, F] list_num_par=6 frozen=false iter=20000 energy=-1.26974174 Lattice="15.00000000 0.00000000 0.00000000 0.00000000 15.00000000 0.00000000 0.00000000 0.00000000 15.00000000" energy_frozen_part=0.00000000 Properties=species:S:1:pos:R:3:velocities:R:3:Z:I:1
H        10.78021522      13.48772122       7.93196767         0.00000000       0.00000000       0.00000000          1
H        14.25158180      11.66812444       7.43466584         0.00000000       0.00000000       0.00000000          1
H        12.80248796      12.59051681       9.63775493         0.00000000       0.00000000       0.00000000          1
H        11.61733236      10.82457055       7.82637436         0.00000000       0.00000000       0.00000000          1
H        13.41446818      14.33127548       7.54025254         0.00000000       0.00000000       0.00000000          1
H        12.22930225      12.56532422       5.72887255         0.00000000       0.00000000       0.00000000          1
6
pbc=[F, F, F] list_num_par=6 frozen=false iter=20000 energy=-1.26974174 Lattice="15.00000000 0.00000000 0.00000000 0.00000000 15.00000000 0.00000000 0.00000000 0.00000000 15.00000000" energy_frozen_part=0.00000000 Properties=species:S:1:pos:R:3:velocities:R:3:Z:I:1
H        10.91674444      12.92283684       8.30397867         0.00000000       0.00000000       0.00000000          1
H        14.42123250      11.92237205       6.77877701         0.00000000       0.00000000       0.00000000          1
H        13.27423963      11.82483586       9.32420670         0.00000000       0.00000000       0.00000000          1
H        11.98674569      10.60750983       7.16439955         0.00000000       0.00000000       0.00000000          1
H        13.35122895      14.23770024       7.91835677         0.00000000       0.00000000       0.00000000          1
H        12.06372763      13.02037912       5.75854895         0.00000000       0.00000000       0.00000000          1
6
pbc=[F, F, F] list_num_par=6 frozen=false iter=20000 energy=-1.26974174 Lattice="15.00000000 0.00000000 0.00000000 0.00000000 15.00000000 0.00000000 0.00000000 0.00000000 15.00000000" energy_frozen_part=0.00000000 Properties=species:S:1:pos:R:3:velocities:R:3:Z:I:1
H        10.91720017      12.92256191       8.30461319         0.00000000       0.00000000       0.00000000          1
H        14.42135326      11.92237702       6.77847759         0.00000000       0.00000000       0.00000000          1
H        13.27492401      11.82440209       9.32414203         0.00000000       0.00000000       0.00000000          1
H        11.98696720      10.60742793       7.16441079         0.00000000       0.00000000       0.00000000          1
H        13.35159574      14.23750841       7.91867894         0.00000000       0.00000000       0.00000000          1
H        12.06362147      13.02053812       5.75895127         0.00000000       0.00000000       0.00000000          1
6
pbc=[F, F, F] list_num_par=6 frozen=false iter=20000 energy=-1.26974174 Lattice="15.00000000 0.00000000 0.00000000 0.00000000 15.00000000 0.00000000 0.00000000 0.00000000 15.00000000" energy_frozen_part=0.00000000 Properties=species:S:1:pos:R:3:velocities:R:3:Z:I:1
H        10.91674226      12.92295729       8.30404543         0.00000000       0.00000000       0.00000000          1
H        14.42124707      11.92244172       6.77891154         0.00000000       0.00000000       0.00000000          1
H        13.27423700      11.82499190       9.32433639         0.00000000       0.00000000       0.00000000          1
H        11.98676011      10.60758587       7.16456426         0.00000000       0.00000000       0.00000000          1
H        13.35123318      14.23780557       7.91839607         0.00000000       0.00000000       0.00000000          1
H        12.06375800      13.02040167       5.75862331         0.00000000       0.00000000       0.00000000          1
6
pbc=[F, F, F] list_num_par=6 frozen=false iter=20000 energy=-1.26974174 Lattice="15.00000000 0.00000000 0.00000000 0.00000000 15.00000000 0.00000000 0.00000000 0.00000000 15.00000000" energy_frozen_part=0.00000000 Properties=species:S:1:pos:R:3:velocities:R:3:Z:I:1
H        10.91690601      12.92290229       8.30504546         0.00000000       0.00000000       0.00000000          1
H        14.42121698      11.92225143       6.77956190         0.00000000       0.00000000       0.00000000          1
H        13.27430559      11.82443107       9.32501034         0.00000000       0.00000000       0.00000000          1
H        11.98657855      10.60763671       7.16503841         0.00000000       0.00000000       0.00000000          1
H        13.35155052      14.23752450       7.91956796         0.00000000       0.00000000       0.00000000          1
H        12.06382003      13.02073504       5.75960036         0.00000000       0.00000000       0.00000000          1
6
pbc=[F, F, F] list_num_par=6 frozen=false iter=20000 energy=-1.26974174 Lattice="15.00000000 0.00000000 0.00000000 0.00000000 15.00000000 0.00000000 0.00000000 0.00000000 15.00000000" energy_frozen_part=0.00000000 Properties=species:S:1:pos:R:3:velocities:R:3:Z:I:1
H        10.91672488      12.92291783       8.30402461         0.00000000       0.00000000       0.00000000          1
H        14.42126468      11.92247786       6.77896445         0.00000000       0.00000000       0.00000000          1
H        13.27421495      11.82500446       9.32436130         0.00000000       0.00000000       0.00000000          1
H        11.98680351      10.60757203       7.16456153         0.00000000       0.00000000       0.00000000          1
H        13.35118654      14.23782948       7.91842596         0.00000000       0.00000000       0.00000000          1
H        12.06377215      13.02039990       5.75862453         0.00000000       0.00000000       0.00000000          1
6
pbc=[F, F, F] list_num_par=6 frozen=false iter=20000 energy=-1.26974174 Lattice="15.00000000 0.00000000 0.00000000 0.00000000 15.00000000 0.00000000 0.00000000 0.00000000 15.00000000" energy_frozen_part=0.00000000 Properties=species:S:1:pos:R:3:velocities:R:3:Z:I:1
H        10.91725504      12.92264797       8.30466750         0.00000000       0.00000000       0.00000000          1
H        14.42135270      11.92237819       6.77846407         0.00000000       0.00000000       0.00000000          1
H        13.27498150      11.82444360       9.32414953         0.00000000       0.00000000       0.00000000          1
H        11.98694563      10.60749099       7.16445791         0.00000000       0.00000000       0.00000000          1
H        13.35166900      14.23754239       7.91867266         0.00000000       0.00000000       0.00000000          1
H        12.06363321      13.02059491       5.75897906         0.00000000       0.00000000       0.00000000          1
6
pbc=[F, F, F] list_num_par=6 frozen=false iter=20000 energy=-1.26974174 Lattice="15.00000000 0.00000000 0.00000000 0.00000000 15.00000000 0.00000000 0.00000000 0.00000000 15.00000000" energy_frozen_part=0.00000000 Properties=species:S:1:pos:R:3:velocities:R:3:Z:I:1
H        10.78023257      13.48763699       7.93198552         0.00000000       0.00000000       0.00000000          1
H        14.25158849      11.66805139       7.43462063         0.00000000       0.00000000       0.00000000          1
H        12.80251383      12.59039778       9.63774532         0.00000000       0.00000000       0.00000000          1
H        11.61734376      10.82448045       7.82633305         0.00000000       0.00000000       0.00000000          1
H        13.41447204      14.33119771       7.54026955         0.00000000       0.00000000       0.00000000          1
H        12.22929640      12.56528768       5.72886131         0.00000000       0.00000000       0.00000000          1
6
pbc=[F, F, F] list_num_par=6 frozen=false iter=20000 energy=-1.26974174 Lattice="15.00000000 0.00000000 0.00000000 0.00000000 15.00000000 0.00000000 0.00000000 0.00000000 15.00000000" energy_frozen_part=0.00000000 Properties=species:S:1:pos:R:3:velocities:R:3:Z:I:1
H        10.91725700      12.92266800       8.30466901         0.00000000       0.00000000       0.00000000          1
H        14.42134742      11.92238702       6.77845498         0.00000000       0.00000000       0.00000000          1
H        13.27498484      11.82445329       9.32414889         0.00000000       0.00000000       0.00000000          1
H        11.98693569      10.60749738       7.16445722         0.00000000       0.00000000       0.00000000          1
H        13.35167260      14.23754843       7.91866343         0.00000000       0.00000000       0.00000000          1
H        12.06361894      13.02059780       5.75897679         0.00000000       0.00000000       0.00000000          1
6
pbc=[F, F, F] list_num_par=6 frozen=false iter=20000 energy=-1.26974174 Lattice="15.00000000 0.00000000 0.00000000 0.00000000 15.00000000 0.00000000 0.00000000 0.00000000 15.00000000" energy_frozen_part=0.00000000 Properties=species:S:1:pos:R:3:velocities:R:3:Z:I:1
H        10.91732463      12.92250707       8.30444612         0.00000000       0.00000000       0.00000000          1
H        14.42164287      11.92240074       6.77862912         0.00000000       0.00000000       0.00000000          1
H        13.27495557      11.82430600       9.32416922         0.00000000       0.00000000       0.00000000          1
H        11.98721488      10.60743124       7.16425668         0.00000000       0.00000000       0.00000000          1
H        13.35175584      14.23747794       7.91882004         0.00000000       0.00000000       0.00000000          1
H        12.06401993      13.02059577       5.75890307         0.00000000       0.00000000       0.00000000          1
6
pbc=[F, F, F] list_num_par=6 frozen=false iter=20000 energy=-1.26974174 Lattice="15.00000000 0.00000000 0.00000000 0.00000000 15.00000000 0.00000000 0.00000000 0.00000000 15.00000000" energy_frozen_part=0.00000000 Properties=species:S:1:pos:R:3:velocities:R:3:Z:I:1
H        10.91692080      12.92284423       8.30512485         0.00000000       0.00000000       0.00000000          1
H        14.42115693      11.92222857       6.77947403         0.00000000       0.00000000       0.00000000          1
H        13.27432491      11.82426927       9.32495384         0.00000000       0.00000000       0.00000000          1
H        11.98651597      10.60762824       7.16494659         0.00000000       0.00000000       0.00000000          1
H        13.35156708      14.23745369       7.91965547         0.00000000       0.00000000       0.00000000          1
H        12.06375261      13.02081833       5.75965140         0.00000000       0.00000000       0.00000000          1
6
pbc=[F, F, F] list_num_par=6 frozen=false iter=20000 energy=-1.26974174 Lattice="15.00000000 0.00000000 0.00000000 0.00000000 15.00000000 0.00000000 0.00000000 0.00000000 15.00000000" energy_frozen_part=0.00000000 Properties=species:S:1:pos:R:3:velocities:R:3:Z:I:1
H        10.91724697      12.92267020       8.30466685         0.00000000       0.00000000       0.00000000          1
H        14.42133182      11.92236476       6.77843402         0.00000000       0.00000000       0.00000000          1
H        13.27497801      11.82445150       9.32412551         0.00000000       0.00000000       0.00000000          1
H        11.98691001      10.60750140       7.16444839         0.00000000       0.00000000       0.00000000          1
H        13.35167076      14.23753928       7.91864461         0.00000000       0.00000000       0.00000000          1
H        12.06360625      13.02059841       5.75896892         0.00000000       0.00000000       0.00000000          1
6
pbc=[F, F, F] list_num_par=6 frozen=false iter=20000 energy=-1.26974174 Lattice="15.00000000 0.00000000 0.00000000 0.00000000 15.00000000 0.00000000 0.00000000 0.00000000 15.00000000" energy_frozen_part=0.00000000 Properties=species:S:1:pos:R:3:velocities:R:3:Z:I:1
H        10.91678455      12.92303721       8.30401124         0.00000000       0.00000000       0.00000000          1
H        14.42124678      11.92241918       6.77885870         0.00000000       0.00000000       0.00000000          1
H        13.27425658      11.82502688       9.32428919         0.00000000       0.00000000       0.00000000          1
H        11.98672495      10.60763705       7.16453823         0.00000000       0.00000000       0.00000000          1
H        13.35130019      14.23783328       7.91832875         0.00000000       0.00000000       0.00000000          1
H        12.06377531      13.02043863       5.75857979         0.00000000       0.00000000       0.00000000          1
6
pbc=[F, F, F] list_num_par=6 frozen=false iter=20000 energy=-1.26974174 Lattice="15.00000000 0.00000000 0.00000000 0.00000000 15.00000000 0.00000000 0.00000000 0.00000000 15.00000000" energy_frozen_part=0.00000000 Properties=species:S:1:pos:R:3:velocities:R:3:Z:I:1
H        10.91720503      12.92251406       8.30465567         0.00000000       0.00000000       0.00000000          1
H        14.42134879      11.92236699       6.77847133         0.00000000       0.00000000       0.00000000          1
H        13.27493472      11.82431451       9.32413117         0.00000000       0.00000000       0.00000000          1
H        11.98695629      10.60742275       7.16437147         0.00000000       0.00000000       0.00000000          1
H        13.35160273      14.23746834       7.91875390         0.00000000       0.00000000       0.00000000          1
H        12.06361569      13.02057661       5.75899534         0.00000000       0.00000000       0.00000000          1
6
pbc=[F, F, F] list_num_par=6 frozen=false iter=20000 energy=-1.26974174 Lattice="15.00000000 0.00000000 0.00000000 0.00000000 15.00000000 0.00000000 0.00000000 0.00000000 15.00000000" energy_frozen_part=0.00000000 Properties=species:S:1:pos:R:3:velocities:R:3:Z:I:1
H        10.91674077      12.92293008       8.30406030         0.00000000       0.00000000       0.00000000          1
H        14.42124418      11.92246780       6.77889244         0.00000000       0.00000000       0.00000000          1
H        13.27424646      11.82496538       9.32431495         0.00000000       0.00000000       0.00000000          1
H        11.98677202      10.60758949       7.16453484         0.00000000       0.00000000       0.00000000          1
H        13.35121241      14.23780981       7.91841368         0.00000000       0.00000000       0.00000000          1
H        12.06372796      13.02042907       5.75863672         0.00000000       0.00000000       0.00000000          1
6
pbc=[F, F, F] list_num_par=6 frozen=false iter=20000 energy=-1.26974174 Lattice="15.00000000 0.00000000 0.00000000 0.00000000 15.00000000 0.00000000 0.00000000 0.00000000 15.00000000" energy_frozen_part=0.00000000 Properties=species:S:1:pos:R:3:velocities:R:3:Z:I:1
H        10.91719804      12.92258335       8.30462720         0.00000000       0.00000000       0.00000000          1
H        14.42133710      11.92237480       6.77846796         0.00000000       0.00000000       0.00000000          1
H        13.27493257      11.82442402       9.32413695         0.00000000       0.00000000       0.00000000          1
H        11.98694315      10.60744365       7.16442639         0.00000000       0.00000000       0.00000000          1
H        13.35158532      14.23751994       7.91865346         0.00000000       0.00000000       0.00000000          1
H        12.06360507      13.02054366       5.75894961         0.00000000       0.00000000       0.00000000          1
6
pbc=[F, F, F] list_num_par=6 frozen=false iter=20000 energy=-1.26974174 Lattice="15.00000000 0.00000000 0.00000000 0.00000000 15.00000000 0.00000000 0.00000000 0.00000000 15.00000000" energy_frozen_part=0.00000000 Properties=species:S:1:pos:R:3:velocities:R:3:Z:I:1
H        10.78027472      13.48775494       7.93194280         0.00000000       0.00000000       0.00000000          1
H        14.25156015      11.66804180       7.43463498         0.00000000       0.00000000       0.00000000          1
H        12.80251368      12.59048337       9.63772963         0.00000000       0.00000000       0.00000000          1
H        11.61728683      10.82457448       7.82634161         0.00000000       0.00000000       0.00000000          1
H        13.41455028      14.33122802       7.54022642         0.00000000       0.00000000       0.00000000          1
H        12.22932564      12.56532261       5.72884120         0.00000000       0.00000000       0.00000000          1
6
pbc=[F, F, F] list_num_par=6 frozen=false iter=20000 energy=-1.26974174 Lattice="15.00000000 0.00000000 0.00000000 0.00000000 15.00000000 0.00000000 0.00000000 0.00000000 15.00000000" energy_frozen_part=0.00000000 Properties=species:S:1:pos:R:3:velocities:R:3:Z:I:1
H        10.91732584      12.92252334       8.30442240         0.00000000       0.00000000       0.00000000          1
H        14.42165163      11.92240795       6.77863907         0.00000000       0.00000000       0.00000000          1
H        13.27494600      11.82432042       9.32416085         0.00000000       0.00000000       0.00000000          1
H        11.98721825      10.60744012       7.16424069         0.00000000       0.00000000       0.00000000          1
H        13.35175520      14.23749330       7.91881540         0.00000000       0.00000000       0.00000000          1
H        12.06403109      13.02060787       5.75889203         0.00000000       0.00000000       0.00000000          1
6
pbc=[F, F, F] list_num_par=6 frozen=false iter=20000 energy=-1.26974174 Lattice="15.00000000 0.00000000 0.00000000 0.00000000 15.00000000 0.00000000 0.00000000 0.00000000 15.00000000" energy_frozen_part=0.00000000 Properties=species:S:1:pos:R:3:velocities:R:3:Z:I:1
H        10.91720451      12.92257821       8.30460716         0.00000000       0.00000000       0.00000000          1
H        14.42134563      11.92236967       6.77846775         0.00000000       0.00000000       0.00000000          1
H        13.27492981      11.82441028       9.32413606         0.00000000       0.00000000       0.00000000          1
H        11.98695789      10.60743850       7.16441470         0.00000000       0.00000000       0.00000000          1
H        13.35159864      14.23750874       7.91866534         0.00000000       0.00000000       0.00000000          1
H        12.06361608      13.02053996       5.75894056         0.00000000       0.00000000       0.00000000          1
6
pbc=[F, F, F] list_num_par=6 frozen=false iter=20000 energy=-1.26974174 Lattice="15.00000000 0.00000000 0.00000000 0.00000000 15.00000000 0.00000000 0.00000000 0.00000000 15.00000000" energy_frozen_part=0.00000000 Properties=species:S:1:pos:R:3:velocities:R:3:Z:I:1
H        10.91732417      12.92250936       8.30443061         0.00000000       0.00000000       0.00000000          1
H        14.42165735      11.92241094       6.77863410         0.00000000       0.00000000       0.00000000          1
H        13.27495659      11.82431549       9.32416601         0.00000000       0.00000000       0.00000000          1
H        11.98722865      10.60743303       7.16424687         0.00000000       0.00000000       0.00000000          1
H        13.35174949      14.23748343       7.91882732         0.00000000       0.00000000       0.00000000          1
H        12.06402965      13.02060703       5.75890164         0.00000000       0.00000000       0.00000000          1
6
pbc=[F, F, F] list_num_par=6 frozen=false iter=20000 energy=-1.26974174 Lattice="15.00000000 0.00000000 0.00000000 0.00000000 15.00000000 0.00000000 0.00000000 0.00000000 15.00000000" energy_frozen_part=0.00000000 Properties=species:S:1:pos:R:3:velocities:R:3:Z:I:1
H        10.91718038      12.92259658       8.30464006         0.00000000       0.00000000       0.00000000          1
H        14.42131354      11.92236788       6.77848225         0.00000000       0.00000000       0.00000000          1
H        13.27488937      11.82437535       9.32414882         0.00000000       0.00000000       0.00000000          1
H        11.98689684      10.60746738       7.16441198         0.00000000       0.00000000       0.00000000          1
H        13.35159331      14.23750045       7.91872071         0.00000000       0.00000000       0.00000000          1
H        12.06360310      13.02058719       5.75897753         0.00000000       0.00000000       0.00000000          1
6
pbc=[F, F, F] list_num_par=6 frozen=false iter=20000 energy=-1.26974174 Lattice="15.00000000 0.00000000 0.00000000 0.00000000 15.00000000 0.00000000 0.00000000 0.00000000 15.00000000" energy_frozen_part=0.00000000 Properties=species:S:1:pos:R:3:velocities:R:3:Z:I:1
H        10.91720992      12.92255825       8.30465478         0.00000000       0.00000000       0.00000000          1
H        14.42134262      11.92235802       6.77846736         0.00000000       0.00000000       0.00000000          1
H        13.27493236      11.82434126       9.32413853         0.00000000       0.00000000       0.00000000          1
H        11.98693118      10.60744262       7.16439324         0.00000000       0.00000000       0.00000000          1
H        13.35161805      14.23747233       7.91873077         0.00000000       0.00000000       0.00000000          1
H        12.06362066      13.02057302       5.75898628         0.00000000       0.00000000       0.00000000          1
6
pbc=[F, F, F] list_num_par=6 frozen=false iter=20000 energy=-1.26974174 Lattice="15.00000000 0.00000000 0.00000000 0.00000000 15.00000000 0.00000000 0.00000000 0.00000000 15.00000000" energy_frozen_part=0.00000000 Properties=species:S:1:pos:R:3:velocities:R:3:Z:I:1
H        10.91720060      12.92256716       8.30461196         0.00000000       0.00000000       0.00000000          1
H        14.42134994      11.92238109       6.77846456         0.00000000       0.00000000       0.00000000          1
H        13.27492767      11.82439325       9.32412702         0.00000000       0.00000000       0.00000000          1
H        11.98695217      10.60744224       7.16439519         0.00000000       0.00000000       0.00000000          1
H        13.35159647      14.23750371       7.91869096         0.00000000       0.00000000       0.00000000          1
H        12.06362551      13.02056294       5.75895330         0.00000000       0.00000000       0.00000000          1
6
pbc=[F, F, F] list_num_par=6 frozen=false iter=20000 energy=-1.26974174 Lattice="15.00000000 0.00000000 0.00000000 0.00000000 15.00000000 0.00000000 0.00000000 0.00000000 15.00000000" energy_frozen_part=0.00000000 Properties=species:S:1:pos:R:3:velocities:R:3:Z:I:1
H        10.91732975      12.92250815       8.30443790         0.00000000       0.00000000       0.00000000          1
H        14.42164540      11.92239801       6.77861915         0.00000000       0.00000000       0.00000000          1
H        13.27495535      11.82430192       9.32415609         0.00000000       0.00000000       0.00000000          1
H        11.98721532      10.60742592       7.16424377         0.00000000       0.00000000       0.00000000          1
H        13.35176291      14.23747119       7.91882254         0.00000000       0.00000000       0.00000000          1
H        12.06402534      13.02060246       5.75890274         0.00000000       0.00000000       0.00000000          1
6
pbc=[F, F, F] list_num_par=6 frozen=false iter=20000 energy=-1.26974174 Lattice="15.00000000 0.00000000 0.00000000 0.00000000 15.00000000 0.00000000 0.00000000 0.00000000 15.00000000" energy_frozen_part=0.00000000 Properties=species:S:1:pos:R:3:velocities:R:3:Z:I:1
H        10.91733139      12.92251559       8.30443473         0.00000000       0.00000000       0.00000000          1
H        14.42165711      11.92239811       6.77864775         0.00000000       0.00000000       0.00000000          1
H        13.27495656      11.82431835       9.32417457         0.00000000       0.00000000       0.00000000          1
H        11.98723034      10.60742793       7.16425776         0.00000000       0.00000000       0.00000000          1
H        13.35175762      14.23748436       7.91882178         0.00000000       0.00000000       0.00000000          1
H        12.06403759      13.02059225       5.75890601         0.00000000       0.00000000       0.00000000          1
6
pbc=[F, F, F] list_num_par=6 frozen=false iter=20000 energy=-1.26974174 Lattice="15.00000000 0.00000000 0.00000000 0.00000000 15.00000000 0.00000000 0.00000000 0.00000000 15.00000000" energy_frozen_part=0.00000000 Properties=species:S:1:pos:R:3:velocities:R:3:Z:I:1
H        10.91736816      12.92264440       8.30447402         0.00000000       0.00000000       0.00000000          1
H        14.42159667      11.92244661       6.77850340         0.00000000       0.00000000       0.00000000          1
H        13.27503420      11.82444310       9.32410293         0.00000000       0.00000000       0.00000000          1
H        11.98717249      10.60751823       7.16428853         0.00000000       0.00000000       0.00000000          1
H        13.35179909      14.23757283       7.91868154         0.00000000       0.00000000       0.00000000          1
H        12.06392883      13.02064326       5.75887540         0.00000000       0.00000000       0.00000000          1
6
pbc=[F, F, F] list_num_par=6 frozen=false iter=20000 energy=-1.26974174 Lattice="15.00000000 0.00000000 0.00000000 0.00000000 15.00000000 0.00000000 0.00000000 0.00000000 15.00000000" energy_frozen_part=0.00000000 Properties=species:S:1:pos:R:3:velocities:R:3:Z:I:1
H        10.91679292      12.92302736       8.30400273         0.00000000       0.00000000       0.00000000          1
H        14.42127299      11.92243030       6.77888548         0.00000000       0.00000000       0.00000000          1
H        13.27425639      11.82500938       9.32430204         0.00000000       0.00000000       0.00000000          1
H        11.98675498      10.60763448       7.16452772         0.00000000       0.00000000       0.00000000          1
H        13.35130966      14.23782433       7.91836601         0.00000000       0.00000000       0.00000000          1
H        12.06381477      13.02045508       5.75859512         0.00000000       0.00000000       0.00000000          1
6
pbc=[F, F, F] list_num_par=6 frozen=false iter=20000 energy=-1.26974174 Lattice="15.00000000 0.00000000 0.00000000 0.00000000 15.00000000 0.00000000 0.00000000 0.00000000 15.00000000" energy_frozen_part=0.00000000 Properties=species:S:1:pos:R:3:velocities:R:3:Z:I:1
H        10.78021811      13.48773948       7.93195136         0.00000000       0.00000000       0.00000000          1
H        14.25152542      11.66805390       7.43463744         0.00000000       0.00000000       0.00000000          1
H        12.80249087      12.59051891       9.63772908         0.00000000       0.00000000       0.00000000          1
H        11.61726491      10.82456164       7.82639633         0.00000000       0.00000000       0.00000000          1
H        13.41448243      14.33122713       7.54018965         0.00000000       0.00000000       0.00000000          1
H        12.22925105      12.56527201       5.72886082         0.00000000       0.00000000       0.00000000          1
6
pbc=[F, F, F] list_num_par=6 frozen=false iter=20000 energy=-1.26974174 Lattice="15.00000000 0.00000000 0.00000000 0.00000000 15.00000000 0.00000000 0.00000000 0.00000000 15.00000000" energy_frozen_part=0.00000000 Properties=species:S:1:pos:R:3:velocities:R:3:Z:I:1
H        10.91732753      12.92251292       8.30443185         0.00000000       0.00000000       0.00000000          1
H        14.42165511      11.92239420       6.77863044         0.00000000       0.00000000       0.00000000          1
H        13.27494826      11.82431432       9.32416627         0.00000000       0.00000000       0.00000000          1
H        11.98722182      10.60743597       7.16425224         0.00000000       0.00000000       0.00000000          1
H        13.35175852      14.23748004       7.91880970         0.00000000       0.00000000       0.00000000          1
H        12.06402788      13.02059730       5.75890022         0.00000000       0.00000000       0.00000000          1
6
pbc=[F, F, F] list_num_par=6 frozen=false iter=20000 energy=-1.26974174 Lattice="15.00000000 0.00000000 0.00000000 0.00000000 15.00000000 0.00000000 0.00000000 0.00000000 15.00000000" energy_frozen_part=0.00000000 Properties=species:S:1:pos:R:3:velocities:R:3:Z:I:1
H        10.78023085      13.48771550       7.93192788         0.00000000       0.00000000       0.00000000          1
H        14.25156801      11.66808790       7.43457932         0.00000000       0.00000000       0.00000000          1
H        12.80250674      12.59047828       9.63769335         0.00000000       0.00000000       0.00000000          1
H        11.61731464      10.82455895       7.82630039         0.00000000       0.00000000       0.00000000          1
H        13.41448527      14.33125111       7.54020889         0.00000000       0.00000000       0.00000000          1
H        12.22930096      12.56533339       5.72881303         0.00000000       0.00000000       0.00000000          1
6
pbc=[F, F, F] list_num_par=6 frozen=false iter=20000 energy=-1.26974174 Lattice="15.00000000 0.00000000 0.00000000 0.00000000 15.00000000 0.00000000 0.00000000 0.00000000 15.00000000" energy_frozen_part=0.00000000 Properties=species:S:1:pos:R:3:velocities:R:3:Z:I:1
H        10.91720049      12.92254581       8.30465420         0.00000000       0.00000000       0.00000000          1
H        14.42134135      11.92237019       6.77847671         0.00000000       0.00000000       0.00000000          1
H        13.27492540      11.82433932       9.32413840         0.00000000       0.00000000       0.00000000          1
H        11.98694110      10.60743317       7.16439046         0.00000000       0.00000000       0.00000000          1
H        13.35160744      14.23748603       7.91874473         0.00000000       0.00000000       0.00000000          1
H        12.06361576      13.02058253       5.75899581         0.00000000       0.00000000       0.00000000          1
6
pbc=[F, F, F] list_num_par=6 frozen=false iter=20000 energy=-1.26974174 Lattice="15.00000000 0.00000000 0.00000000 0.00000000 15.00000000 0.00000000 0.00000000 0.00000000 15.00000000" energy_frozen_part=0.00000000 Properties=species:S:1:pos:R:3:velocities:R:3:Z:I:1
H        10.78025188      13.48773819       7.93194887         0.00000000       0.00000000       0.00000000          1
H        14.25157001      11.66806088       7.43462930         0.00000000       0.00000000       0.00000000          1
H        12.80251414      12.59048146       9.63772911         0.00000000       0.00000000       0.00000000          1
H        11.61730587      10.82456691       7.82634402         0.00000000       0.00000000       0.00000000          1
H        13.41452488      14.33122945       7.54023357         0.00000000       0.00000000       0.00000000          1
H        12.22931627      12.56531829       5.72884671         0.00000000       0.00000000       0.00000000          1
6
pbc=[F, F, F] list_num_par=6 frozen=false iter=20000 energy=-1.26974174 Lattice="15.00000000 0.00000000 0.00000000 0.00000000 15.00000000 0.00000000 0.00000000 0.00000000 15.00000000" energy_frozen_part=0.00000000 Properties=species:S:1:pos:R:3:velocities:R:3:Z:I:1
H        10.78021804      13.48773946       7.93194253         0.00000000       0.00000000       0.00000000          1
H        14.25152120      11.66804783       7.43463766         0.00000000       0.00000000       0.00000000          1
H        12.80248130      12.59052073       9.63772913         0.00000000       0.00000000       0.00000000          1
H        11.61725618      10.82455912       7.82639659         0.00000000       0.00000000       0.00000000          1
H        13.41447368      14.33122338       7.54018220         0.00000000       0.00000000       0.00000000          1
H        12.22925497      12.56526015       5.72884899         0.00000000       0.00000000       0.00000000          1
6
pbc=[F, F, F] list_num_par=6 frozen=false iter=20000 energy=-1.26974174 Lattice="15.00000000 0.00000000 0.00000000 0.00000000 15.00000000 0.00000000 0.00000000 0.00000000 15.00000000" energy_frozen_part=0.00000000 Properties=species:S:1:pos:R:3:velocities:R:3:Z:I:1
H        10.91678239      12.92303240       8.30400159         0.00000000       0.00000000       0.00000000          1
H        14.42126446      11.92244434       6.77887350         0.00000000       0.00000000       0.00000000          1
H        13.27425532      11.82502881       9.32429293         0.00000000       0.00000000       0.00000000          1
H        11.98675171      10.60763094       7.16453211         0.00000000       0.00000000       0.00000000          1
H        13.35128787      14.23783749       7.91833608         0.00000000       0.00000000       0.00000000          1
H        12.06378245      13.02043696       5.75857496         0.00000000       0.00000000       0.00000000          1
6
pbc=[F, F, F] list_num_par=6 frozen=false iter=20000 energy=-1.26974174 Lattice="15.00000000 0.00000000 0.00000000 0.00000000 15.00000000 0.00000000 0.00000000 0.00000000 15.00000000" energy_frozen_part=0.00000000 Properties=species:S:1:pos:R:3:velocities:R:3:Z:I:1
H        10.78026042      13.48774820       7.93194986         0.00000000       0.00000000       0.00000000          1
H        14.25156929      11.66806526       7.43463265         0.00000000       0.00000000       0.00000000          1
H        12.80250638      12.59048018       9.63773269         0.00000000       0.00000000       0.00000000          1
H        11.61730492      10.82457071       7.82634851         0.00000000       0.00000000       0.00000000          1
H        13.41452764      14.33123394       7.54023137         0.00000000       0.00000000       0.00000000          1
H        12.22931597      12.56532631       5.72884783         0.00000000       0.00000000       0.00000000          1
6
pbc=[F, F, F] list_num_par=6 frozen=false iter=20000 energy=-1.26974174 Lattice="15.00000000 0.00000000 0.00000000 0.00000000 15.00000000 0.00000000 0.00000000 0.00000000 15.00000000" energy_frozen_part=0.00000000 Properties=species:S:1:pos:R:3:velocities:R:3:Z:I:1
H        10.91691206      12.92291007       8.30505410         0.00000000       0.00000000       0.00000000          1
H        14.42121882      11.92225441       6.77956301         0.00000000       0.00000000       0.00000000          1
H        13.27430989      11.82443029       9.32500457         0.00000000       0.00000000       0.00000000          1
H        11.98657520      10.60763628       7.16504391         0.00000000       0.00000000       0.00000000          1
H        13.35155549      14.23752849       7.91956823         0.00000000       0.00000000       0.00000000          1
H        12.06382092      13.02073364       5.75960454         0.00000000       0.00000000       0.00000000          1
6
pbc=[F, F, F] list_num_par=6 frozen=false iter=20000 energy=-1.26974174 Lattice="15.00000000 0.00000000 0.00000000 0.00000000 15.00000000 0.00000000 0.00000000 0.00000000 15.00000000" energy_frozen_part=0.00000000 Properties=species:S:1:pos:R:3:velocities:R:3:Z:I:1
H        10.91690379      12.92290066       8.30504018         0.00000000       0.00000000       0.00000000          1
H        14.42122930      11.92224781       6.77957741         0.00000000       0.00000000       0.00000000          1
H        13.27430081      11.82443372       9.32502147         0.00000000       0.00000000       0.00000000          1
H        11.98659651      10.60762317       7.16505387         0.00000000       0.00000000       0.00000000          1
H        13.35154781      14.23752082       7.91956601         0.00000000       0.00000000       0.00000000          1
H        12.06383480      13.02071260       5.75959925         0.00000000       0.00000000       0.00000000          1
6
pbc=[F, F, F] list_num_par=6 frozen=false iter=20000 energy=-1.26974174 Lattice="15.00000000 0.00000000 0.00000000 0.00000000 15.00000000 0.00000000 0.00000000 0.00000000 15.00000000" energy_frozen_part=0.00000000 Properties=species:S:1:pos:R:3:velocities:R:3:Z:I:1
H        10.91690760      12.92291303       8.30504980         0.00000000       0.00000000       0.00000000          1
H        14.42121693      11.92225195       6.77955739         0.00000000       0.00000000       0.00000000          1
H        13.27430528      11.82442779       9.32500804         0.00000000       0.00000000       0.00000000          1
H        11.98657802      10.60763530       7.16504845         0.00000000       0.00000000       0.00000000          1
H        13.35154939      14.23752056       7.91956327         0.00000000       0.00000000       0.00000000          1
H        12.06382160      13.02073098       5.75960108         0.00000000       0.00000000       0.00000000          1
6
pbc=[F, F, F] list_num_par=6 frozen=false iter=20000 energy=-1.26974174 Lattice="15.00000000 0.00000000 0.00000000 0.00000000 15.00000000 0.00000000 0.00000000 0.00000000 15.00000000" energy_frozen_part=0.00000000 Properties=species:S:1:pos:R:3:velocities:R:3:Z:I:1
H        10.91718791      12.92254209       8.30463782         0.00000000       0.00000000       0.00000000          1
H        14.42133354      11.92234518       6.77848248         0.00000000       0.00000000       0.00000000          1
H        13.27491256      11.82435718       9.32414881         0.00000000       0.00000000       0.00000000          1
H        11.98693473      10.60741749       7.16442150         0.00000000       0.00000000       0.00000000          1
H        13.35159303      14.23747193       7.91870695         0.00000000       0.00000000       0.00000000          1
H        12.06360778      13.02053551       5.75897313         0.00000000       0.00000000       0.00000000          1
6
pbc=[F, F, F] list_num_par=6 frozen=false iter=20000 energy=-1.26974174 Lattice="15.00000000 0.00000000 0.00000000 0.00000000 15.00000000 0.00000000 0.00000000 0.00000000 15.00000000" energy_frozen_part=0.00000000 Properties=species:S:1:pos:R:3:velocities:R:3:Z:I:1
H        10.91723681      12.92265417       8.30468797         0.00000000       0.00000000       0.00000000          1
H        14.42132817      11.92239589       6.77844242         0.00000000       0.00000000       0.00000000          1
H        13.27497440      11.82444143       9.32414320         0.00000000       0.00000000       0.00000000          1
H        11.98692213      10.60750096       7.16444924         0.00000000       0.00000000       0.00000000          1
H        13.35164310      14.23754259       7.91867475         0.00000000       0.00000000       0.00000000          1
H        12.06358122      13.02060356       5.75898897         0.00000000       0.00000000       0.00000000          1
6
pbc=[F, F, F] list_num_par=6 frozen=false iter=20000 energy=-1.26974174 Lattice="15.00000000 0.00000000 0.00000000 0.00000000 15.00000000 0.00000000 0.00000000 0.00000000 15.00000000" energy_frozen_part=0.00000000 Properties=species:S:1:pos:R:3:velocities:R:3:Z:I:1
H        10.78023376      13.48763482       7.93196858         0.00000000       0.00000000       0.00000000          1
H        14.25160321      11.66807700       7.43463299         0.00000000       0.00000000       0.00000000          1
H        12.80250866      12.59042234       9.63774553         0.00000000       0.00000000       0.00000000          1
H        11.61736592      10.82448682       7.82633405         0.00000000       0.00000000       0.00000000          1
H        13.41447213      14.33122207       7.54027200         0.00000000       0.00000000       0.00000000          1
H        12.22931867      12.56529399       5.72885753         0.00000000       0.00000000       0.00000000          1
6
pbc=[F, F, F] list_num_par=6 frozen=false iter=20000 energy=-1.26974174 Lattice="15.00000000 0.00000000 0.00000000 0.00000000 15.00000000 0.00000000 0.00000000 0.00000000 15.00000000" energy_frozen_part=0.00000000 Properties=species:S:1:pos:R:3:velocities:R:3:Z:I:1
H        10.91674029      12.92292138       8.30405506         0.00000000       0.00000000       0.00000000          1
H        14.42124264      11.92248136       6.77888568         0.00000000       0.00000000       0.00000000          1
H        13.27425494      11.82498150       9.32431383         0.00000000       0.00000000       0.00000000          1
H        11.98678134      10.60758403       7.16453210         0.00000000       0.00000000       0.00000000          1
H        13.35119648      14.23782193       7.91840014         0.00000000       0.00000000       0.00000000          1
H        12.06373000      13.02042722       5.75862525         0.00000000       0.00000000       0.00000000          1
6
pbc=[F, F, F] list_num_par=6 frozen=false iter=20000 energy=-1.26974174 Lattice="15.00000000 0.00000000 0.00000000 0.00000000 15.00000000 0.00000000 0.00000000 0.00000000 15.00000000" energy_frozen_part=0.00000000 Properties=species:S:1:pos:R:3:velocities:R:3:Z:I:1
H        10.91678504      12.92302896       8.30401051         0.00000000       0.00000000       0.00000000          1
H        14.42124934      11.92243073       6.77886875         0.00000000       0.00000000       0.00000000          1
H        13.27425756      11.82502207       9.32429437         0.00000000       0.00000000       0.00000000          1
H        11.98673819      10.60763479       7.16453225         0.00000000       0.00000000       0.00000000          1
H        13.35129680      14.23783028       7.91833807         0.00000000       0.00000000       0.00000000          1
H        12.06377988      13.02044794       5.75857792         0.00000000       0.00000000       0.00000000          1
6
pbc=[F, F, F] list_num_par=6 frozen=false iter=20000 energy=-1.26974174 Lattice="15.00000000 0.00000000 0.00000000 0.00000000 15.00000000 0.00000000 0.00000000 0.00000000 15.00000000" energy_frozen_part=0.00000000 Properties=species:S:1:pos:R:3:velocities:R:3:Z:I:1
H        10.91725126      12.92265688       8.30467965         0.00000000       0.00000000       0.00000000          1
H        14.42133919      11.92239617       6.77844576         0.00000000       0.00000000       0.00000000          1
H        13.27498640      11.82444482       9.32414256         0.00000000       0.00000000       0.00000000          1
H        11.98693745      10.60750398       7.16445460         0.00000000       0.00000000       0.00000000          1
H        13.35165558      14.23755081       7.91867826         0.00000000       0.00000000       0.00000000          1
H        12.06359885      13.02060432       5.75898853         0.00000000       0.00000000       0.00000000          1
6
pbc=[F, F, F] list_num_par=6 frozen=false iter=20000 energy=-1.26974174 Lattice="15.00000000 0.00000000 0.00000000 0.00000000 15.00000000 0.00000000 0.00000000 0.00000000 15.00000000" energy_frozen_part=0.00000000 Properties=species:S:1:pos:R:3:velocities:R:3:Z:I:1
H        10.91674995      12.92284489       8.30397582         0.00000000       0.00000000       0.00000000          1
H        14.42123288      11.92234845       6.77878951         0.00000000       0.00000000       0.00000000          1
H        13.27424153      11.82481904       9.32421086         0.00000000       0.00000000       0.00000000          1
H        11.98673613      10.60750400       7.16440259         0.00000000       0.00000000       0.00000000          1
H        13.35124508      14.23769114       7.91835585         0.00000000       0.00000000       0.00000000          1
H        12.06374391      13.02037861       5.75855152         0.00000000       0.00000000       0.00000000          1
6
pbc=[F, F, F] list_num_par=6 frozen=false iter=20000 energy=-1.26974174 Lattice="15.00000000 0.00000000 0.00000000 0.00000000 15.00000000 0.00000000 0.00000000 0.00000000 15.00000000" energy_frozen_part=0.00000000 Properties=species:S:1:pos:R:3:velocities:R:3:Z:I:1
H        10.78022495      13.48762981       7.93199795         0.00000000       0.00000000       0.00000000          1
H        14.25158962      11.66806806       7.43462874         0.00000000       0.00000000       0.00000000          1
H        12.80251489      12.59040925       9.63775351         0.00000000       0.00000000       0.00000000          1
H        11.61735194      10.82449302       7.82634619         0.00000000       0.00000000       0.00000000          1
H        13.41446776      14.33121449       7.54028225         0.00000000       0.00000000       0.00000000          1
H        12.22929959      12.56529705       5.72887268         0.00000000       0.00000000       0.00000000          1
6
pbc=[F, F, F] list_num_par=6 frozen=false iter=20000 energy=-1.26974174 Lattice="15.00000000 0.00000000 0.00000000 0.00000000 15.00000000 0.00000000 0.00000000 0.00000000 15.00000000" energy_frozen_part=0.00000000 Properties=species:S:1:pos:R:3:velocities:R:3:Z:I:1
H        10.91720282      12.92256955       8.30460889         0.00000000       0.00000000       0.00000000          1
H        14.42135461      11.92237090       6.77847839         0.00000000       0.00000000       0.00000000          1
H        13.27492492      11.82440307       9.32414280         0.00000000       0.00000000       0.00000000          1
H        11.98695999      10.60743508       7.16441573         0.00000000       0.00000000       0.00000000          1
H        13.35159663      14.23751059       7.91867342         0.00000000       0.00000000       0.00000000          1
H        12.06362281      13.02054188       5.75894908         0.00000000       0.00000000       0.00000000          1
6
pbc=[F, F, F] list_num_par=6 frozen=false iter=20000 energy=-1.26974174 Lattice="15.00000000 0.00000000 0.00000000 0.00000000 15.00000000 0.00000000 0.00000000 0.00000000 15.00000000" energy_frozen_part=0.00000000 Properties=species:S:1:pos:R:3:velocities:R:3:Z:I:1
H        10.78020391      13.48766941       7.93203177         0.00000000       0.00000000       0.00000000          1
H        14.25155881      11.66811110       7.43462588         0.00000000       0.00000000       0.00000000          1
H        12.80250054      12.59043289       9.63776527         0.00000000       0.00000000       0.00000000          1
H        11.61732715      10.82452271       7.82635268         0.00000000       0.00000000       0.00000000          1
H        13.41444160      14.33125494       7.54029529         0.00000000       0.00000000       0.00000000          1
H        12.22925815      12.56534866       5.72888596         0.00000000       0.00000000       0.00000000          1
6
pbc=[F, F, F] list_num_par=6 frozen=false iter=20000 energy=-1.26974174 Lattice="15.00000000 0.00000000 0.00000000 0.00000000 15.00000000 0.00000000 0.00000000 0.00000000 15.00000000" energy_frozen_part=0.00000000 Properties=species:S:1:pos:R:3:velocities:R:3:Z:I:1
H        10.91691775      12.92284053       8.30513070         0.00000000       0.00000000       0.00000000          1
H        14.42115989      11.92223536       6.77947385         0.00000000       0.00000000       0.00000000          1
H        13.27431959      11.82426587       9.32495351         0.00000000       0.00000000       0.00000000          1
H        11.98651204      10.60762251       7.16494981         0.00000000       0.00000000       0.00000000          1
H        13.35156523      14.23744726       7.91965807         0.00000000       0.00000000       0.00000000          1
H        12.06375133      13.02080791       5.75965442         0.00000000       0.00000000       0.00000000          1
6
pbc=[F, F, F] list_num_par=6 frozen=false iter=20000 energy=-1.26974174 Lattice="15.00000000 0.00000000 0.00000000 0.00000000 15.00000000 0.00000000 0.00000000 0.00000000 15.00000000" energy_frozen_part=0.00000000 Properties=species:S:1:pos:R:3:velocities:R:3:Z:I:1
H        10.91719893      12.92257094       8.30461492         0.00000000       0.00000000       0.00000000          1
H        14.42134669      11.92238693       6.77847279         0.00000000       0.00000000       0.00000000          1
H        13.27492635      11.82439417       9.32413401         0.00000000       0.00000000       0.00000000          1
H        11.98695940      10.60743940       7.16439746         0.00000000       0.00000000       0.00000000          1
H        13.35158975      14.23751474       7.91868635         0.00000000       0.00000000       0.00000000          1
H        12.06361992      13.02055498       5.75895616         0.00000000       0.00000000       0.00000000          1
6
pbc=[F, F, F] list_num_par=6 frozen=false iter=20000 energy=-1.26974174 Lattice="15.00000000 0.00000000 0.00000000 0.00000000 15.00000000 0.00000000 0.00000000 0.00000000 15.00000000" energy_frozen_part=0.00000000 Properties=species:S:1:pos:R:3:velocities:R:3:Z:I:1
H        10.78020816      13.48767838       7.93196129         0.00000000       0.00000000       0.00000000          1
H        14.25156650      11.66809035       7.43461368         0.00000000       0.00000000       0.00000000          1
H        12.80249088      12.59045217       9.63773270         0.00000000       0.00000000       0.00000000          1
H        11.61731992      10.82452273       7.82633963         0.00000000       0.00000000       0.00000000          1
H        13.41445436      14.33123466       7.54024210         0.00000000       0.00000000       0.00000000          1
H        12.22927915      12.56530417       5.72884601         0.00000000       0.00000000       0.00000000          1
6
pbc=[F, F, F] list_num_par=6 frozen=false iter=20000 energy=-1.26974174 Lattice="15.00000000 0.00000000 0.00000000 0.00000000 15.00000000 0.00000000 0.00000000 0.00000000 15.00000000" energy_frozen_part=0.00000000 Properties=species:S:1:pos:R:3:velocities:R:3:Z:I:1
H        10.78021839      13.48769420       7.93198781         0.00000000       0.00000000       0.00000000          1
H        14.25156948      11.66809042       7.43462851         0.00000000       0.00000000       0.00000000          1
H        12.80251378      12.59046840       9.63774192         0.00000000       0.00000000       0.00000000          1
H        11.61732137      10.82454143       7.82636195         0.00000000       0.00000000       0.00000000          1
H        13.41446634      14.33124479       7.54024412         0.00000000       0.00000000       0.00000000          1
H        12.22927212      12.56531174       5.72886837         0.00000000       0.00000000       0.00000000          1
6
pbc=[F, F, F] list_num_par=6 frozen=false iter=20000 energy=-1.26974174 Lattice="15.00000000 0.00000000 0.00000000 0.00000000 15.00000000 0.00000000 0.00000000 0.00000000 15.00000000" energy_frozen_part=0.00000000 Properties=species:S:1:pos:R:3:velocities:R:3:Z:I:1
H        10.91674641      12.92285053       8.30397049         0.00000000       0.00000000       0.00000000          1
H        14.42123065      11.92235498       6.77878557         0.00000000       0.00000000       0.00000000          1
H        13.27423461      11.82482382       9.32420788         0.00000000       0.00000000       0.00000000          1
H        11.98672625      10.60751388       7.16440440         0.00000000       0.00000000       0.00000000          1
H        13.35124203      14.23769074       7.91835797         0.00000000       0.00000000       0.00000000          1
H        12.06374390      13.02037568       5.75854999         0.00000000       0.00000000       0.00000000          1
6
pbc=[F, F, F] list_num_par=6 frozen=false iter=20000 energy=-1.26974174 Lattice="15.00000000 0.00000000 0.00000000 0.00000000 15.00000000 0.00000000 0.00000000 0.00000000 15.00000000" energy_frozen_part=0.00000000 Properties=species:S:1:pos:R:3:velocities:R:3:Z:I:1
H        10.91720007      12.92256925       8.30461647         0.00000000       0.00000000       0.00000000          1
H        14.42136194      11.92238016       6.77847956         0.00000000       0.00000000       0.00000000          1
H        13.27492697      11.82440836       9.32414241         0.00000000       0.00000000       0.00000000          1
H        11.98697033      10.60743807       7.16441575         0.00000000       0.00000000       0.00000000          1
H        13.35159146      14.23750827       7.91868273         0.00000000       0.00000000       0.00000000          1
H        12.06362969      13.02054630       5.75895582         0.00000000       0.00000000       0.00000000          1
6
pbc=[F, F, F] list_num_par=6 frozen=false iter=20000 energy=-1.26974174 Lattice="15.00000000 0.00000000 0.00000000 0.00000000 15.00000000 0.00000000 0.00000000 0.00000000 15.00000000" energy_frozen_part=0.00000000 Properties=species:S:1:pos:R:3:velocities:R:3:Z:I:1
H        10.91724727      12.92264811       8.30469042         0.00000000       0.00000000       0.00000000          1
H        14.42133979      11.92239809       6.77844363         0.00000000       0.00000000       0.00000000          1
H        13.27499032      11.82445089       9.32413814         0.00000000       0.00000000       0.00000000          1
H        11.98693514      10.60749635       7.16446074         0.00000000       0.00000000       0.00000000          1
H        13.35165026      14.23754910       7.91867589         0.00000000       0.00000000       0.00000000          1
H        12.06359116      13.02059739       5.75899570         0.00000000       0.00000000       0.00000000          1
6
pbc=[F, F, F] list_num_par=6 frozen=false iter=20000 energy=-1.26974174 Lattice="15.00000000 0.00000000 0.00000000 0.00000000 15.00000000 0.00000000 0.00000000 0.00000000 15.00000000" energy_frozen_part=0.00000000 Properties=species:S:1:pos:R:3:velocities:R:3:Z:I:1
H        10.78023593      13.48771630       7.93193715         0.00000000       0.00000000       0.00000000          1
H        14.25156983      11.66809705       7.43458389         0.00000000       0.00000000       0.00000000          1
H        12.80251754      12.59048574       9.63770293         0.00000000       0.00000000       0.00000000          1
H        11.61731864      10.82456000       7.82632124         0.00000000       0.00000000       0.00000000          1
H        13.41448420      14.33124854       7.54019971         0.00000000       0.00000000       0.00000000          1
H        12.22928399      12.56532994       5.72881651         0.00000000       0.00000000       0.00000000          1
6
pbc=[F, F, F] list_num_par=6 frozen=false iter=20000 energy=-1.26974174 Lattice="15.00000000 0.00000000 0.00000000 0.00000000 15.00000000 0.00000000 0.00000000 0.00000000 15.00000000" energy_frozen_part=0.00000000 Properties=species:S:1:pos:R:3:velocities:R:3:Z:I:1
H        10.91732579      12.92251900       8.30444441         0.00000000       0.00000000       0.00000000          1
H        14.42164610      11.92240205       6.77864399         0.00000000       0.00000000       0.00000000          1
H        13.27494195      11.82431697       9.32418060         0.00000000       0.00000000       0.00000000          1
H        11.98721711      10.60743763       7.16425624         0.00000000       0.00000000       0.00000000          1
H        13.35175207      14.23748161       7.91882331         0.00000000       0.00000000       0.00000000          1
H        12.06402049      13.02060361       5.75891143         0.00000000       0.00000000       0.00000000          1
6
pbc=[F, F, F] list_num_par=6 frozen=false iter=20000 energy=-1.26974174 Lattice="15.00000000 0.00000000 0.00000000 0.00000000 15.00000000 0.00000000 0.00000000 0.00000000 15.00000000" energy_frozen_part=0.00000000 Properties=species:S:1:pos:R:3:velocities:R:3:Z:I:1
H        10.91676763      12.92302374       8.30400856         0.00000000       0.00000000       0.00000000          1
H        14.42123339      11.92244097       6.77885032         0.00000000       0.00000000       0.00000000          1
H        13.27424262      11.82501182       9.32427953         0.00000000       0.00000000       0.00000000          1
H        11.98672238      10.60763540       7.16451578         0.00000000       0.00000000       0.00000000          1
H        13.35128147      14.23783501       7.91834179         0.00000000       0.00000000       0.00000000          1
H        12.06375668      13.02045268       5.75858085         0.00000000       0.00000000       0.00000000          1
6
pbc=[F, F, F] list_num_par=6 frozen=false iter=20000 energy=-1.26974174 Lattice="15.00000000 0.00000000 0.00000000 0.00000000 15.00000000 0.00000000 0.00000000 0.00000000 15.00000000" energy_frozen_part=0.00000000 Properties=species:S:1:pos:R:3:velocities:R:3:Z:I:1
H        10.91673848      12.92292358       8.30406340         0.00000000       0.00000000       0.00000000          1
H        14.42124297      11.92248606       6.77888860         0.00000000       0.00000000       0.00000000          1
H        13.27425343      11.82497925       9.32431733         0.00000000       0.00000000       0.00000000          1
H        11.98677777      10.60758956       7.16453501         0.00000000       0.00000000       0.00000000          1
H        13.35120071      14.23781909       7.91840921         0.00000000       0.00000000       0.00000000          1
H        12.06373089      13.02042790       5.75863023         0.00000000       0.00000000       0.00000000          1
6
pbc=[F, F, F] list_num_par=6 frozen=false iter=20000 energy=-1.26974174 Lattice="15.00000000 0.00000000 0.00000000 0.00000000 15.00000000 0.00000000 0.00000000 0.00000000 15.00000000" energy_frozen_part=0.00000000 Properties=species:S:1:pos:R:3:velocities:R:3:Z:I:1
H        10.91731344      12.92249684       8.30444171         0.00000000       0.00000000       0.00000000          1
H        14.42162819      11.92239658       6.77862057         0.00000000       0.00000000       0.00000000          1
H        13.27494481      11.82430502       9.32416229         0.00000000       0.00000000       0.00000000          1
H        11.98720306      10.60742097       7.16424971         0.00000000       0.00000000       0.00000000          1
H        13.35174047      14.23746846       7.91880794         0.00000000       0.00000000       0.00000000          1
H        12.06399159      13.02058557       5.75890168         0.00000000       0.00000000       0.00000000          1
6
pbc=[F, F, F] list_num_par=6 frozen=false iter=20000 energy=-1.26974174 Lattice="15.00000000 0.00000000 0.00000000 0.00000000 15.00000000 0.00000000 0.00000000 0.00000000 15.00000000" energy_frozen_part=0.00000000 Properties=species:S:1:pos:R:3:velocities:R:3:Z:I:1
H        10.78019965      13.48767092       7.93202294         0.00000000       0.00000000       0.00000000          1
H        14.25155489      11.66810643       7.43461546         0.00000000       0.00000000       0.00000000          1
H        12.80250544      12.59044116       9.63776144         0.00000000       0.00000000       0.00000000          1
H        11.61732488      10.82452570       7.82636179         0.00000000       0.00000000       0.00000000          1
H        13.41444103      14.33125257       7.54029018         0.00000000       0.00000000       0.00000000          1
H        12.22925155      12.56534269       5.72888429         0.00000000       0.00000000       0.00000000          1
6
pbc=[F, F, F] list_num_par=6 frozen=false iter=20000 energy=-1.26974174 Lattice="15.00000000 0.00000000 0.00000000 0.00000000 15.00000000 0.00000000 0.00000000 0.00000000 15.00000000" energy_frozen_part=0.00000000 Properties=species:S:1:pos:R:3:velocities:R:3:Z:I:1
H        10.91732800      12.92252207       8.30442200         0.00000000       0.00000000       0.00000000          1
H        14.42165700      11.92241136       6.77863955         0.00000000       0.00000000       0.00000000          1
H        13.27494349      11.82431487       9.32417278         0.00000000       0.00000000       0.00000000          1
H        11.98722682      10.60744066       7.16424724         0.00000000       0.00000000       0.00000000          1
H        13.35176355      14.23748425       7.91882529         0.00000000       0.00000000       0.00000000          1
H        12.06403997      13.02061518       5.75889891         0.00000000       0.00000000       0.00000000          1
6
pbc=[F, F, F] list_num_par=6 frozen=false iter=20000 energy=-1.26974174 Lattice="15.00000000 0.00000000 0.00000000 0.00000000 15.00000000 0.00000000 0.00000000 0.00000000 15.00000000" energy_frozen_part=0.00000000 Properties=species:S:1:pos:R:3:velocities:R:3:Z:I:1
H        10.91690680      12.92290543       8.30504410         0.00000000       0.00000000       0.00000000          1
H        14.42120898      11.92225218       6.77955895         0.00000000       0.00000000       0.00000000          1
H        13.27429793      11.82444120       9.32501105         0.00000000       0.00000000       0.00000000          1
H        11.98657583      10.60763064       7.16504966         0.00000000       0.00000000       0.00000000          1
H        13.35154553      14.23752607       7.91955587         0.00000000       0.00000000       0.00000000          1
H        12.06381246      13.02072469       5.75959374         0.00000000       0.00000000       0.00000000          1
6
pbc=[F, F, F] list_num_par=6 frozen=false iter=20000 energy=-1.26974174 Lattice="15.00000000 0.00000000 0.00000000 0.00000000 15.00000000 0.00000000 0.00000000 0.00000000 15.00000000" energy_frozen_part=0.00000000 Properties=species:S:1:pos:R:3:velocities:R:3:Z:I:1
H        10.91726975      12.92266017       8.30467345         0.00000000       0.00000000       0.00000000          1
H        14.42135341      11.92238438       6.77844043         0.00000000       0.00000000       0.00000000          1
H        13.27500607      11.82445684       9.32413876         0.00000000       0.00000000       0.00000000          1
H        11.98694618      10.60749903       7.16446343         0.00000000       0.00000000       0.00000000          1
H        13.35167629      14.23754685       7.91864122         0.00000000       0.00000000       0.00000000          1
H        12.06361367      13.02058418       5.75897330         0.00000000       0.00000000       0.00000000          1
6
pbc=[F, F, F] list_num_par=6 frozen=false iter=20000 energy=-1.26974174 Lattice="15.00000000 0.00000000 0.00000000 0.00000000 15.00000000 0.00000000 0.00000000 0.00000000 15.00000000" energy_frozen_part=0.00000000 Properties=species:S:1:pos:R:3:velocities:R:3:Z:I:1
H        10.91719165      12.92258002       8.30466138         0.00000000       0.00000000       0.00000000          1
H        14.42131629      11.92238059       6.77846221         0.00000000       0.00000000       0.00000000          1
H        13.27492139      11.82438968       9.32413997         0.00000000       0.00000000       0.00000000          1
H        11.98692059      10.60745416       7.16441131         0.00000000       0.00000000       0.00000000          1
H        13.35159035      14.23751071       7.91870985         0.00000000       0.00000000       0.00000000          1
H        12.06358491      13.02058031       5.75898419         0.00000000       0.00000000       0.00000000          1
6
pbc=[F, F, F] list_num_par=6 frozen=false iter=20000 energy=-1.26974174 Lattice="15.00000000 0.00000000 0.00000000 0.00000000 15.00000000 0.00000000 0.00000000 0.00000000 15.00000000" energy_frozen_part=0.00000000 Properties=species:S:1:pos:R:3:velocities:R:3:Z:I:1
H        10.91720156      12.92252377       8.30466041         0.00000000       0.00000000       0.00000000          1
H        14.42134856      11.92236844       6.77847085         0.00000000       0.00000000       0.00000000          1
H        13.27493519      11.82432070       9.32413486         0.00000000       0.00000000       0.00000000          1
H        11.98695366      10.60741932       7.16437991         0.00000000       0.00000000       0.00000000          1
H        13.35160087      14.23747145       7.91875267         0.00000000       0.00000000       0.00000000          1
H        12.06361619      13.02057484       5.75900218         0.00000000       0.00000000       0.00000000          1
6
pbc=[F, F, F] list_num_par=6 frozen=false iter=20000 energy=-1.26974174 Lattice="15.00000000 0.00000000 0.00000000 0.00000000 15.00000000 0.00000000 0.00000000 0.00000000 15.00000000" energy_frozen_part=0.00000000 Properties=species:S:1:pos:R:3:velocities:R:3:Z:I:1
H        10.91675526      12.92289614       8.30397294         0.00000000       0.00000000       0.00000000          1
H        14.42123106      11.92234262       6.77881362         0.00000000       0.00000000       0.00000000          1
H        13.27422169      11.82483576       9.32422875         0.00000000       0.00000000       0.00000000          1
H        11.98671734      10.60753491       7.16442120         0.00000000       0.00000000       0.00000000          1
H        13.35126928      14.23769749       7.91836760         0.00000000       0.00000000       0.00000000          1
H        12.06376379      13.02039573       5.75855930         0.00000000       0.00000000       0.00000000          1
6
pbc=[F, F, F] list_num_par=6 frozen=false iter=20000 energy=-1.26974174 Lattice="15.00000000 0.00000000 0.00000000 0.00000000 15.00000000 0.00000000 0.00000000 0.00000000 15.00000000" energy_frozen_part=0.00000000 Properties=species:S:1:pos:R:3:velocities:R:3:Z:I:1
H        10.91731227      12.92250064       8.30444236         0.00000000       0.00000000       0.00000000          1
H        14.42162465      11.92239688       6.77861684         0.00000000       0.00000000       0.00000000          1
H        13.27494615      11.82429567       9.32415159         0.00000000       0.00000000       0.00000000          1
H        11.98720242      10.60742860       7.16424212         0.00000000       0.00000000       0.00000000          1
H        13.35173820      14.23747033       7.91881649         0.00000000       0.00000000       0.00000000          1
H        12.06399525      13.02059951       5.75890195         0.00000000       0.00000000       0.00000000          1
6
pbc=[F, F, F] list_num_par=6 frozen=false iter=20000 energy=-1.26974174 Lattice="15.00000000 0.00000000 0.00000000 0.00000000 15.00000000 0.00000000 0.00000000 0.00000000 15.00000000" energy_frozen_part=0.00000000 Properties=species:S:1:pos:R:3:velocities:R:3:Z:I:1
H        10.91731898      12.92251393       8.30443437         0.00000000       0.00000000       0.00000000          1
H        14.42164031      11.92240127       6.77863766         0.00000000       0.00000000       0.00000000          1
H        13.27494013      11.82431537       9.32417092         0.00000000       0.00000000       0.00000000          1
H        11.98721470      10.60743896       7.16425319         0.00000000       0.00000000       0.00000000          1
H        13.35175349      14.23748418       7.91882705         0.00000000       0.00000000       0.00000000          1
H        12.06402232      13.02060678       5.75890391         0.00000000       0.00000000       0.00000000          1
6
pbc=[F, F, F] list_num_par=6 frozen=false iter=20000 energy=-1.26974174 Lattice="15.00000000 0.00000000 0.00000000 0.00000000 15.00000000 0.00000000 0.00000000 0.00000000 15.00000000" energy_frozen_part=0.00000000 Properties=species:S:1:pos:R:3:velocities:R:3:Z:I:1
H        10.91673483      12.92293754       8.30404327         0.00000000       0.00000000       0.00000000          1
H        14.42123784      11.92248683       6.77888775         0.00000000       0.00000000       0.00000000          1
H        13.27424857      11.82499860       9.32431051         0.00000000       0.00000000       0.00000000          1
H        11.98677267      10.60759288       7.16453474         0.00000000       0.00000000       0.00000000          1
H        13.35120015      14.23782879       7.91839110         0.00000000       0.00000000       0.00000000          1
H        12.06371959      13.02041998       5.75861656         0.00000000       0.00000000       0.00000000          1
6
pbc=[F, F, F] list_num_par=6 frozen=false iter=20000 energy=-1.26974174 Lattice="15.00000000 0.00000000 0.00000000 0.00000000 15.00000000 0.00000000 0.00000000 0.00000000 15.00000000" energy_frozen_part=0.00000000 Properties=species:S:1:pos:R:3:velocities:R:3:Z:I:1
H        10.78022488      13.48765214       7.93196945         0.00000000       0.00000000       0.00000000          1
H        14.25158510      11.66807144       7.43463779         0.00000000       0.00000000       0.00000000          1
H        12.80249921      12.59043230       9.63774839         0.00000000       0.00000000       0.00000000          1
H        11.61734161      10.82450312       7.82634415         0.00000000       0.00000000       0.00000000          1
H        13.41446304      14.33122394       7.54026866         0.00000000       0.00000000       0.00000000          1
H        12.22931112      12.56530010       5.72886028         0.00000000       0.00000000       0.00000000          1
6
pbc=[F, F, F] list_num_par=6 frozen=false iter=20000 energy=-1.26974174 Lattice="15.00000000 0.00000000 0.00000000 0.00000000 15.00000000 0.00000000 0.00000000 0.00000000 15.00000000" energy_frozen_part=0.00000000 Properties=species:S:1:pos:R:3:velocities:R:3:Z:I:1
H        10.91724826      12.92266714       8.30465799         0.00000000       0.00000000       0.00000000          1
H        14.42132992      11.92237100       6.77842841         0.00000000       0.00000000       0.00000000          1
H        13.27497438      11.82445353       9.32411954         0.00000000       0.00000000       0.00000000          1
H        11.98690966      10.60749942       7.16444052         0.00000000       0.00000000       0.00000000          1
H        13.35166557      14.23754534       7.91863770         0.00000000       0.00000000       0.00000000          1
H        12.06360004      13.02059724       5.75896359         0.00000000       0.00000000       0.00000000          1
6
pbc=[F, F, F] list_num_par=6 frozen=false iter=20000 energy=-1.26974174 Lattice="15.00000000 0.00000000 0.00000000 0.00000000 15.00000000 0.00000000 0.00000000 0.00000000 15.00000000" energy_frozen_part=0.00000000 Properties=species:S:1:pos:R:3:velocities:R:3:Z:I:1
H        10.78022853      13.48773520       7.93193629         0.00000000       0.00000000       0.00000000          1
H        14.25155793      11.66809488       7.43461185         0.00000000       0.00000000       0.00000000          1
H        12.80250090      12.59050239       9.63771555         0.00000000       0.00000000       0.00000000          1
H        11.61730267      10.82456667       7.82634383         0.00000000       0.00000000       0.00000000          1
H        13.41448386      14.33125658       7.54019956         0.00000000       0.00000000       0.00000000          1
H        12.22928041      12.56531603       5.72883514         0.00000000       0.00000000       0.00000000          1
6
pbc=[F, F, F] list_num_par=6 frozen=false iter=20000 energy=-1.26974174 Lattice="15.00000000 0.00000000 0.00000000 0.00000000 15.00000000 0.00000000 0.00000000 0.00000000 15.00000000" energy_frozen_part=0.00000000 Properties=species:S:1:pos:R:3:velocities:R:3:Z:I:1
H        10.91680360      12.92302243       8.30401014         0.00000000       0.00000000       0.00000000          1
H        14.42127735      11.92243605       6.77887713         0.00000000       0.00000000       0.00000000          1
H        13.27426849      11.82500208       9.32430042         0.00000000       0.00000000       0.00000000          1
H        11.98676550      10.60763467       7.16452513         0.00000000       0.00000000       0.00000000          1
H        13.35131160      14.23782682       7.91836595         0.00000000       0.00000000       0.00000000          1
H        12.06380559      13.02045108       5.75858788         0.00000000       0.00000000       0.00000000          1
6
pbc=[F, F, F] list_num_par=6 frozen=false iter=20000 energy=-1.26974174 Lattice="15.00000000 0.00000000 0.00000000 0.00000000 15.00000000 0.00000000 0.00000000 0.00000000 15.00000000" energy_frozen_part=0.00000000 Properties=species:S:1:pos:R:3:velocities:R:3:Z:I:1
H        10.78020447      13.48767938       7.93201768         0.00000000       0.00000000       0.00000000          1
H        14.25155747      11.66811603       7.43461545         0.00000000       0.00000000       0.00000000          1
H        12.80250450      12.59044822       9.63775873         0.00000000       0.00000000       0.00000000          1
H        11.61731893      10.82453716       7.82635361         0.00000000       0.00000000       0.00000000          1
H        13.41444218      14.33126308       7.54028434         0.00000000       0.00000000       0.00000000          1
H        12.22926060      12.56534997       5.72887818         0.00000000       0.00000000       0.00000000          1
6
pbc=[F, F, F] list_num_par=6 frozen=false iter=20000 energy=-1.26974174 Lattice="15.00000000 0.00000000 0.00000000 0.00000000 15.00000000 0.00000000 0.00000000 0.00000000 15.00000000" energy_frozen_part=0.00000000 Properties=species:S:1:pos:R:3:velocities:R:3:Z:I:1
H        10.78024045      13.48772627       7.93196490         0.00000000       0.00000000       0.00000000          1
H        14.25155817      11.66807583       7.43462817         0.00000000       0.00000000       0.00000000          1
H        12.80250762      12.59047905       9.63773901         0.00000000       0.00000000       0.00000000          1
H        11.61729929      10.82455858       7.82635563         0.00000000       0.00000000       0.00000000          1
H        13.41450034      14.33124577       7.54023711         0.00000000       0.00000000       0.00000000          1
H        12.22929159      12.56532699       5.72885558         0.00000000       0.00000000       0.00000000          1
6
pbc=[F, F, F] list_num_par=6 frozen=false iter=20000 energy=-1.26974174 Lattice="15.00000000 0.00000000 0.00000000 0.00000000 15.00000000 0.00000000 0.00000000 0.00000000 15.00000000" energy_frozen_part=0.00000000 Properties=species:S:1:pos:R:3:velocities:R:3:Z:I:1
H        10.91724668      12.92265740       8.30468743         0.00000000       0.00000000       0.00000000          1
H        14.42134654      11.92240069       6.77846561         0.00000000       0.00000000       0.00000000          1
H        13.27498527      11.82446588       9.32415446         0.00000000       0.00000000       0.00000000          1
H        11.98693902      10.60749562       7.16447752         0.00000000       0.00000000       0.00000000          1
H        13.35164604      14.23756092       7.91866746         0.00000000       0.00000000       0.00000000          1
H        12.06360502      13.02058541       5.75899589         0.00000000       0.00000000       0.00000000          1
6
pbc=[F, F, F] list_num_par=6 frozen=false iter=20000 energy=-1.26974174 Lattice="15.00000000 0.00000000 0.00000000 0.00000000 15.00000000 0.00000000 0.00000000 0.00000000 15.00000000" energy_frozen_part=0.00000000 Properties=species:S:1:pos:R:3:velocities:R:3:Z:I:1
H        10.91718135      12.92257842       8.30463103         0.00000000       0.00000000       0.00000000          1
H        14.42131817      11.92236455       6.77848153         0.00000000       0.00000000       0.00000000          1
H        13.27488652      11.82435609       9.32414354         0.00000000       0.00000000       0.00000000          1
H        11.98691133      10.60744894       7.16439428         0.00000000       0.00000000       0.00000000          1
H        13.35159048      14.23748682       7.91872762         0.00000000       0.00000000       0.00000000          1
H        12.06360608      13.02058060       5.75897255         0.00000000       0.00000000       0.00000000          1
6
pbc=[F, F, F] list_num_par=6 frozen=false iter=20000 energy=-1.26974174 Lattice="15.00000000 0.00000000 0.00000000 0.00000000 15.00000000 0.00000000 0.00000000 0.00000000 15.00000000" energy_frozen_part=0.00000000 Properties=species:S:1:pos:R:3:velocities:R:3:Z:I:1
H        10.78021804      13.48762651       7.93200541         0.00000000       0.00000000       0.00000000          1
H        14.25158702      11.66807556       7.43463159         0.00000000       0.00000000       0.00000000          1
H        12.80251166      12.59039725       9.63776104         0.00000000       0.00000000       0.00000000          1
H        11.61734901      10.82448440       7.82633974         0.00000000       0.00000000       0.00000000          1
H        13.41444682      14.33121901       7.54029388         0.00000000       0.00000000       0.00000000          1
H        12.22929786      12.56530520       5.72887213         0.00000000       0.00000000       0.00000000          1
6
pbc=[F, F, F] list_num_par=6 frozen=false iter=20000 energy=-1.26974174 Lattice="15.00000000 0.00000000 0.00000000 0.00000000 15.00000000 0.00000000 0.00000000 0.00000000 15.00000000" energy_frozen_part=0.00000000 Properties=species:S:1:pos:R:3:velocities:R:3:Z:I:1
H        10.91724736      12.92267532       8.30466612         0.00000000       0.00000000       0.00000000          1
H        14.42133734      11.92237370       6.77844043         0.00000000       0.00000000       0.00000000          1
H        13.27497037      11.82443966       9.32413056         0.00000000       0.00000000       0.00000000          1
H        11.98691661      10.60750689       7.16444524         0.00000000       0.00000000       0.00000000          1
H        13.35167428      14.23753744       7.91865967         0.00000000       0.00000000       0.00000000          1
H        12.06360759      13.02060214       5.75897368         0.00000000       0.00000000       0.00000000          1
6
pbc=[F, F, F] list_num_par=6 frozen=false iter=20000 energy=-1.26974174 Lattice="15.00000000 0.00000000 0.00000000 0.00000000 15.00000000 0.00000000 0.00000000 0.00000000 15.00000000" energy_frozen_part=0.00000000 Properties=species:S:1:pos:R:3:velocities:R:3:Z:I:1
H        10.91690873      12.92290647       8.30504682         0.00000000       0.00000000       0.00000000          1
H        14.42122406      11.92224714       6.77957236         0.00000000       0.00000000       0.00000000          1
H        13.27430033      11.82442773       9.32501530         0.00000000       0.00000000       0.00000000          1
H        11.98658200      10.60763163       7.16504136         0.00000000       0.00000000       0.00000000          1
H        13.35154905      14.23752124       7.91956854         0.00000000       0.00000000       0.00000000          1
H        12.06382839      13.02073065       5.75959840         0.00000000       0.00000000       0.00000000          1
6
pbc=[F, F, F] list_num_par=6 frozen=false iter=20000 energy=-1.26974174 Lattice="15.00000000 0.00000000 0.00000000 0.00000000 15.00000000 0.00000000 0.00000000 0.00000000 15.00000000" energy_frozen_part=0.00000000 Properties=species:S:1:pos:R:3:velocities:R:3:Z:I:1
H        10.91671366      12.92291694       8.30402219         0.00000000       0.00000000       0.00000000          1
H        14.42126105      11.92247486       6.77895613         0.00000000       0.00000000       0.00000000          1
H        13.27420899      11.82500606       9.32435448         0.00000000       0.00000000       0.00000000          1
H        11.98679260      10.60757438       7.16455508         0.00000000       0.00000000       0.00000000          1
H        13.35118258      14.23782247       7.91842086         0.00000000       0.00000000       0.00000000          1
H        12.06377028      13.02039361       5.75862432         0.00000000       0.00000000       0.00000000          1
6
pbc=[F, F, F] list_num_par=6 frozen=false iter=20000 energy=-1.26974174 Lattice="15.00000000 0.00000000 0.00000000 0.00000000 15.00000000 0.00000000 0.00000000 0.00000000 15.00000000" energy_frozen_part=0.00000000 Properties=species:S:1:pos:R:3:velocities:R:3:Z:I:1
H        10.78023864      13.48764944       7.93197990         0.00000000       0.00000000       0.00000000          1
H        14.25159144      11.66807104       7.43462850         0.00000000       0.00000000       0.00000000          1
H        12.80251435      12.59041972       9.63774888         0.00000000       0.00000000       0.00000000          1
H        11.61735480      10.82449783       7.82634642         0.00000000       0.00000000       0.00000000          1
H        13.41447996      14.33121731       7.54026966         0.00000000       0.00000000       0.00000000          1
H        12.22930932      12.56529657       5.72886398         0.00000000       0.00000000       0.00000000          1
6
pbc=[F, F, F] list_num_par=6 frozen=false iter=20000 energy=-1.26974174 Lattice="15.00000000 0.00000000 0.00000000 0.00000000 15.00000000 0.00000000 0.00000000 0.00000000 15.00000000" energy_frozen_part=0.00000000 Properties=species:S:1:pos:R:3:velocities:R:3:Z:I:1
H        10.91694080      12.92290314       8.30505803         0.00000000       0.00000000       0.00000000          1
H        14.42123575      11.92232636       6.77951416         0.00000000       0.00000000       0.00000000          1
H        13.27438125      11.82449263       9.32498802         0.00000000       0.00000000       0.00000000          1
H        11.98664074      10.60764638       7.16505113         0.00000000       0.00000000       0.00000000          1
H        13.35153153      14.23757942       7.91951818         0.00000000       0.00000000       0.00000000          1
H        12.06379958      13.02073695       5.75958533         0.00000000       0.00000000       0.00000000          1
6
pbc=[F, F, F] list_num_par=6 frozen=false iter=20000 energy=-1.26974174 Lattice="15.00000000 0.00000000 0.00000000 0.00000000 15.00000000 0.00000000 0.00000000 0.00000000 15.00000000" energy_frozen_part=0.00000000 Properties=species:S:1:pos:R:3:velocities:R:3:Z:I:1
H        10.91693338      12.92291018       8.30505373         0.00000000       0.00000000       0.00000000          1
H        14.42123114      11.92232248       6.77951007         0.00000000       0.00000000       0.00000000          1
H        13.27437194      11.82448907       9.32497610         0.00000000       0.00000000       0.00000000          1
H        11.98662655      10.60765321       7.16504511         0.00000000       0.00000000       0.00000000          1
H        13.35153782      14.23757620       7.91951288         0.00000000       0.00000000       0.00000000          1
H        12.06378909      13.02074168       5.75958052         0.00000000       0.00000000       0.00000000          1
6
pbc=[F, F, F] list_num_par=6 frozen=false iter=20000 energy=-1.26974174 Lattice="15.00000000 0.00000000 0.00000000 0.00000000 15.00000000 0.00000000 0.00000000 0.00000000 15.00000000" energy_frozen_part=0.00000000 Properties=species:S:1:pos:R:3:velocities:R:3:Z:I:1
H        10.91726168      12.92265068       8.30467444         0.00000000       0.00000000       0.00000000          1
H        14.42134767      11.92238530       6.77843728         0.00000000       0.00000000       0.00000000          1
H        13.27500462      11.82445987       9.32413967         0.00000000       0.00000000       0.00000000          1
H        11.98694346      10.60749517       7.16446476         0.00000000       0.00000000       0.00000000          1
H        13.35165830      14.23754846       7.91864570         0.00000000       0.00000000       0.00000000          1
H        12.06360746      13.02058529       5.75897204         0.00000000       0.00000000       0.00000000          1
6
pbc=[F, F, F] list_num_par=6 frozen=false iter=20000 energy=-1.26974174 Lattice="15.00000000 0.00000000 0.00000000 0.00000000 15.00000000 0.00000000 0.00000000 0.00000000 15.00000000" energy_frozen_part=0.00000000 Properties=species:S:1:pos:R:3:velocities:R:3:Z:I:1
H        10.91673894      12.92295483       8.30403715         0.00000000       0.00000000       0.00000000          1
H        14.42123737      11.92243026       6.77891749         0.00000000       0.00000000       0.00000000          1
H        13.27422618      11.82499566       9.32433879         0.00000000       0.00000000       0.00000000          1
H        11.98674924      10.60758410       7.16456399         0.00000000       0.00000000       0.00000000          1
H        13.35122876      14.23780795       7.91838444         0.00000000       0.00000000       0.00000000          1
H        12.06374805      13.02039643       5.75862111         0.00000000       0.00000000       0.00000000          1
6
pbc=[F, F, F] list_num_par=6 frozen=false iter=20000 energy=-1.26974174 Lattice="15.00000000 0.00000000 0.00000000 0.00000000 15.00000000 0.00000000 0.00000000 0.00000000 15.00000000" energy_frozen_part=0.00000000 Properties=species:S:1:pos:R:3:velocities:R:3:Z:I:1
H        10.91725547      12.92266584       8.30465552         0.00000000       0.00000000       0.00000000          1
H        14.42132886      11.92235909       6.77840649         0.00000000       0.00000000       0.00000000          1
H        13.27498361      11.82444469       9.32411279         0.00000000       0.00000000       0.00000000          1
H        11.98690715      10.60749559       7.16443868         0.00000000       0.00000000       0.00000000          1
H        13.35167834      14.23753146       7.91862389         0.00000000       0.00000000       0.00000000          1
H        12.06359890      13.02058717       5.75895374         0.00000000       0.00000000       0.00000000          1
6
pbc=[F, F, F] list_num_par=6 frozen=false iter=20000 energy=-1.26974174 Lattice="15.00000000 0.00000000 0.00000000 0.00000000 15.00000000 0.00000000 0.00000000 0.00000000 15.00000000" energy_frozen_part=0.00000000 Properties=species:S:1:pos:R:3:velocities:R:3:Z:I:1
H        10.78020732      13.48768377       7.93198249         0.00000000       0.00000000       0.00000000          1
H        14.25155947      11.66808949       7.43461630         0.00000000       0.00000000       0.00000000          1
H        12.80250668      12.59045842       9.63774007         0.00000000       0.00000000       0.00000000          1
H        11.61732082      10.82453277       7.82635435         0.00000000       0.00000000       0.00000000          1
H        13.41444575      14.33123921       7.54024389         0.00000000       0.00000000       0.00000000          1
H        12.22926287      12.56530975       5.72885919         0.00000000       0.00000000       0.00000000          1
6
pbc=[F, F, F] list_num_par=6 frozen=false iter=20000 energy=-1.26974174 Lattice="15.00000000 0.00000000 0.00000000 0.00000000 15.00000000 0.00000000 0.00000000 0.00000000 15.00000000" energy_frozen_part=0.00000000 Properties=species:S:1:pos:R:3:velocities:R:3:Z:I:1
H        10.91731783      12.92249996       8.30445792         0.00000000       0.00000000       0.00000000          1
H        14.42162033      11.92240479       6.77860858         0.00000000       0.00000000       0.00000000          1
H        13.27495327      11.82430141       9.32415984         0.00000000       0.00000000       0.00000000          1
H        11.98719912      10.60743254       7.16424510         0.00000000       0.00000000       0.00000000          1
H        13.35173891      14.23747120       7.91882363         0.00000000       0.00000000       0.00000000          1
H        12.06398252      13.02060945       5.75891199         0.00000000       0.00000000       0.00000000          1
6
pbc=[F, F, F] list_num_par=6 frozen=false iter=20000 energy=-1.26974174 Lattice="15.00000000 0.00000000 0.00000000 0.00000000 15.00000000 0.00000000 0.00000000 0.00000000 15.00000000" energy_frozen_part=0.00000000 Properties=species:S:1:pos:R:3:velocities:R:3:Z:I:1
H        10.91719019      12.92258088       8.30465611         0.00000000       0.00000000       0.00000000          1
H        14.42132519      11.92238488       6.77846178         0.00000000       0.00000000       0.00000000          1
H        13.27492532      11.82438549       9.32413592         0.00000000       0.00000000       0.00000000          1
H        11.98692887      10.60745865       7.16440418         0.00000000       0.00000000       0.00000000          1
H        13.35159332      14.23750726       7.91870594         0.00000000       0.00000000       0.00000000          1
H        12.06358688      13.02058355       5.75898235         0.00000000       0.00000000       0.00000000          1
6
pbc=[F, F, F] list_num_par=6 frozen=false iter=20000 energy=-1.26974174 Lattice="15.00000000 0.00000000 0.00000000 0.00000000 15.00000000 0.00000000 0.00000000 0.00000000 15.00000000" energy_frozen_part=0.00000000 Properties=species:S:1:pos:R:3:velocities:R:3:Z:I:1
H        10.91690350      12.92291512       8.30504833         0.00000000       0.00000000       0.00000000          1
H        14.42120761      11.92225626       6.77956497         0.00000000       0.00000000       0.00000000          1
H        13.27428834      11.82443060       9.32501030         0.00000000       0.00000000       0.00000000          1
H        11.98656138      10.60764032       7.16504537         0.00000000       0.00000000       0.00000000          1
H        13.35154269      14.23752901       7.91956234         0.00000000       0.00000000       0.00000000          1
H        12.06381454      13.02073356       5.75959750         0.00000000       0.00000000       0.00000000          1
6
pbc=[F, F, F] list_num_par=6 frozen=false iter=20000 energy=-1.26974174 Lattice="15.00000000 0.00000000 0.00000000 0.00000000 15.00000000 0.00000000 0.00000000 0.00000000 15.00000000" energy_frozen_part=0.00000000 Properties=species:S:1:pos:R:3:velocities:R:3:Z:I:1
H        10.91691749      12.92283475       8.30513756         0.00000000       0.00000000       0.00000000          1
H        14.42115547      11.92223419       6.77947386         0.00000000       0.00000000       0.00000000          1
H        13.27432519      11.82425938       9.32495504         0.00000000       0.00000000       0.00000000          1
H        11.98651045      10.60762463       7.16494798         0.00000000       0.00000000       0.00000000          1
H        13.35156410      14.23744568       7.91965904         0.00000000       0.00000000       0.00000000          1
H        12.06374763      13.02081218       5.75965556         0.00000000       0.00000000       0.00000000          1
6
pbc=[F, F, F] list_num_par=6 frozen=false iter=20000 energy=-1.26974174 Lattice="15.00000000 0.00000000 0.00000000 0.00000000 15.00000000 0.00000000 0.00000000 0.00000000 15.00000000" energy_frozen_part=0.00000000 Properties=species:S:1:pos:R:3:velocities:R:3:Z:I:1
H        10.78020817      13.48768524       7.93197724         0.00000000       0.00000000       0.00000000          1
H        14.25155328      11.66807905       7.43461209         0.00000000       0.00000000       0.00000000          1
H        12.80249453      12.59045513       9.63773390         0.00000000       0.00000000       0.00000000          1
H        11.61731367      10.82452757       7.82635000         0.00000000       0.00000000       0.00000000          1
H        13.41445692      14.33123543       7.54023989         0.00000000       0.00000000       0.00000000          1
H        12.22926457      12.56530975       5.72885703         0.00000000       0.00000000       0.00000000          1
6
pbc=[F, F, F] list_num_par=6 frozen=false iter=20000 energy=-1.26974174 Lattice="15.00000000 0.00000000 0.00000000 0.00000000 15.00000000 0.00000000 0.00000000 0.00000000 15.00000000" energy_frozen_part=0.00000000 Properties=species:S:1:pos:R:3:velocities:R:3:Z:I:1
H        10.91730766      12.92248330       8.30443984         0.00000000       0.00000000       0.00000000          1
H        14.42162874      11.92239239       6.77861588         0.00000000       0.00000000       0.00000000          1
H        13.27494682      11.82430180       9.32415630         0.00000000       0.00000000       0.00000000          1
H        11.98720770      10.60741158       7.16424894         0.00000000       0.00000000       0.00000000          1
H        13.35173010      14.23746952       7.91880499         0.00000000       0.00000000       0.00000000          1
H        12.06399438      13.02058432       5.75890211         0.00000000       0.00000000       0.00000000          1
6
pbc=[F, F, F] list_num_par=6 frozen=false iter=20000 energy=-1.26974174 Lattice="15.00000000 0.00000000 0.00000000 0.00000000 15.00000000 0.00000000 0.00000000 0.00000000 15.00000000" energy_frozen_part=0.00000000 Properties=species:S:1:pos:R:3:velocities:R:3:Z:I:1
H        10.78022578      13.48773102       7.93195089         0.00000000       0.00000000       0.00000000          1
H        14.25155892      11.66808281       7.43463044         0.00000000       0.00000000       0.00000000          1
H        12.80250271      12.59052232       9.63772675         0.00000000       0.00000000       0.00000000          1
H        11.61730220      10.82456544       7.82638196         0.00000000       0.00000000       0.00000000          1
H        13.41447830      14.33124741       7.54019949         0.00000000       0.00000000       0.00000000          1
H        12.22927794      12.56528908       5.72885053         0.00000000       0.00000000       0.00000000          1
6
pbc=[F, F, F] list_num_par=6 frozen=false iter=20000 energy=-1.26974174 Lattice="15.00000000 0.00000000 0.00000000 0.00000000 15.00000000 0.00000000 0.00000000 0.00000000 15.00000000" energy_frozen_part=0.00000000 Properties=species:S:1:pos:R:3:velocities:R:3:Z:I:1
H        10.91673167      12.92294703       8.30402987         0.00000000       0.00000000       0.00000000          1
H        14.42123442      11.92245975       6.77888990         0.00000000       0.00000000       0.00000000          1
H        13.27422345      11.82496808       9.32430834         0.00000000       0.00000000       0.00000000          1
H        11.98674979      10.60759688       7.16451913         0.00000000       0.00000000       0.00000000          1
H        13.35121126      14.23780580       7.91840134         0.00000000       0.00000000       0.00000000          1
H        12.06374109      13.02042855       5.75860977         0.00000000       0.00000000       0.00000000          1
6
pbc=[F, F, F] list_num_par=6 frozen=false iter=20000 energy=-1.26974174 Lattice="15.00000000 0.00000000 0.00000000 0.00000000 15.00000000 0.00000000 0.00000000 0.00000000 15.00000000" energy_frozen_part=0.00000000 Properties=species:S:1:pos:R:3:velocities:R:3:Z:I:1
H        10.91693782      12.92290403       8.30505689         0.00000000       0.00000000       0.00000000          1
H        14.42123665      11.92231983       6.77951200         0.00000000       0.00000000       0.00000000          1
H        13.27437623      11.82448444       9.32498219         0.00000000       0.00000000       0.00000000          1
H        11.98663548      10.60764400       7.16505180         0.00000000       0.00000000       0.00000000          1
H        13.35153568      14.23757876       7.91952153         0.00000000       0.00000000       0.00000000          1
H        12.06380249      13.02073630       5.75958953         0.00000000       0.00000000       0.00000000          1
6
pbc=[F, F, F] list_num_par=6 frozen=false iter=20000 energy=-1.26974174 Lattice="15.00000000 0.00000000 0.00000000 0.00000000 15.00000000 0.00000000 0.00000000 0.00000000 15.00000000" energy_frozen_part=0.00000000 Properties=species:S:1:pos:R:3:velocities:R:3:Z:I:1
H        10.91678771      12.92302812       8.30401891         0.00000000       0.00000000       0.00000000          1
H        14.42125238      11.92242665       6.77886609         0.00000000       0.00000000       0.00000000          1
H        13.27425929      11.82500761       9.32429753         0.00000000       0.00000000       0.00000000          1
H        11.98673666      10.60763703       7.16453411         0.00000000       0.00000000       0.00000000          1
H        13.35129926      14.23782416       7.91835775         0.00000000       0.00000000       0.00000000          1
H        12.06378164      13.02045193       5.75859129         0.00000000       0.00000000       0.00000000          1
6
pbc=[F, F, F] list_num_par=6 frozen=false iter=20000 energy=-1.26974174 Lattice="15.00000000 0.00000000 0.00000000 0.00000000 15.00000000 0.00000000 0.00000000 0.00000000 15.00000000" energy_frozen_part=0.00000000 Properties=species:S:1:pos:R:3:velocities:R:3:Z:I:1
H        10.78022503      13.48773165       7.93196061         0.00000000       0.00000000       0.00000000          1
H        14.25154177      11.66807100       7.43460243         0.00000000       0.00000000       0.00000000          1
H        12.80252100      12.59051658       9.63772057         0.00000000       0.00000000       0.00000000          1
H        11.61729527      10.82455688       7.82639258         0.00000000       0.00000000       0.00000000          1
H        13.41447163      14.33123615       7.54017509         0.00000000       0.00000000       0.00000000          1
H        12.22924228      12.56527602       5.72884404         0.00000000       0.00000000       0.00000000          1
