6
pbc=[F, F, F] list_num_par=6 frozen=false iter=20000 energy=-1.26974174 Lattice="15.00000000 0.00000000 0.00000000 0.00000000 15.00000000 0.00000000 0.00000000 0.00000000 15.00000000" energy_frozen_part=0.00000000 Properties=species:S:1:pos:R:3:velocities:R:3:Z:I:1
H        11.38028461       4.97965468       9.93909359         0.00000000       0.00000000       0.00000000          1
H         8.80009808       4.10062768      10.55081834         0.00000000       0.00000000       0.00000000          1
H        12.35773501       2.39465783      10.34730880         0.00000000       0.00000000       0.00000000          1
H         9.77754599       1.51562488      10.95902476         0.00000000       0.00000000       0.00000000          1
H        10.88834213       3.66558239      12.35477140         0.00000000       0.00000000       0.00000000          1
H        10.26949249       2.82969269       8.54335459         0.00000000       0.00000000       0.00000000          1
6
pbc=[F, F, F] list_num_par=6 frozen=false iter=20000 energy=-1.26974174 Lattice="15.00000000 0.00000000 0.00000000 0.00000000 15.00000000 0.00000000 0.00000000 0.00000000 15.00000000" energy_frozen_part=0.00000000 Properties=species:S:1:pos:R:3:velocities:R:3:Z:I:1
H        11.38084733       4.97945469       9.93860517         0.00000000       0.00000000       0.00000000          1
H         8.80049275       4.10115141      10.55069319         0.00000000       0.00000000       0.00000000          1
H        12.35777228       2.39437295      10.34757437         0.00000000       0.00000000       0.00000000          1
H         9.77742584       1.51606699      10.95965848         0.00000000       0.00000000       0.00000000          1
H        10.88871894       3.66621633      12.35470301         0.00000000       0.00000000       0.00000000          1
H        10.26954783       2.82930168       8.54356672         0.00000000       0.00000000       0.00000000          1
6
pbc=[F, F, F] list_num_par=6 frozen=false iter=20000 energy=-1.26974174 Lattice="15.00000000 0.00000000 0.00000000 0.00000000 15.00000000 0.00000000 0.00000000 0.00000000 15.00000000" energy_frozen_part=0.00000000 Properties=species:S:1:pos:R:3:velocities:R:3:Z:I:1
H        11.38091343       4.97949351       9.93870926         0.00000000       0.00000000       0.00000000          1
H         8.80055796       4.10117521      10.55074930         0.00000000       0.00000000       0.00000000          1
H        12.35782964       2.39439684      10.34762637         0.00000000       0.00000000       0.00000000          1
H         9.77746755       1.51608811      10.95966924         0.00000000       0.00000000       0.00000000          1
H        10.88876077       3.66620103      12.35476895         0.00000000       0.00000000       0.00000000          1
H        10.26962358       2.82936928       8.54360749         0.00000000       0.00000000       0.00000000          1
6
pbc=[F, F, F] list_num_par=6 frozen=false iter=20000 energy=-1.26974174 Lattice="15.00000000 0.00000000 0.00000000 0.00000000 15.00000000 0.00000000 0.00000000 0.00000000 15.00000000" energy_frozen_part=0.00000000 Properties=species:S:1:pos:R:3:velocities:R:3:Z:I:1
H        11.38087482       4.97943628       9.93860288         0.00000000       0.00000000       0.00000000          1
H         8.80051932       4.10117049      10.55072498         0.00000000       0.00000000       0.00000000          1
H        12.35777073       2.39433888      10.34756880         0.00000000       0.00000000       0.00000000          1
H         9.77741579       1.51606895      10.95968377         0.00000000       0.00000000       0.00000000          1
H        10.88875009       3.66621564      12.35470774         0.00000000       0.00000000       0.00000000          1
H        10.26953166       2.82929507       8.54358331         0.00000000       0.00000000       0.00000000          1
6
pbc=[F, F, F] list_num_par=6 frozen=false iter=20000 energy=-1.26974174 Lattice="15.00000000 0.00000000 0.00000000 0.00000000 15.00000000 0.00000000 0.00000000 0.00000000 15.00000000" energy_frozen_part=0.00000000 Properties=species:S:1:pos:R:3:velocities:R:3:Z:I:1
H        11.41657574       4.98385336       9.94252219         0.00000000       0.00000000       0.00000000          1
H         8.82675726       4.11373997      10.52564306         0.00000000       0.00000000       0.00000000          1
H        12.38004314       2.39480876      10.35826839         0.00000000       0.00000000       0.00000000          1
H         9.79022035       1.52468842      10.94138277         0.00000000       0.00000000       0.00000000          1
H        10.89396904       3.66900376      12.35132929         0.00000000       0.00000000       0.00000000          1
H        10.31283012       2.83953620       8.53257559         0.00000000       0.00000000       0.00000000          1
6
pbc=[F, F, F] list_num_par=6 frozen=false iter=20000 energy=-1.26974174 Lattice="15.00000000 0.00000000 0.00000000 0.00000000 15.00000000 0.00000000 0.00000000 0.00000000 15.00000000" energy_frozen_part=0.00000000 Properties=species:S:1:pos:R:3:velocities:R:3:Z:I:1
H        11.38091700       4.97948911       9.93870090         0.00000000       0.00000000       0.00000000          1
H         8.80055033       4.10118327      10.55073695         0.00000000       0.00000000       0.00000000          1
H        12.35782278       2.39439891      10.34764487         0.00000000       0.00000000       0.00000000          1
H         9.77746425       1.51609187      10.95966900         0.00000000       0.00000000       0.00000000          1
H        10.88874503       3.66621917      12.35476600         0.00000000       0.00000000       0.00000000          1
H        10.26963551       2.82936276       8.54360746         0.00000000       0.00000000       0.00000000          1
6
pbc=[F, F, F] list_num_par=6 frozen=false iter=20000 energy=-1.26974174 Lattice="15.00000000 0.00000000 0.00000000 0.00000000 15.00000000 0.00000000 0.00000000 0.00000000 15.00000000" energy_frozen_part=0.00000000 Properties=species:S:1:pos:R:3:velocities:R:3:Z:I:1
H        11.38085662       4.97946889       9.93859897         0.00000000       0.00000000       0.00000000          1
H         8.80051762       4.10117086      10.55071071         0.00000000       0.00000000       0.00000000          1
H        12.35778525       2.39438713      10.34758173         0.00000000       0.00000000       0.00000000          1
H         9.77743908       1.51609603      10.95969866         0.00000000       0.00000000       0.00000000          1
H        10.88875146       3.66626258      12.35471302         0.00000000       0.00000000       0.00000000          1
H        10.26955112       2.82929870       8.54358417         0.00000000       0.00000000       0.00000000          1
6
pbc=[F, F, F] list_num_par=6 frozen=false iter=20000 energy=-1.26974174 Lattice="15.00000000 0.00000000 0.00000000 0.00000000 15.00000000 0.00000000 0.00000000 0.00000000 15.00000000" energy_frozen_part=0.00000000 Properties=species:S:1:pos:R:3:velocities:R:3:Z:I:1
H        11.41646241       4.98391460       9.94255002         0.00000000       0.00000000       0.00000000          1
H         8.82667957       4.11375789      10.52575803         0.00000000       0.00000000       0.00000000          1
H        12.37993815       2.39482115      10.35796526         0.00000000       0.00000000       0.00000000          1
H         9.79015450       1.52466716      10.94117741         0.00000000       0.00000000       0.00000000          1
H        10.89400927       3.66882936      12.35125994         0.00000000       0.00000000       0.00000000          1
H        10.31260068       2.83974454       8.53246729         0.00000000       0.00000000       0.00000000          1
6
pbc=[F, F, F] list_num_par=6 frozen=false iter=20000 energy=-1.26974174 Lattice="15.00000000 0.00000000 0.00000000 0.00000000 15.00000000 0.00000000 0.00000000 0.00000000 15.00000000" energy_frozen_part=0.00000000 Properties=species:S:1:pos:R:3:velocities:R:3:Z:I:1
H        11.38086249       4.97944651       9.93860826         0.00000000       0.00000000       0.00000000          1
H         8.80050553       4.10116518      10.55072819         0.00000000       0.00000000       0.00000000          1
H        12.35776313       2.39435559      10.34757106         0.00000000       0.00000000       0.00000000          1
H         9.77741155       1.51607344      10.95968943         0.00000000       0.00000000       0.00000000          1
H        10.88874710       3.66622635      12.35470541         0.00000000       0.00000000       0.00000000          1
H        10.26952573       2.82930204       8.54358747         0.00000000       0.00000000       0.00000000          1
6
pbc=[F, F, F] list_num_par=6 frozen=false iter=20000 energy=-1.26974174 Lattice="15.00000000 0.00000000 0.00000000 0.00000000 15.00000000 0.00000000 0.00000000 0.00000000 15.00000000" energy_frozen_part=0.00000000 Properties=species:S:1:pos:R:3:velocities:R:3:Z:I:1
H        11.41654219       4.98393356       9.94244000         0.00000000       0.00000000       0.00000000          1
H         8.82676981       4.11377818      10.52571466         0.00000000       0.00000000       0.00000000          1
H        12.38009195       2.39492186      10.35822857         0.00000000       0.00000000       0.00000000          1
H         9.79031766       1.52476770      10.94150563         0.00000000       0.00000000       0.00000000          1
H        10.89408422       3.66915442      12.35131713         0.00000000       0.00000000       0.00000000          1
H        10.31278506       2.83954504       8.53262769         0.00000000       0.00000000       0.00000000          1
6
pbc=[F, F, F] list_num_par=6 frozen=false iter=20000 energy=-1.26974174 Lattice="15.00000000 0.00000000 0.00000000 0.00000000 15.00000000 0.00000000 0.00000000 0.00000000 15.00000000" energy_frozen_part=0.00000000 Properties=species:S:1:pos:R:3:velocities:R:3:Z:I:1
H        11.38085995       4.97947332       9.93859102         0.00000000       0.00000000       0.00000000          1
H         8.80051308       4.10117455      10.55068608         0.00000000       0.00000000       0.00000000          1
H        12.35778398       2.39439146      10.34756872         0.00000000       0.00000000       0.00000000          1
H         9.77743296       1.51609447      10.95966654         0.00000000       0.00000000       0.00000000          1
H        10.88873553       3.66625993      12.35469807         0.00000000       0.00000000       0.00000000          1
H        10.26956282       2.82931099       8.54356435         0.00000000       0.00000000       0.00000000          1
6
pbc=[F, F, F] list_num_par=6 frozen=false iter=20000 energy=-1.26974174 Lattice="15.00000000 0.00000000 0.00000000 0.00000000 15.00000000 0.00000000 0.00000000 0.00000000 15.00000000" energy_frozen_part=0.00000000 Properties=species:S:1:pos:R:3:velocities:R:3:Z:I:1
H        11.38028869       4.97965560       9.93908636         0.00000000       0.00000000       0.00000000          1
H         8.80008863       4.10063873      10.55080847         0.00000000       0.00000000       0.00000000          1
H        12.35773107       2.39464855      10.34731566         0.00000000       0.00000000       0.00000000          1
H         9.77753255       1.51563598      10.95904181         0.00000000       0.00000000       0.00000000          1
H        10.88833505       3.66559750      12.35476718         0.00000000       0.00000000       0.00000000          1
H        10.26948260       2.82969865       8.54335677         0.00000000       0.00000000       0.00000000          1
6
pbc=[F, F, F] list_num_par=6 frozen=false iter=20000 energy=-1.26974174 Lattice="15.00000000 0.00000000 0.00000000 0.00000000 15.00000000 0.00000000 0.00000000 0.00000000 15.00000000" energy_frozen_part=0.00000000 Properties=species:S:1:pos:R:3:velocities:R:3:Z:I:1
H        11.41654509       4.98392800       9.94242108         0.00000000       0.00000000       0.00000000          1
H         8.82677442       4.11378217      10.52570246         0.00000000       0.00000000       0.00000000          1
H        12.38007781       2.39491497      10.35822782         0.00000000       0.00000000       0.00000000          1
H         9.79031139       1.52476818      10.94149792         0.00000000       0.00000000       0.00000000          1
H        10.89407557       3.66916665      12.35131088         0.00000000       0.00000000       0.00000000          1
H        10.31277282       2.83953377       8.53261910         0.00000000       0.00000000       0.00000000          1
6
pbc=[F, F, F] list_num_par=6 frozen=false iter=20000 energy=-1.26974174 Lattice="15.00000000 0.00000000 0.00000000 0.00000000 15.00000000 0.00000000 0.00000000 0.00000000 15.00000000" energy_frozen_part=0.00000000 Properties=species:S:1:pos:R:3:velocities:R:3:Z:I:1
H        11.38091910       4.97948928       9.93871523         0.00000000       0.00000000       0.00000000          1
H         8.80054671       4.10118429      10.55074028         0.00000000       0.00000000       0.00000000          1
H        12.35782885       2.39439530      10.34763247         0.00000000       0.00000000       0.00000000          1
H         9.77746508       1.51609356      10.95966745         0.00000000       0.00000000       0.00000000          1
H        10.88874895       3.66620872      12.35476941         0.00000000       0.00000000       0.00000000          1
H        10.26962794       2.82937579       8.54360554         0.00000000       0.00000000       0.00000000          1
6
pbc=[F, F, F] list_num_par=6 frozen=false iter=20000 energy=-1.26974174 Lattice="15.00000000 0.00000000 0.00000000 0.00000000 15.00000000 0.00000000 0.00000000 0.00000000 15.00000000" energy_frozen_part=0.00000000 Properties=species:S:1:pos:R:3:velocities:R:3:Z:I:1
H        11.38084346       4.97946031       9.93861945         0.00000000       0.00000000       0.00000000          1
H         8.80049371       4.10115797      10.55069527         0.00000000       0.00000000       0.00000000          1
H        12.35776859       2.39437729      10.34756953         0.00000000       0.00000000       0.00000000          1
H         9.77742018       1.51607371      10.95965445         0.00000000       0.00000000       0.00000000          1
H        10.88871620       3.66622352      12.35470868         0.00000000       0.00000000       0.00000000          1
H        10.26954308       2.82931907       8.54356228         0.00000000       0.00000000       0.00000000          1
6
pbc=[F, F, F] list_num_par=6 frozen=false iter=20000 energy=-1.26974174 Lattice="15.00000000 0.00000000 0.00000000 0.00000000 15.00000000 0.00000000 0.00000000 0.00000000 15.00000000" energy_frozen_part=0.00000000 Properties=species:S:1:pos:R:3:velocities:R:3:Z:I:1
H        11.38083805       4.97945950       9.93860948         0.00000000       0.00000000       0.00000000          1
H         8.80048678       4.10115477      10.55070712         0.00000000       0.00000000       0.00000000          1
H        12.35776582       2.39437274      10.34756041         0.00000000       0.00000000       0.00000000          1
H         9.77741007       1.51607442      10.95965954         0.00000000       0.00000000       0.00000000          1
H        10.88871845       3.66622205      12.35469937         0.00000000       0.00000000       0.00000000          1
H        10.26953269       2.82931658       8.54356324         0.00000000       0.00000000       0.00000000          1
6
pbc=[F, F, F] list_num_par=6 frozen=false iter=20000 energy=-1.26974174 Lattice="15.00000000 0.00000000 0.00000000 0.00000000 15.00000000 0.00000000 0.00000000 0.00000000 15.00000000" energy_frozen_part=0.00000000 Properties=species:S:1:pos:R:3:velocities:R:3:Z:I:1
H        11.38087962       4.97946830       9.93863983         0.00000000       0.00000000       0.00000000          1
H         8.80052992       4.10115997      10.55071843         0.00000000       0.00000000       0.00000000          1
H        12.35779454       2.39438331      10.34758180         0.00000000       0.00000000       0.00000000          1
H         9.77744423       1.51607404      10.95966258         0.00000000       0.00000000       0.00000000          1
H        10.88874762       3.66621077      12.35472153         0.00000000       0.00000000       0.00000000          1
H        10.26957396       2.82932558       8.54357971         0.00000000       0.00000000       0.00000000          1
6
pbc=[F, F, F] list_num_par=6 frozen=false iter=20000 energy=-1.26974174 Lattice="15.00000000 0.00000000 0.00000000 0.00000000 15.00000000 0.00000000 0.00000000 0.00000000 15.00000000" energy_frozen_part=0.00000000 Properties=species:S:1:pos:R:3:velocities:R:3:Z:I:1
H        11.38086517       4.97945899       9.93860031         0.00000000       0.00000000       0.00000000          1
H         8.80051404       4.10117477      10.55070708         0.00000000       0.00000000       0.00000000          1
H        12.35778606       2.39437068      10.34758538         0.00000000       0.00000000       0.00000000          1
H         9.77743152       1.51609519      10.95969623         0.00000000       0.00000000       0.00000000          1
H        10.88874843       3.66625110      12.35471186         0.00000000       0.00000000       0.00000000          1
H        10.26955178       2.82929807       8.54358533         0.00000000       0.00000000       0.00000000          1
6
pbc=[F, F, F] list_num_par=6 frozen=false iter=20000 energy=-1.26974174 Lattice="15.00000000 0.00000000 0.00000000 0.00000000 15.00000000 0.00000000 0.00000000 0.00000000 15.00000000" energy_frozen_part=0.00000000 Properties=species:S:1:pos:R:3:velocities:R:3:Z:I:1
H        11.38028644       4.97965069       9.93910108         0.00000000       0.00000000       0.00000000          1
H         8.80009291       4.10062338      10.55081854         0.00000000       0.00000000       0.00000000          1
H        12.35773510       2.39464474      10.34730854         0.00000000       0.00000000       0.00000000          1
H         9.77754413       1.51561388      10.95903067         0.00000000       0.00000000       0.00000000          1
H        10.88833822       3.66557754      12.35477413         0.00000000       0.00000000       0.00000000          1
H        10.26948537       2.82969677       8.54336105         0.00000000       0.00000000       0.00000000          1
6
pbc=[F, F, F] list_num_par=6 frozen=false iter=20000 energy=-1.26974174 Lattice="15.00000000 0.00000000 0.00000000 0.00000000 15.00000000 0.00000000 0.00000000 0.00000000 15.00000000" energy_frozen_part=0.00000000 Properties=species:S:1:pos:R:3:velocities:R:3:Z:I:1
H        11.38087897       4.97946320       9.93861529         0.00000000       0.00000000       0.00000000          1
H         8.80052451       4.10119068      10.55074245         0.00000000       0.00000000       0.00000000          1
H        12.35777275       2.39437022      10.34755120         0.00000000       0.00000000       0.00000000          1
H         9.77742565       1.51609050      10.95968297         0.00000000       0.00000000       0.00000000          1
H        10.88877123       3.66622161      12.35471588         0.00000000       0.00000000       0.00000000          1
H        10.26952755       2.82932754       8.54358349         0.00000000       0.00000000       0.00000000          1
6
pbc=[F, F, F] list_num_par=6 frozen=false iter=20000 energy=-1.26974174 Lattice="15.00000000 0.00000000 0.00000000 0.00000000 15.00000000 0.00000000 0.00000000 0.00000000 15.00000000" energy_frozen_part=0.00000000 Properties=species:S:1:pos:R:3:velocities:R:3:Z:I:1
H        11.41646048       4.98393456       9.94251127         0.00000000       0.00000000       0.00000000          1
H         8.82669612       4.11380230      10.52582918         0.00000000       0.00000000       0.00000000          1
H        12.37994246       2.39484222      10.35793246         0.00000000       0.00000000       0.00000000          1
H         9.79017633       1.52470366      10.94124856         0.00000000       0.00000000       0.00000000          1
H        10.89408803       3.66888507      12.35125509         0.00000000       0.00000000       0.00000000          1
H        10.31253837       2.83975009       8.53250271         0.00000000       0.00000000       0.00000000          1
6
pbc=[F, F, F] list_num_par=6 frozen=false iter=20000 energy=-1.26974174 Lattice="15.00000000 0.00000000 0.00000000 0.00000000 15.00000000 0.00000000 0.00000000 0.00000000 15.00000000" energy_frozen_part=0.00000000 Properties=species:S:1:pos:R:3:velocities:R:3:Z:I:1
H        11.41645263       4.98394182       9.94252349         0.00000000       0.00000000       0.00000000          1
H         8.82668917       4.11378288      10.52584177         0.00000000       0.00000000       0.00000000          1
H        12.37994917       2.39484969      10.35791948         0.00000000       0.00000000       0.00000000          1
H         9.79018958       1.52469407      10.94124455         0.00000000       0.00000000       0.00000000          1
H        10.89409983       3.66887499      12.35126076         0.00000000       0.00000000       0.00000000          1
H        10.31253864       2.83975366       8.53250513         0.00000000       0.00000000       0.00000000          1
6
pbc=[F, F, F] list_num_par=6 frozen=false iter=20000 energy=-1.26974174 Lattice="15.00000000 0.00000000 0.00000000 0.00000000 15.00000000 0.00000000 0.00000000 0.00000000 15.00000000" energy_frozen_part=0.00000000 Properties=species:S:1:pos:R:3:velocities:R:3:Z:I:1
H        11.38088266       4.97946218       9.93862557         0.00000000       0.00000000       0.00000000          1
H         8.80052759       4.10118449      10.55076283         0.00000000       0.00000000       0.00000000          1
H        12.35778020       2.39435649      10.34754584         0.00000000       0.00000000       0.00000000          1
H         9.77742365       1.51608304      10.95968195         0.00000000       0.00000000       0.00000000          1
H        10.88878728       3.66620412      12.35471760         0.00000000       0.00000000       0.00000000          1
H        10.26952452       2.82933844       8.54359285         0.00000000       0.00000000       0.00000000          1
6
pbc=[F, F, F] list_num_par=6 frozen=false iter=20000 energy=-1.26974174 Lattice="15.00000000 0.00000000 0.00000000 0.00000000 15.00000000 0.00000000 0.00000000 0.00000000 15.00000000" energy_frozen_part=0.00000000 Properties=species:S:1:pos:R:3:velocities:R:3:Z:I:1
H        11.41656838       4.98385950       9.94252460         0.00000000       0.00000000       0.00000000          1
H         8.82675774       4.11373501      10.52564376         0.00000000       0.00000000       0.00000000          1
H        12.38003416       2.39481340      10.35825273         0.00000000       0.00000000       0.00000000          1
H         9.79022319       1.52468262      10.94137400         0.00000000       0.00000000       0.00000000          1
H        10.89397308       3.66899183      12.35132785         0.00000000       0.00000000       0.00000000          1
H        10.31282007       2.83954762       8.53257335         0.00000000       0.00000000       0.00000000          1
6
pbc=[F, F, F] list_num_par=6 frozen=false iter=20000 energy=-1.26974174 Lattice="15.00000000 0.00000000 0.00000000 0.00000000 15.00000000 0.00000000 0.00000000 0.00000000 15.00000000" energy_frozen_part=0.00000000 Properties=species:S:1:pos:R:3:velocities:R:3:Z:I:1
H        11.41658380       4.98384841       9.94251159         0.00000000       0.00000000       0.00000000          1
H         8.82676952       4.11374041      10.52566310         0.00000000       0.00000000       0.00000000          1
H        12.38004850       2.39479693      10.35823632         0.00000000       0.00000000       0.00000000          1
H         9.79024150       1.52468910      10.94139003         0.00000000       0.00000000       0.00000000          1
H        10.89401377       3.66899565      12.35132081         0.00000000       0.00000000       0.00000000          1
H        10.31281163       2.83953763       8.53258365         0.00000000       0.00000000       0.00000000          1
6
pbc=[F, F, F] list_num_par=6 frozen=false iter=20000 energy=-1.26974174 Lattice="15.00000000 0.00000000 0.00000000 0.00000000 15.00000000 0.00000000 0.00000000 0.00000000 15.00000000" energy_frozen_part=0.00000000 Properties=species:S:1:pos:R:3:velocities:R:3:Z:I:1
H        11.38087202       4.97944183       9.93861686         0.00000000       0.00000000       0.00000000          1
H         8.80051422       4.10116924      10.55070812         0.00000000       0.00000000       0.00000000          1
H        12.35777928       2.39436361      10.34761497         0.00000000       0.00000000       0.00000000          1
H         9.77741861       1.51608233      10.95969502         0.00000000       0.00000000       0.00000000          1
H        10.88872348       3.66623934      12.35472403         0.00000000       0.00000000       0.00000000          1
H        10.26956110       2.82928832       8.54358911         0.00000000       0.00000000       0.00000000          1
6
pbc=[F, F, F] list_num_par=6 frozen=false iter=20000 energy=-1.26974174 Lattice="15.00000000 0.00000000 0.00000000 0.00000000 15.00000000 0.00000000 0.00000000 0.00000000 15.00000000" energy_frozen_part=0.00000000 Properties=species:S:1:pos:R:3:velocities:R:3:Z:I:1
H        11.41648669       4.98384470       9.94257424         0.00000000       0.00000000       0.00000000          1
H         8.82669767       4.11363940      10.52571133         0.00000000       0.00000000       0.00000000          1
H        12.38002919       2.39479857      10.35819945         0.00000000       0.00000000       0.00000000          1
H         9.79024028       1.52460244      10.94134220         0.00000000       0.00000000       0.00000000          1
H        10.89396381       3.66889455      12.35133830         0.00000000       0.00000000       0.00000000          1
H        10.31276667       2.83955192       8.53257846         0.00000000       0.00000000       0.00000000          1
6
pbc=[F, F, F] list_num_par=6 frozen=false iter=20000 energy=-1.26974174 Lattice="15.00000000 0.00000000 0.00000000 0.00000000 15.00000000 0.00000000 0.00000000 0.00000000 15.00000000" energy_frozen_part=0.00000000 Properties=species:S:1:pos:R:3:velocities:R:3:Z:I:1
H        11.41642107       4.98375730       9.94261172         0.00000000       0.00000000       0.00000000          1
H         8.82668584       4.11349893      10.52588791         0.00000000       0.00000000       0.00000000          1
H        12.38005412       2.39476879      10.35831431         0.00000000       0.00000000       0.00000000          1
H         9.79032169       1.52450812      10.94159483         0.00000000       0.00000000       0.00000000          1
H        10.89402765       3.66889145      12.35145405         0.00000000       0.00000000       0.00000000          1
H        10.31270706       2.83936571       8.53274514         0.00000000       0.00000000       0.00000000          1
6
pbc=[F, F, F] list_num_par=6 frozen=false iter=20000 energy=-1.26974174 Lattice="15.00000000 0.00000000 0.00000000 0.00000000 15.00000000 0.00000000 0.00000000 0.00000000 15.00000000" energy_frozen_part=0.00000000 Properties=species:S:1:pos:R:3:velocities:R:3:Z:I:1
H        11.41641508       4.98391894       9.94254350         0.00000000       0.00000000       0.00000000          1
H         8.82665402       4.11374495      10.52581393         0.00000000       0.00000000       0.00000000          1
H        12.37992305       2.39483772      10.35796322         0.00000000       0.00000000       0.00000000          1
H         9.79016037       1.52465921      10.94122119         0.00000000       0.00000000       0.00000000          1
H        10.89402201       3.66884775      12.35127150         0.00000000       0.00000000       0.00000000          1
H        10.31254816       2.83973886       8.53249614         0.00000000       0.00000000       0.00000000          1
6
pbc=[F, F, F] list_num_par=6 frozen=false iter=20000 energy=-1.26974174 Lattice="15.00000000 0.00000000 0.00000000 0.00000000 15.00000000 0.00000000 0.00000000 0.00000000 15.00000000" energy_frozen_part=0.00000000 Properties=species:S:1:pos:R:3:velocities:R:3:Z:I:1
H        11.41642772       4.98375849       9.94261508         0.00000000       0.00000000       0.00000000          1
H         8.82669296       4.11350553      10.52590151         0.00000000       0.00000000       0.00000000          1
H        12.38005412       2.39475893      10.35832517         0.00000000       0.00000000       0.00000000          1
H         9.79031999       1.52451181      10.94161083         0.00000000       0.00000000       0.00000000          1
H        10.89403459       3.66889647      12.35146319         0.00000000       0.00000000       0.00000000          1
H        10.31270823       2.83936295       8.53276213         0.00000000       0.00000000       0.00000000          1
6
pbc=[F, F, F] list_num_par=6 frozen=false iter=20000 energy=-1.26974174 Lattice="15.00000000 0.00000000 0.00000000 0.00000000 15.00000000 0.00000000 0.00000000 0.00000000 15.00000000" energy_frozen_part=0.00000000 Properties=species:S:1:pos:R:3:velocities:R:3:Z:I:1
H        11.38091724       4.97945681       9.93869451         0.00000000       0.00000000       0.00000000          1
H         8.80055927       4.10117658      10.55077875         0.00000000       0.00000000       0.00000000          1
H        12.35781084       2.39435683      10.34759599         0.00000000       0.00000000       0.00000000          1
H         9.77745074       1.51607271      10.95968776         0.00000000       0.00000000       0.00000000          1
H        10.88879343       3.66618243      12.35476887         0.00000000       0.00000000       0.00000000          1
H        10.26957886       2.82935274       8.54361553         0.00000000       0.00000000       0.00000000          1
6
pbc=[F, F, F] list_num_par=6 frozen=false iter=20000 energy=-1.26974174 Lattice="15.00000000 0.00000000 0.00000000 0.00000000 15.00000000 0.00000000 0.00000000 0.00000000 15.00000000" energy_frozen_part=0.00000000 Properties=species:S:1:pos:R:3:velocities:R:3:Z:I:1
H        11.38085669       4.97946097       9.93861758         0.00000000       0.00000000       0.00000000          1
H         8.80050113       4.10117366      10.55070639         0.00000000       0.00000000       0.00000000          1
H        12.35776820       2.39437208      10.34756572         0.00000000       0.00000000       0.00000000          1
H         9.77740546       1.51607759      10.95964889         0.00000000       0.00000000       0.00000000          1
H        10.88872342       3.66620729      12.35470773         0.00000000       0.00000000       0.00000000          1
H        10.26953836       2.82932864       8.54356674         0.00000000       0.00000000       0.00000000          1
6
pbc=[F, F, F] list_num_par=6 frozen=false iter=20000 energy=-1.26974174 Lattice="15.00000000 0.00000000 0.00000000 0.00000000 15.00000000 0.00000000 0.00000000 0.00000000 15.00000000" energy_frozen_part=0.00000000 Properties=species:S:1:pos:R:3:velocities:R:3:Z:I:1
H        11.38089725       4.97949077       9.93870650         0.00000000       0.00000000       0.00000000          1
H         8.80053886       4.10117623      10.55078127         0.00000000       0.00000000       0.00000000          1
H        12.35781150       2.39439835      10.34760550         0.00000000       0.00000000       0.00000000          1
H         9.77746082       1.51608038      10.95967563         0.00000000       0.00000000       0.00000000          1
H        10.88876462       3.66619908      12.35476585         0.00000000       0.00000000       0.00000000          1
H        10.26958227       2.82937900       8.54361151         0.00000000       0.00000000       0.00000000          1
6
pbc=[F, F, F] list_num_par=6 frozen=false iter=20000 energy=-1.26974174 Lattice="15.00000000 0.00000000 0.00000000 0.00000000 15.00000000 0.00000000 0.00000000 0.00000000 15.00000000" energy_frozen_part=0.00000000 Properties=species:S:1:pos:R:3:velocities:R:3:Z:I:1
H        11.38086829       4.97946860       9.93861986         0.00000000       0.00000000       0.00000000          1
H         8.80051766       4.10116289      10.55073451         0.00000000       0.00000000       0.00000000          1
H        12.35779505       2.39439003      10.34757429         0.00000000       0.00000000       0.00000000          1
H         9.77744983       1.51608859      10.95969274         0.00000000       0.00000000       0.00000000          1
H        10.88876443       3.66623913      12.35471801         0.00000000       0.00000000       0.00000000          1
H        10.26955285       2.82932145       8.54358848         0.00000000       0.00000000       0.00000000          1
6
pbc=[F, F, F] list_num_par=6 frozen=false iter=20000 energy=-1.26974174 Lattice="15.00000000 0.00000000 0.00000000 0.00000000 15.00000000 0.00000000 0.00000000 0.00000000 15.00000000" energy_frozen_part=0.00000000 Properties=species:S:1:pos:R:3:velocities:R:3:Z:I:1
H        11.38087937       4.97944492       9.93861413         0.00000000       0.00000000       0.00000000          1
H         8.80052349       4.10116709      10.55071626         0.00000000       0.00000000       0.00000000          1
H        12.35777672       2.39435248      10.34756433         0.00000000       0.00000000       0.00000000          1
H         9.77741772       1.51607769      10.95967980         0.00000000       0.00000000       0.00000000          1
H        10.88875332       3.66621307      12.35470839         0.00000000       0.00000000       0.00000000          1
H        10.26954696       2.82930573       8.54357859         0.00000000       0.00000000       0.00000000          1
6
pbc=[F, F, F] list_num_par=6 frozen=false iter=20000 energy=-1.26974174 Lattice="15.00000000 0.00000000 0.00000000 0.00000000 15.00000000 0.00000000 0.00000000 0.00000000 15.00000000" energy_frozen_part=0.00000000 Properties=species:S:1:pos:R:3:velocities:R:3:Z:I:1
H        11.38086184       4.97944511       9.93860809         0.00000000       0.00000000       0.00000000          1
H         8.80050337       4.10116607      10.55073116         0.00000000       0.00000000       0.00000000          1
H        12.35776537       2.39435563      10.34755841         0.00000000       0.00000000       0.00000000          1
H         9.77741659       1.51607680      10.95967901         0.00000000       0.00000000       0.00000000          1
H        10.88874639       3.66621274      12.35470858         0.00000000       0.00000000       0.00000000          1
H        10.26951950       2.82930900       8.54358155         0.00000000       0.00000000       0.00000000          1
6
pbc=[F, F, F] list_num_par=6 frozen=false iter=20000 energy=-1.26974174 Lattice="15.00000000 0.00000000 0.00000000 0.00000000 15.00000000 0.00000000 0.00000000 0.00000000 15.00000000" energy_frozen_part=0.00000000 Properties=species:S:1:pos:R:3:velocities:R:3:Z:I:1
H        11.38086518       4.97945383       9.93861619         0.00000000       0.00000000       0.00000000          1
H         8.80050978       4.10116667      10.55072112         0.00000000       0.00000000       0.00000000          1
H        12.35777410       2.39436643      10.34760523         0.00000000       0.00000000       0.00000000          1
H         9.77741419       1.51607831      10.95970637         0.00000000       0.00000000       0.00000000          1
H        10.88873513       3.66623652      12.35472301         0.00000000       0.00000000       0.00000000          1
H        10.26954411       2.82928865       8.54360199         0.00000000       0.00000000       0.00000000          1
6
pbc=[F, F, F] list_num_par=6 frozen=false iter=20000 energy=-1.26974174 Lattice="15.00000000 0.00000000 0.00000000 0.00000000 15.00000000 0.00000000 0.00000000 0.00000000 15.00000000" energy_frozen_part=0.00000000 Properties=species:S:1:pos:R:3:velocities:R:3:Z:I:1
H        11.41650597       4.98383076       9.94257756         0.00000000       0.00000000       0.00000000          1
H         8.82670531       4.11365843      10.52570653         0.00000000       0.00000000       0.00000000          1
H        12.38001398       2.39478896      10.35823498         0.00000000       0.00000000       0.00000000          1
H         9.79021870       1.52461824      10.94136332         0.00000000       0.00000000       0.00000000          1
H        10.89395035       3.66891305      12.35135223         0.00000000       0.00000000       0.00000000          1
H        10.31277049       2.83954663       8.53259019         0.00000000       0.00000000       0.00000000          1
6
pbc=[F, F, F] list_num_par=6 frozen=false iter=20000 energy=-1.26974174 Lattice="15.00000000 0.00000000 0.00000000 0.00000000 15.00000000 0.00000000 0.00000000 0.00000000 15.00000000" energy_frozen_part=0.00000000 Properties=species:S:1:pos:R:3:velocities:R:3:Z:I:1
H        11.38092035       4.97949631       9.93870968         0.00000000       0.00000000       0.00000000          1
H         8.80055216       4.10118900      10.55073370         0.00000000       0.00000000       0.00000000          1
H        12.35783189       2.39439781      10.34763282         0.00000000       0.00000000       0.00000000          1
H         9.77746328       1.51609563      10.95966175         0.00000000       0.00000000       0.00000000          1
H        10.88875028       3.66620847      12.35476930         0.00000000       0.00000000       0.00000000          1
H        10.26963528       2.82937918       8.54360010         0.00000000       0.00000000       0.00000000          1
6
pbc=[F, F, F] list_num_par=6 frozen=false iter=20000 energy=-1.26974174 Lattice="15.00000000 0.00000000 0.00000000 0.00000000 15.00000000 0.00000000 0.00000000 0.00000000 15.00000000" energy_frozen_part=0.00000000 Properties=species:S:1:pos:R:3:velocities:R:3:Z:I:1
H        11.38084251       4.97945589       9.93861232         0.00000000       0.00000000       0.00000000          1
H         8.80049828       4.10115746      10.55071816         0.00000000       0.00000000       0.00000000          1
H        12.35776855       2.39437347      10.34758489         0.00000000       0.00000000       0.00000000          1
H         9.77741531       1.51607740      10.95968737         0.00000000       0.00000000       0.00000000          1
H        10.88873111       3.66622611      12.35472042         0.00000000       0.00000000       0.00000000          1
H        10.26953503       2.82929468       8.54358522         0.00000000       0.00000000       0.00000000          1
6
pbc=[F, F, F] list_num_par=6 frozen=false iter=20000 energy=-1.26974174 Lattice="15.00000000 0.00000000 0.00000000 0.00000000 15.00000000 0.00000000 0.00000000 0.00000000 15.00000000" energy_frozen_part=0.00000000 Properties=species:S:1:pos:R:3:velocities:R:3:Z:I:1
H        11.41655255       4.98392891       9.94243273         0.00000000       0.00000000       0.00000000          1
H         8.82678373       4.11377367      10.52570288         0.00000000       0.00000000       0.00000000          1
H        12.38008804       2.39491842      10.35822929         0.00000000       0.00000000       0.00000000          1
H         9.79031805       1.52476316      10.94149950         0.00000000       0.00000000       0.00000000          1
H        10.89408589       3.66916133      12.35131131         0.00000000       0.00000000       0.00000000          1
H        10.31278551       2.83953808       8.53261693         0.00000000       0.00000000       0.00000000          1
6
pbc=[F, F, F] list_num_par=6 frozen=false iter=20000 energy=-1.26974174 Lattice="15.00000000 0.00000000 0.00000000 0.00000000 15.00000000 0.00000000 0.00000000 0.00000000 15.00000000" energy_frozen_part=0.00000000 Properties=species:S:1:pos:R:3:velocities:R:3:Z:I:1
H        11.38088176       4.97945281       9.93862048         0.00000000       0.00000000       0.00000000          1
H         8.80052550       4.10117377      10.55072093         0.00000000       0.00000000       0.00000000          1
H        12.35778389       2.39435902      10.34757852         0.00000000       0.00000000       0.00000000          1
H         9.77742514       1.51608151      10.95966751         0.00000000       0.00000000       0.00000000          1
H        10.88875232       3.66622188      12.35471629         0.00000000       0.00000000       0.00000000          1
H        10.26955309       2.82932005       8.54357328         0.00000000       0.00000000       0.00000000          1
6
pbc=[F, F, F] list_num_par=6 frozen=false iter=20000 energy=-1.26974174 Lattice="15.00000000 0.00000000 0.00000000 0.00000000 15.00000000 0.00000000 0.00000000 0.00000000 15.00000000" energy_frozen_part=0.00000000 Properties=species:S:1:pos:R:3:velocities:R:3:Z:I:1
H        11.38087116       4.97946085       9.93858689         0.00000000       0.00000000       0.00000000          1
H         8.80051779       4.10117571      10.55069890         0.00000000       0.00000000       0.00000000          1
H        12.35778849       2.39438521      10.34759046         0.00000000       0.00000000       0.00000000          1
H         9.77743305       1.51609699      10.95970794         0.00000000       0.00000000       0.00000000          1
H        10.88874259       3.66626508      12.35470443         0.00000000       0.00000000       0.00000000          1
H        10.26955829       2.82929116       8.54358641         0.00000000       0.00000000       0.00000000          1
6
pbc=[F, F, F] list_num_par=6 frozen=false iter=20000 energy=-1.26974174 Lattice="15.00000000 0.00000000 0.00000000 0.00000000 15.00000000 0.00000000 0.00000000 0.00000000 15.00000000" energy_frozen_part=0.00000000 Properties=species:S:1:pos:R:3:velocities:R:3:Z:I:1
H        11.41641033       4.98375784       9.94260947         0.00000000       0.00000000       0.00000000          1
H         8.82667769       4.11349866      10.52589103         0.00000000       0.00000000       0.00000000          1
H        12.38005976       2.39476545      10.35830357         0.00000000       0.00000000       0.00000000          1
H         9.79032326       1.52450707      10.94158988         0.00000000       0.00000000       0.00000000          1
H        10.89403867       3.66889308      12.35145157         0.00000000       0.00000000       0.00000000          1
H        10.31270446       2.83937038       8.53274605         0.00000000       0.00000000       0.00000000          1
6
pbc=[F, F, F] list_num_par=6 frozen=false iter=20000 energy=-1.26974174 Lattice="15.00000000 0.00000000 0.00000000 0.00000000 15.00000000 0.00000000 0.00000000 0.00000000 15.00000000" energy_frozen_part=0.00000000 Properties=species:S:1:pos:R:3:velocities:R:3:Z:I:1
H        11.38088199       4.97944711       9.93862553         0.00000000       0.00000000       0.00000000          1
H         8.80052542       4.10118152      10.55071664         0.00000000       0.00000000       0.00000000          1
H        12.35777412       2.39435332      10.34760003         0.00000000       0.00000000       0.00000000          1
H         9.77740722       1.51608565      10.95969777         0.00000000       0.00000000       0.00000000          1
H        10.88874056       3.66623024      12.35472775         0.00000000       0.00000000       0.00000000          1
H        10.26954988       2.82929655       8.54359464         0.00000000       0.00000000       0.00000000          1
6
pbc=[F, F, F] list_num_par=6 frozen=false iter=20000 energy=-1.26974174 Lattice="15.00000000 0.00000000 0.00000000 0.00000000 15.00000000 0.00000000 0.00000000 0.00000000 15.00000000" energy_frozen_part=0.00000000 Properties=species:S:1:pos:R:3:velocities:R:3:Z:I:1
H        11.41645901       4.98392827       9.94257280         0.00000000       0.00000000       0.00000000          1
H         8.82668176       4.11375469      10.52577191         0.00000000       0.00000000       0.00000000          1
H        12.37994569       2.39482371      10.35796754         0.00000000       0.00000000       0.00000000          1
H         9.79016399       1.52465989      10.94116891         0.00000000       0.00000000       0.00000000          1
H        10.89401496       3.66881617      12.35126771         0.00000000       0.00000000       0.00000000          1
H        10.31261029       2.83976989       8.53246638         0.00000000       0.00000000       0.00000000          1
6
pbc=[F, F, F] list_num_par=6 frozen=false iter=20000 energy=-1.26974174 Lattice="15.00000000 0.00000000 0.00000000 0.00000000 15.00000000 0.00000000 0.00000000 0.00000000 15.00000000" energy_frozen_part=0.00000000 Properties=species:S:1:pos:R:3:velocities:R:3:Z:I:1
H        11.41641594       4.98375155       9.94261679         0.00000000       0.00000000       0.00000000          1
H         8.82667652       4.11349390      10.52589972         0.00000000       0.00000000       0.00000000          1
H        12.38005255       2.39475949      10.35833691         0.00000000       0.00000000       0.00000000          1
H         9.79031550       1.52450296      10.94160650         0.00000000       0.00000000       0.00000000          1
H        10.89401685       3.66889794      12.35146595         0.00000000       0.00000000       0.00000000          1
H        10.31270856       2.83936117       8.53276041         0.00000000       0.00000000       0.00000000          1
6
pbc=[F, F, F] list_num_par=6 frozen=false iter=20000 energy=-1.26974174 Lattice="15.00000000 0.00000000 0.00000000 0.00000000 15.00000000 0.00000000 0.00000000 0.00000000 15.00000000" energy_frozen_part=0.00000000 Properties=species:S:1:pos:R:3:velocities:R:3:Z:I:1
H        11.41643096       4.98372360       9.94263656         0.00000000       0.00000000       0.00000000          1
H         8.82668322       4.11349630      10.52592450         0.00000000       0.00000000       0.00000000          1
H        12.38003151       2.39472070      10.35833198         0.00000000       0.00000000       0.00000000          1
H         9.79028872       1.52449499      10.94161618         0.00000000       0.00000000       0.00000000          1
H        10.89402556       3.66886293      12.35148093         0.00000000       0.00000000       0.00000000          1
H        10.31268458       2.83936081       8.53277483         0.00000000       0.00000000       0.00000000          1
6
pbc=[F, F, F] list_num_par=6 frozen=false iter=20000 energy=-1.26974174 Lattice="15.00000000 0.00000000 0.00000000 0.00000000 15.00000000 0.00000000 0.00000000 0.00000000 15.00000000" energy_frozen_part=0.00000000 Properties=species:S:1:pos:R:3:velocities:R:3:Z:I:1
H        11.38083235       4.97945617       9.93860970         0.00000000       0.00000000       0.00000000          1
H         8.80048843       4.10115360      10.55074345         0.00000000       0.00000000       0.00000000          1
H        12.35776059       2.39437690      10.34757403         0.00000000       0.00000000       0.00000000          1
H         9.77742204       1.51606965      10.95969507         0.00000000       0.00000000       0.00000000          1
H        10.88873677       3.66623497      12.35471788         0.00000000       0.00000000       0.00000000          1
H        10.26950667       2.82930059       8.54359145         0.00000000       0.00000000       0.00000000          1
6
pbc=[F, F, F] list_num_par=6 frozen=false iter=20000 energy=-1.26974174 Lattice="15.00000000 0.00000000 0.00000000 0.00000000 15.00000000 0.00000000 0.00000000 0.00000000 15.00000000" energy_frozen_part=0.00000000 Properties=species:S:1:pos:R:3:velocities:R:3:Z:I:1
H        11.38086595       4.97945383       9.93860857         0.00000000       0.00000000       0.00000000          1
H         8.80050646       4.10117433      10.55070622         0.00000000       0.00000000       0.00000000          1
H        12.35777570       2.39436726      10.34760031         0.00000000       0.00000000       0.00000000          1
H         9.77742140       1.51608764      10.95969877         0.00000000       0.00000000       0.00000000          1
H        10.88873461       3.66624993      12.35471458         0.00000000       0.00000000       0.00000000          1
H        10.26955596       2.82928715       8.54359064         0.00000000       0.00000000       0.00000000          1
6
pbc=[F, F, F] list_num_par=6 frozen=false iter=20000 energy=-1.26974174 Lattice="15.00000000 0.00000000 0.00000000 0.00000000 15.00000000 0.00000000 0.00000000 0.00000000 15.00000000" energy_frozen_part=0.00000000 Properties=species:S:1:pos:R:3:velocities:R:3:Z:I:1
H        11.41641831       4.98373544       9.94263775         0.00000000       0.00000000       0.00000000          1
H         8.82667767       4.11349276      10.52591100         0.00000000       0.00000000       0.00000000          1
H        12.38002938       2.39472628      10.35833534         0.00000000       0.00000000       0.00000000          1
H         9.79028239       1.52448999      10.94161126         0.00000000       0.00000000       0.00000000          1
H        10.89401612       3.66886551      12.35147879         0.00000000       0.00000000       0.00000000          1
H        10.31269439       2.83935448       8.53277176         0.00000000       0.00000000       0.00000000          1
6
pbc=[F, F, F] list_num_par=6 frozen=false iter=20000 energy=-1.26974174 Lattice="15.00000000 0.00000000 0.00000000 0.00000000 15.00000000 0.00000000 0.00000000 0.00000000 15.00000000" energy_frozen_part=0.00000000 Properties=species:S:1:pos:R:3:velocities:R:3:Z:I:1
H        11.41657094       4.98385182       9.94251450         0.00000000       0.00000000       0.00000000          1
H         8.82675212       4.11374388      10.52563439         0.00000000       0.00000000       0.00000000          1
H        12.38003746       2.39480383      10.35826768         0.00000000       0.00000000       0.00000000          1
H         9.79021529       1.52469556      10.94138222         0.00000000       0.00000000       0.00000000          1
H        10.89396348       3.66901418      12.35132579         0.00000000       0.00000000       0.00000000          1
H        10.31282560       2.83952814       8.53257820         0.00000000       0.00000000       0.00000000          1
6
pbc=[F, F, F] list_num_par=6 frozen=false iter=20000 energy=-1.26974174 Lattice="15.00000000 0.00000000 0.00000000 0.00000000 15.00000000 0.00000000 0.00000000 0.00000000 15.00000000" energy_frozen_part=0.00000000 Properties=species:S:1:pos:R:3:velocities:R:3:Z:I:1
H        11.41645675       4.98393183       9.94251924         0.00000000       0.00000000       0.00000000          1
H         8.82669784       4.11379318      10.52583814         0.00000000       0.00000000       0.00000000          1
H        12.37994807       2.39484500      10.35793530         0.00000000       0.00000000       0.00000000          1
H         9.79018555       1.52470381      10.94125745         0.00000000       0.00000000       0.00000000          1
H        10.89410331       3.66888798      12.35126859         0.00000000       0.00000000       0.00000000          1
H        10.31254809       2.83975042       8.53250585         0.00000000       0.00000000       0.00000000          1
6
pbc=[F, F, F] list_num_par=6 frozen=false iter=20000 energy=-1.26974174 Lattice="15.00000000 0.00000000 0.00000000 0.00000000 15.00000000 0.00000000 0.00000000 0.00000000 15.00000000" energy_frozen_part=0.00000000 Properties=species:S:1:pos:R:3:velocities:R:3:Z:I:1
H        11.41654716       4.98393260       9.94243834         0.00000000       0.00000000       0.00000000          1
H         8.82677472       4.11377984      10.52570551         0.00000000       0.00000000       0.00000000          1
H        12.38008703       2.39491890      10.35823686         0.00000000       0.00000000       0.00000000          1
H         9.79031556       1.52476857      10.94150032         0.00000000       0.00000000       0.00000000          1
H        10.89407658       3.66916490      12.35131273         0.00000000       0.00000000       0.00000000          1
H        10.31278144       2.83954280       8.53261869         0.00000000       0.00000000       0.00000000          1
6
pbc=[F, F, F] list_num_par=6 frozen=false iter=20000 energy=-1.26974174 Lattice="15.00000000 0.00000000 0.00000000 0.00000000 15.00000000 0.00000000 0.00000000 0.00000000 15.00000000" energy_frozen_part=0.00000000 Properties=species:S:1:pos:R:3:velocities:R:3:Z:I:1
H        11.38090250       4.97949255       9.93861367         0.00000000       0.00000000       0.00000000          1
H         8.80054182       4.10123785      10.55071417         0.00000000       0.00000000       0.00000000          1
H        12.35777488       2.39439326      10.34758893         0.00000000       0.00000000       0.00000000          1
H         9.77741097       1.51613747      10.95969126         0.00000000       0.00000000       0.00000000          1
H        10.88875302       3.66627848      12.35471834         0.00000000       0.00000000       0.00000000          1
H        10.26955912       2.82935347       8.54358483         0.00000000       0.00000000       0.00000000          1
6
pbc=[F, F, F] list_num_par=6 frozen=false iter=20000 energy=-1.26974174 Lattice="15.00000000 0.00000000 0.00000000 0.00000000 15.00000000 0.00000000 0.00000000 0.00000000 15.00000000" energy_frozen_part=0.00000000 Properties=species:S:1:pos:R:3:velocities:R:3:Z:I:1
H        11.38028420       4.97966897       9.93911170         0.00000000       0.00000000       0.00000000          1
H         8.80009959       4.10063361      10.55083446         0.00000000       0.00000000       0.00000000          1
H        12.35774547       2.39466714      10.34731624         0.00000000       0.00000000       0.00000000          1
H         9.77755611       1.51563192      10.95904124         0.00000000       0.00000000       0.00000000          1
H        10.88835447       3.66559180      12.35478168         0.00000000       0.00000000       0.00000000          1
H        10.26950147       2.82970977       8.54336697         0.00000000       0.00000000       0.00000000          1
6
pbc=[F, F, F] list_num_par=6 frozen=false iter=20000 energy=-1.26974174 Lattice="15.00000000 0.00000000 0.00000000 0.00000000 15.00000000 0.00000000 0.00000000 0.00000000 15.00000000" energy_frozen_part=0.00000000 Properties=species:S:1:pos:R:3:velocities:R:3:Z:I:1
H        11.41644400       4.98393539       9.94253503         0.00000000       0.00000000       0.00000000          1
H         8.82667310       4.11376796      10.52581986         0.00000000       0.00000000       0.00000000          1
H        12.37994253       2.39484724      10.35796239         0.00000000       0.00000000       0.00000000          1
H         9.79017892       1.52468363      10.94124108         0.00000000       0.00000000       0.00000000          1
H        10.89405592       3.66887395      12.35127340         0.00000000       0.00000000       0.00000000          1
H        10.31256180       2.83974456       8.53250223         0.00000000       0.00000000       0.00000000          1
6
pbc=[F, F, F] list_num_par=6 frozen=false iter=20000 energy=-1.26974174 Lattice="15.00000000 0.00000000 0.00000000 0.00000000 15.00000000 0.00000000 0.00000000 0.00000000 15.00000000" energy_frozen_part=0.00000000 Properties=species:S:1:pos:R:3:velocities:R:3:Z:I:1
H        11.41642238       4.98375582       9.94264258         0.00000000       0.00000000       0.00000000          1
H         8.82668406       4.11350234      10.52589297         0.00000000       0.00000000       0.00000000          1
H        12.38004445       2.39474860      10.35831630         0.00000000       0.00000000       0.00000000          1
H         9.79030549       1.52450279      10.94157100         0.00000000       0.00000000       0.00000000          1
H        10.89402373       3.66886186      12.35146308         0.00000000       0.00000000       0.00000000          1
H        10.31271295       2.83939167       8.53274291         0.00000000       0.00000000       0.00000000          1
6
pbc=[F, F, F] list_num_par=6 frozen=false iter=20000 energy=-1.26974174 Lattice="15.00000000 0.00000000 0.00000000 0.00000000 15.00000000 0.00000000 0.00000000 0.00000000 15.00000000" energy_frozen_part=0.00000000 Properties=species:S:1:pos:R:3:velocities:R:3:Z:I:1
H        11.38029232       4.97966054       9.93910559         0.00000000       0.00000000       0.00000000          1
H         8.80009586       4.10062820      10.55082436         0.00000000       0.00000000       0.00000000          1
H        12.35774251       2.39465693      10.34731368         0.00000000       0.00000000       0.00000000          1
H         9.77755436       1.51562723      10.95904335         0.00000000       0.00000000       0.00000000          1
H        10.88834756       3.66558355      12.35477900         0.00000000       0.00000000       0.00000000          1
H        10.26948892       2.82970089       8.54336442         0.00000000       0.00000000       0.00000000          1
6
pbc=[F, F, F] list_num_par=6 frozen=false iter=20000 energy=-1.26974174 Lattice="15.00000000 0.00000000 0.00000000 0.00000000 15.00000000 0.00000000 0.00000000 0.00000000 15.00000000" energy_frozen_part=0.00000000 Properties=species:S:1:pos:R:3:velocities:R:3:Z:I:1
H        11.41640431       4.98392874       9.94254153         0.00000000       0.00000000       0.00000000          1
H         8.82664598       4.11374173      10.52579241         0.00000000       0.00000000       0.00000000          1
H        12.37992300       2.39484846      10.35795976         0.00000000       0.00000000       0.00000000          1
H         9.79016226       1.52466247      10.94121610         0.00000000       0.00000000       0.00000000          1
H        10.89401089       3.66885720      12.35126522         0.00000000       0.00000000       0.00000000          1
H        10.31255902       2.83974036       8.53248352         0.00000000       0.00000000       0.00000000          1
6
pbc=[F, F, F] list_num_par=6 frozen=false iter=20000 energy=-1.26974174 Lattice="15.00000000 0.00000000 0.00000000 0.00000000 15.00000000 0.00000000 0.00000000 0.00000000 15.00000000" energy_frozen_part=0.00000000 Properties=species:S:1:pos:R:3:velocities:R:3:Z:I:1
H        11.38086855       4.97946380       9.93861624         0.00000000       0.00000000       0.00000000          1
H         8.80051423       4.10118010      10.55071919         0.00000000       0.00000000       0.00000000          1
H        12.35776912       2.39436851      10.34756231         0.00000000       0.00000000       0.00000000          1
H         9.77741303       1.51609025      10.95965946         0.00000000       0.00000000       0.00000000          1
H        10.88875071       3.66622107      12.35470449         0.00000000       0.00000000       0.00000000          1
H        10.26953814       2.82933417       8.54357115         0.00000000       0.00000000       0.00000000          1
6
pbc=[F, F, F] list_num_par=6 frozen=false iter=20000 energy=-1.26974174 Lattice="15.00000000 0.00000000 0.00000000 0.00000000 15.00000000 0.00000000 0.00000000 0.00000000 15.00000000" energy_frozen_part=0.00000000 Properties=species:S:1:pos:R:3:velocities:R:3:Z:I:1
H        11.38084855       4.97945386       9.93860780         0.00000000       0.00000000       0.00000000          1
H         8.80049776       4.10116919      10.55071881         0.00000000       0.00000000       0.00000000          1
H        12.35775976       2.39436749      10.34757620         0.00000000       0.00000000       0.00000000          1
H         9.77740293       1.51608251      10.95968462         0.00000000       0.00000000       0.00000000          1
H        10.88872806       3.66623316      12.35471085         0.00000000       0.00000000       0.00000000          1
H        10.26953204       2.82930704       8.54358491         0.00000000       0.00000000       0.00000000          1
6
pbc=[F, F, F] list_num_par=6 frozen=false iter=20000 energy=-1.26974174 Lattice="15.00000000 0.00000000 0.00000000 0.00000000 15.00000000 0.00000000 0.00000000 0.00000000 15.00000000" energy_frozen_part=0.00000000 Properties=species:S:1:pos:R:3:velocities:R:3:Z:I:1
H        11.41641919       4.98375356       9.94261959         0.00000000       0.00000000       0.00000000          1
H         8.82668299       4.11350170      10.52590425         0.00000000       0.00000000       0.00000000          1
H        12.38005637       2.39475893      10.35833161         0.00000000       0.00000000       0.00000000          1
H         9.79031993       1.52450480      10.94160464         0.00000000       0.00000000       0.00000000          1
H        10.89403137       3.66889615      12.35146794         0.00000000       0.00000000       0.00000000          1
H        10.31270498       2.83936276       8.53276457         0.00000000       0.00000000       0.00000000          1
6
pbc=[F, F, F] list_num_par=6 frozen=false iter=20000 energy=-1.26974174 Lattice="15.00000000 0.00000000 0.00000000 0.00000000 15.00000000 0.00000000 0.00000000 0.00000000 15.00000000" energy_frozen_part=0.00000000 Properties=species:S:1:pos:R:3:velocities:R:3:Z:I:1
H        11.41649443       4.98383923       9.94257449         0.00000000       0.00000000       0.00000000          1
H         8.82670549       4.11364335      10.52571278         0.00000000       0.00000000       0.00000000          1
H        12.38002898       2.39480354      10.35820765         0.00000000       0.00000000       0.00000000          1
H         9.79024458       1.52460345      10.94133781         0.00000000       0.00000000       0.00000000          1
H        10.89396131       3.66889112      12.35134674         0.00000000       0.00000000       0.00000000          1
H        10.31277481       2.83955122       8.53257492         0.00000000       0.00000000       0.00000000          1
6
pbc=[F, F, F] list_num_par=6 frozen=false iter=20000 energy=-1.26974174 Lattice="15.00000000 0.00000000 0.00000000 0.00000000 15.00000000 0.00000000 0.00000000 0.00000000 15.00000000" energy_frozen_part=0.00000000 Properties=species:S:1:pos:R:3:velocities:R:3:Z:I:1
H        11.38089556       4.97949692       9.93871526         0.00000000       0.00000000       0.00000000          1
H         8.80054242       4.10118870      10.55077735         0.00000000       0.00000000       0.00000000          1
H        12.35781108       2.39440035      10.34760936         0.00000000       0.00000000       0.00000000          1
H         9.77745172       1.51609355      10.95967649         0.00000000       0.00000000       0.00000000          1
H        10.88876051       3.66620362      12.35477083         0.00000000       0.00000000       0.00000000          1
H        10.26959090       2.82938799       8.54361856         0.00000000       0.00000000       0.00000000          1
6
pbc=[F, F, F] list_num_par=6 frozen=false iter=20000 energy=-1.26974174 Lattice="15.00000000 0.00000000 0.00000000 0.00000000 15.00000000 0.00000000 0.00000000 0.00000000 15.00000000" energy_frozen_part=0.00000000 Properties=species:S:1:pos:R:3:velocities:R:3:Z:I:1
H        11.38086242       4.97944915       9.93861891         0.00000000       0.00000000       0.00000000          1
H         8.80051470       4.10116996      10.55073346         0.00000000       0.00000000       0.00000000          1
H        12.35777452       2.39436764      10.34759844         0.00000000       0.00000000       0.00000000          1
H         9.77742186       1.51608105      10.95970917         0.00000000       0.00000000       0.00000000          1
H        10.88874381       3.66623750      12.35472670         0.00000000       0.00000000       0.00000000          1
H        10.26953458       2.82929610       8.54360053         0.00000000       0.00000000       0.00000000          1
6
pbc=[F, F, F] list_num_par=6 frozen=false iter=20000 energy=-1.26974174 Lattice="15.00000000 0.00000000 0.00000000 0.00000000 15.00000000 0.00000000 0.00000000 0.00000000 15.00000000" energy_frozen_part=0.00000000 Properties=species:S:1:pos:R:3:velocities:R:3:Z:I:1
H        11.41649591       4.98384290       9.94256819         0.00000000       0.00000000       0.00000000          1
H         8.82670420       4.11367442      10.52572051         0.00000000       0.00000000       0.00000000          1
H        12.38001404       2.39480003      10.35822392         0.00000000       0.00000000       0.00000000          1
H         9.79022368       1.52462831      10.94137768         0.00000000       0.00000000       0.00000000          1
H        10.89396077       3.66892072      12.35135548         0.00000000       0.00000000       0.00000000          1
H        10.31275367       2.83954331       8.53259310         0.00000000       0.00000000       0.00000000          1
6
pbc=[F, F, F] list_num_par=6 frozen=false iter=20000 energy=-1.26974174 Lattice="15.00000000 0.00000000 0.00000000 0.00000000 15.00000000 0.00000000 0.00000000 0.00000000 15.00000000" energy_frozen_part=0.00000000 Properties=species:S:1:pos:R:3:velocities:R:3:Z:I:1
H        11.41645169       4.98393795       9.94252571         0.00000000       0.00000000       0.00000000          1
H         8.82669704       4.11377143      10.52584275         0.00000000       0.00000000       0.00000000          1
H        12.37995332       2.39485073      10.35793845         0.00000000       0.00000000       0.00000000          1
H         9.79019460       1.52468231      10.94124634         0.00000000       0.00000000       0.00000000          1
H        10.89410131       3.66887348      12.35127044         0.00000000       0.00000000       0.00000000          1
H        10.31255089       2.83974797       8.53250568         0.00000000       0.00000000       0.00000000          1
6
pbc=[F, F, F] list_num_par=6 frozen=false iter=20000 energy=-1.26974174 Lattice="15.00000000 0.00000000 0.00000000 0.00000000 15.00000000 0.00000000 0.00000000 0.00000000 15.00000000" energy_frozen_part=0.00000000 Properties=species:S:1:pos:R:3:velocities:R:3:Z:I:1
H        11.41642641       4.98374952       9.94264924         0.00000000       0.00000000       0.00000000          1
H         8.82669125       4.11349927      10.52592408         0.00000000       0.00000000       0.00000000          1
H        12.38005134       2.39474673      10.35833501         0.00000000       0.00000000       0.00000000          1
H         9.79031254       1.52449796      10.94160712         0.00000000       0.00000000       0.00000000          1
H        10.89403123       3.66887154      12.35148110         0.00000000       0.00000000       0.00000000          1
H        10.31270699       2.83937719       8.53277812         0.00000000       0.00000000       0.00000000          1
6
pbc=[F, F, F] list_num_par=6 frozen=false iter=20000 energy=-1.26974174 Lattice="15.00000000 0.00000000 0.00000000 0.00000000 15.00000000 0.00000000 0.00000000 0.00000000 15.00000000" energy_frozen_part=0.00000000 Properties=species:S:1:pos:R:3:velocities:R:3:Z:I:1
H        11.41643872       4.98394850       9.94253273         0.00000000       0.00000000       0.00000000          1
H         8.82667668       4.11377651      10.52580439         0.00000000       0.00000000       0.00000000          1
H        12.37994297       2.39486634      10.35795669         0.00000000       0.00000000       0.00000000          1
H         9.79017845       1.52469198      10.94122764         0.00000000       0.00000000       0.00000000          1
H        10.89404932       3.66887664      12.35126310         0.00000000       0.00000000       0.00000000          1
H        10.31256619       2.83975537       8.53249219         0.00000000       0.00000000       0.00000000          1
6
pbc=[F, F, F] list_num_par=6 frozen=false iter=20000 energy=-1.26974174 Lattice="15.00000000 0.00000000 0.00000000 0.00000000 15.00000000 0.00000000 0.00000000 0.00000000 15.00000000" energy_frozen_part=0.00000000 Properties=species:S:1:pos:R:3:velocities:R:3:Z:I:1
H        11.38028973       4.97965834       9.93910493         0.00000000       0.00000000       0.00000000          1
H         8.80009958       4.10062545      10.55082936         0.00000000       0.00000000       0.00000000          1
H        12.35774790       2.39465766      10.34731685         0.00000000       0.00000000       0.00000000          1
H         9.77755934       1.51562591      10.95903365         0.00000000       0.00000000       0.00000000          1
H        10.88834927       3.66558220      12.35477451         0.00000000       0.00000000       0.00000000          1
H        10.26949612       2.82969860       8.54336336         0.00000000       0.00000000       0.00000000          1
6
pbc=[F, F, F] list_num_par=6 frozen=false iter=20000 energy=-1.26974174 Lattice="15.00000000 0.00000000 0.00000000 0.00000000 15.00000000 0.00000000 0.00000000 0.00000000 15.00000000" energy_frozen_part=0.00000000 Properties=species:S:1:pos:R:3:velocities:R:3:Z:I:1
H        11.38086416       4.97944999       9.93860512         0.00000000       0.00000000       0.00000000          1
H         8.80050781       4.10116908      10.55072198         0.00000000       0.00000000       0.00000000          1
H        12.35776213       2.39435460      10.34756895         0.00000000       0.00000000       0.00000000          1
H         9.77741087       1.51607756      10.95967621         0.00000000       0.00000000       0.00000000          1
H        10.88874101       3.66622588      12.35471139         0.00000000       0.00000000       0.00000000          1
H        10.26952758       2.82930586       8.54357587         0.00000000       0.00000000       0.00000000          1
6
pbc=[F, F, F] list_num_par=6 frozen=false iter=20000 energy=-1.26974174 Lattice="15.00000000 0.00000000 0.00000000 0.00000000 15.00000000 0.00000000 0.00000000 0.00000000 15.00000000" energy_frozen_part=0.00000000 Properties=species:S:1:pos:R:3:velocities:R:3:Z:I:1
H        11.38084988       4.97944527       9.93860872         0.00000000       0.00000000       0.00000000          1
H         8.80049319       4.10115714      10.55068963         0.00000000       0.00000000       0.00000000          1
H        12.35777137       2.39436531      10.34757132         0.00000000       0.00000000       0.00000000          1
H         9.77741531       1.51606996      10.95965946         0.00000000       0.00000000       0.00000000          1
H        10.88871143       3.66621619      12.35470216         0.00000000       0.00000000       0.00000000          1
H        10.26954557       2.82929766       8.54356691         0.00000000       0.00000000       0.00000000          1
6
pbc=[F, F, F] list_num_par=6 frozen=false iter=20000 energy=-1.26974174 Lattice="15.00000000 0.00000000 0.00000000 0.00000000 15.00000000 0.00000000 0.00000000 0.00000000 15.00000000" energy_frozen_part=0.00000000 Properties=species:S:1:pos:R:3:velocities:R:3:Z:I:1
H        11.41658072       4.98385448       9.94252741         0.00000000       0.00000000       0.00000000          1
H         8.82676016       4.11374029      10.52564384         0.00000000       0.00000000       0.00000000          1
H        12.38003722       2.39479163      10.35825730         0.00000000       0.00000000       0.00000000          1
H         9.79021876       1.52468913      10.94138241         0.00000000       0.00000000       0.00000000          1
H        10.89397421       3.66899569      12.35132590         0.00000000       0.00000000       0.00000000          1
H        10.31282693       2.83954701       8.53257676         0.00000000       0.00000000       0.00000000          1
6
pbc=[F, F, F] list_num_par=6 frozen=false iter=20000 energy=-1.26974174 Lattice="15.00000000 0.00000000 0.00000000 0.00000000 15.00000000 0.00000000 0.00000000 0.00000000 15.00000000" energy_frozen_part=0.00000000 Properties=species:S:1:pos:R:3:velocities:R:3:Z:I:1
H        11.41656469       4.98386139       9.94251537         0.00000000       0.00000000       0.00000000          1
H         8.82675876       4.11371302      10.52564776         0.00000000       0.00000000       0.00000000          1
H        12.38006334       2.39482382      10.35824720         0.00000000       0.00000000       0.00000000          1
H         9.79026257       1.52467508      10.94137274         0.00000000       0.00000000       0.00000000          1
H        10.89398380       3.66899696      12.35131798         0.00000000       0.00000000       0.00000000          1
H        10.31283059       2.83953636       8.53257541         0.00000000       0.00000000       0.00000000          1
6
pbc=[F, F, F] list_num_par=6 frozen=false iter=20000 energy=-1.26974174 Lattice="15.00000000 0.00000000 0.00000000 0.00000000 15.00000000 0.00000000 0.00000000 0.00000000 15.00000000" energy_frozen_part=0.00000000 Properties=species:S:1:pos:R:3:velocities:R:3:Z:I:1
H        11.41659143       4.98379066       9.94256349         0.00000000       0.00000000       0.00000000          1
H         8.82683179       4.11356037      10.52578372         0.00000000       0.00000000       0.00000000          1
H        12.38020245       2.39480217      10.35837638         0.00000000       0.00000000       0.00000000          1
H         9.79044667       1.52457732      10.94160019         0.00000000       0.00000000       0.00000000          1
H        10.89412211       3.66900590      12.35143179         0.00000000       0.00000000       0.00000000          1
H        10.31291323       2.83935857       8.53273250         0.00000000       0.00000000       0.00000000          1
6
pbc=[F, F, F] list_num_par=6 frozen=false iter=20000 energy=-1.26974174 Lattice="15.00000000 0.00000000 0.00000000 0.00000000 15.00000000 0.00000000 0.00000000 0.00000000 15.00000000" energy_frozen_part=0.00000000 Properties=species:S:1:pos:R:3:velocities:R:3:Z:I:1
H        11.38085594       4.97947711       9.93858534         0.00000000       0.00000000       0.00000000          1
H         8.80051242       4.10117303      10.55068010         0.00000000       0.00000000       0.00000000          1
H        12.35778939       2.39440610      10.34759315         0.00000000       0.00000000       0.00000000          1
H         9.77744210       1.51610289      10.95968876         0.00000000       0.00000000       0.00000000          1
H        10.88873633       3.66627927      12.35470221         0.00000000       0.00000000       0.00000000          1
H        10.26957560       2.82929830       8.54357097         0.00000000       0.00000000       0.00000000          1
6
pbc=[F, F, F] list_num_par=6 frozen=false iter=20000 energy=-1.26974174 Lattice="15.00000000 0.00000000 0.00000000 0.00000000 15.00000000 0.00000000 0.00000000 0.00000000 15.00000000" energy_frozen_part=0.00000000 Properties=species:S:1:pos:R:3:velocities:R:3:Z:I:1
H        11.41642995       4.98377921       9.94261788         0.00000000       0.00000000       0.00000000          1
H         8.82669691       4.11352583      10.52592296         0.00000000       0.00000000       0.00000000          1
H        12.38006333       2.39478437      10.35827966         0.00000000       0.00000000       0.00000000          1
H         9.79033182       1.52452863      10.94158648         0.00000000       0.00000000       0.00000000          1
H        10.89407299       3.66889859      12.35145531         0.00000000       0.00000000       0.00000000          1
H        10.31269329       2.83941222       8.53274409         0.00000000       0.00000000       0.00000000          1
6
pbc=[F, F, F] list_num_par=6 frozen=false iter=20000 energy=-1.26974174 Lattice="15.00000000 0.00000000 0.00000000 0.00000000 15.00000000 0.00000000 0.00000000 0.00000000 15.00000000" energy_frozen_part=0.00000000 Properties=species:S:1:pos:R:3:velocities:R:3:Z:I:1
H        11.38085493       4.97944617       9.93860931         0.00000000       0.00000000       0.00000000          1
H         8.80049598       4.10116156      10.55069375         0.00000000       0.00000000       0.00000000          1
H        12.35776860       2.39436216      10.34758827         0.00000000       0.00000000       0.00000000          1
H         9.77741350       1.51607633      10.95967667         0.00000000       0.00000000       0.00000000          1
H        10.88871436       3.66623649      12.35470652         0.00000000       0.00000000       0.00000000          1
H        10.26955192       2.82929734       8.54357334         0.00000000       0.00000000       0.00000000          1
6
pbc=[F, F, F] list_num_par=6 frozen=false iter=20000 energy=-1.26974174 Lattice="15.00000000 0.00000000 0.00000000 0.00000000 15.00000000 0.00000000 0.00000000 0.00000000 15.00000000" energy_frozen_part=0.00000000 Properties=species:S:1:pos:R:3:velocities:R:3:Z:I:1
H        11.41650123       4.98384591       9.94257698         0.00000000       0.00000000       0.00000000          1
H         8.82671561       4.11364367      10.52572109         0.00000000       0.00000000       0.00000000          1
H        12.38003345       2.39480254      10.35820715         0.00000000       0.00000000       0.00000000          1
H         9.79025239       1.52460407      10.94134490         0.00000000       0.00000000       0.00000000          1
H        10.89397291       3.66889427      12.35134857         0.00000000       0.00000000       0.00000000          1
H        10.31277113       2.83955130       8.53257880         0.00000000       0.00000000       0.00000000          1
6
pbc=[F, F, F] list_num_par=6 frozen=false iter=20000 energy=-1.26974174 Lattice="15.00000000 0.00000000 0.00000000 0.00000000 15.00000000 0.00000000 0.00000000 0.00000000 15.00000000" energy_frozen_part=0.00000000 Properties=species:S:1:pos:R:3:velocities:R:3:Z:I:1
H        11.41643043       4.98393909       9.94255331         0.00000000       0.00000000       0.00000000          1
H         8.82666496       4.11375719      10.52580273         0.00000000       0.00000000       0.00000000          1
H        12.37994523       2.39485403      10.35798992         0.00000000       0.00000000       0.00000000          1
H         9.79017801       1.52467810      10.94123375         0.00000000       0.00000000       0.00000000          1
H        10.89402543       3.66887603      12.35127758         0.00000000       0.00000000       0.00000000          1
H        10.31258481       2.83974707       8.53250515         0.00000000       0.00000000       0.00000000          1
6
pbc=[F, F, F] list_num_par=6 frozen=false iter=20000 energy=-1.26974174 Lattice="15.00000000 0.00000000 0.00000000 0.00000000 15.00000000 0.00000000 0.00000000 0.00000000 15.00000000" energy_frozen_part=0.00000000 Properties=species:S:1:pos:R:3:velocities:R:3:Z:I:1
H        11.38083959       4.97945705       9.93860466         0.00000000       0.00000000       0.00000000          1
H         8.80048716       4.10114190      10.55068475         0.00000000       0.00000000       0.00000000          1
H        12.35777596       2.39437934      10.34757191         0.00000000       0.00000000       0.00000000          1
H         9.77742737       1.51606452      10.95965646         0.00000000       0.00000000       0.00000000          1
H        10.88870524       3.66621915      12.35470032         0.00000000       0.00000000       0.00000000          1
H        10.26955116       2.82929857       8.54356535         0.00000000       0.00000000       0.00000000          1
6
pbc=[F, F, F] list_num_par=6 frozen=false iter=20000 energy=-1.26974174 Lattice="15.00000000 0.00000000 0.00000000 0.00000000 15.00000000 0.00000000 0.00000000 0.00000000 15.00000000" energy_frozen_part=0.00000000 Properties=species:S:1:pos:R:3:velocities:R:3:Z:I:1
H        11.38085462       4.97946589       9.93859413         0.00000000       0.00000000       0.00000000          1
H         8.80050950       4.10116761      10.55069746         0.00000000       0.00000000       0.00000000          1
H        12.35779420       2.39439298      10.34758176         0.00000000       0.00000000       0.00000000          1
H         9.77744144       1.51608788      10.95967874         0.00000000       0.00000000       0.00000000          1
H        10.88873649       3.66625232      12.35470519         0.00000000       0.00000000       0.00000000          1
H        10.26955789       2.82929926       8.54357631         0.00000000       0.00000000       0.00000000          1
6
pbc=[F, F, F] list_num_par=6 frozen=false iter=20000 energy=-1.26974174 Lattice="15.00000000 0.00000000 0.00000000 0.00000000 15.00000000 0.00000000 0.00000000 0.00000000 15.00000000" energy_frozen_part=0.00000000 Properties=species:S:1:pos:R:3:velocities:R:3:Z:I:1
H        11.38086895       4.97944863       9.93861033         0.00000000       0.00000000       0.00000000          1
H         8.80051104       4.10116884      10.55072557         0.00000000       0.00000000       0.00000000          1
H        12.35776879       2.39435517      10.34756582         0.00000000       0.00000000       0.00000000          1
H         9.77741440       1.51608231      10.95967943         0.00000000       0.00000000       0.00000000          1
H        10.88875000       3.66622553      12.35470969         0.00000000       0.00000000       0.00000000          1
H        10.26953633       2.82931426       8.54357812         0.00000000       0.00000000       0.00000000          1
6
pbc=[F, F, F] list_num_par=6 frozen=false iter=20000 energy=-1.26974174 Lattice="15.00000000 0.00000000 0.00000000 0.00000000 15.00000000 0.00000000 0.00000000 0.00000000 15.00000000" energy_frozen_part=0.00000000 Properties=species:S:1:pos:R:3:velocities:R:3:Z:I:1
H        11.41657333       4.98386655       9.94252687         0.00000000       0.00000000       0.00000000          1
H         8.82675808       4.11375295      10.52563660         0.00000000       0.00000000       0.00000000          1
H        12.38003834       2.39481180      10.35827628         0.00000000       0.00000000       0.00000000          1
H         9.79021615       1.52469666      10.94137919         0.00000000       0.00000000       0.00000000          1
H        10.89396205       3.66901228      12.35132998         0.00000000       0.00000000       0.00000000          1
H        10.31283612       2.83954731       8.53257946         0.00000000       0.00000000       0.00000000          1
6
pbc=[F, F, F] list_num_par=6 frozen=false iter=20000 energy=-1.26974174 Lattice="15.00000000 0.00000000 0.00000000 0.00000000 15.00000000 0.00000000 0.00000000 0.00000000 15.00000000" energy_frozen_part=0.00000000 Properties=species:S:1:pos:R:3:velocities:R:3:Z:I:1
H        11.38089976       4.97945346       9.93863759         0.00000000       0.00000000       0.00000000          1
H         8.80053845       4.10119465      10.55076011         0.00000000       0.00000000       0.00000000          1
H        12.35778044       2.39435003      10.34756090         0.00000000       0.00000000       0.00000000          1
H         9.77741943       1.51608874      10.95968224         0.00000000       0.00000000       0.00000000          1
H        10.88878244       3.66621401      12.35472942         0.00000000       0.00000000       0.00000000          1
H        10.26953174       2.82933592       8.54359369         0.00000000       0.00000000       0.00000000          1
6
pbc=[F, F, F] list_num_par=6 frozen=false iter=20000 energy=-1.26974174 Lattice="15.00000000 0.00000000 0.00000000 0.00000000 15.00000000 0.00000000 0.00000000 0.00000000 15.00000000" energy_frozen_part=0.00000000 Properties=species:S:1:pos:R:3:velocities:R:3:Z:I:1
H        11.41641916       4.98374659       9.94259855         0.00000000       0.00000000       0.00000000          1
H         8.82668567       4.11350597      10.52589673         0.00000000       0.00000000       0.00000000          1
H        12.38004189       2.39475190      10.35832536         0.00000000       0.00000000       0.00000000          1
H         9.79030974       1.52451534      10.94161434         0.00000000       0.00000000       0.00000000          1
H        10.89403358       3.66890562      12.35146236         0.00000000       0.00000000       0.00000000          1
H        10.31269697       2.83935532       8.53275969         0.00000000       0.00000000       0.00000000          1
6
pbc=[F, F, F] list_num_par=6 frozen=false iter=20000 energy=-1.26974174 Lattice="15.00000000 0.00000000 0.00000000 0.00000000 15.00000000 0.00000000 0.00000000 0.00000000 15.00000000" energy_frozen_part=0.00000000 Properties=species:S:1:pos:R:3:velocities:R:3:Z:I:1
H        11.41644294       4.98394552       9.94253431         0.00000000       0.00000000       0.00000000          1
H         8.82667723       4.11376700      10.52579314         0.00000000       0.00000000       0.00000000          1
H        12.37994624       2.39485728      10.35797825         0.00000000       0.00000000       0.00000000          1
H         9.79018407       1.52468232      10.94123945         0.00000000       0.00000000       0.00000000          1
H        10.89403816       3.66888567      12.35126697         0.00000000       0.00000000       0.00000000          1
H        10.31258465       2.83974397       8.53250418         0.00000000       0.00000000       0.00000000          1
6
pbc=[F, F, F] list_num_par=6 frozen=false iter=20000 energy=-1.26974174 Lattice="15.00000000 0.00000000 0.00000000 0.00000000 15.00000000 0.00000000 0.00000000 0.00000000 15.00000000" energy_frozen_part=0.00000000 Properties=species:S:1:pos:R:3:velocities:R:3:Z:I:1
H        11.38088278       4.97945032       9.93861372         0.00000000       0.00000000       0.00000000          1
H         8.80052393       4.10118328      10.55072883         0.00000000       0.00000000       0.00000000          1
H        12.35777140       2.39434545      10.34757153         0.00000000       0.00000000       0.00000000          1
H         9.77741287       1.51608282      10.95967943         0.00000000       0.00000000       0.00000000          1
H        10.88875769       3.66622103      12.35471243         0.00000000       0.00000000       0.00000000          1
H        10.26954099       2.82931155       8.54358688         0.00000000       0.00000000       0.00000000          1
6
pbc=[F, F, F] list_num_par=6 frozen=false iter=20000 energy=-1.26974174 Lattice="15.00000000 0.00000000 0.00000000 0.00000000 15.00000000 0.00000000 0.00000000 0.00000000 15.00000000" energy_frozen_part=0.00000000 Properties=species:S:1:pos:R:3:velocities:R:3:Z:I:1
H        11.38088917       4.97944415       9.93861279         0.00000000       0.00000000       0.00000000          1
H         8.80052731       4.10117690      10.55071798         0.00000000       0.00000000       0.00000000          1
H        12.35777430       2.39434638      10.34758259         0.00000000       0.00000000       0.00000000          1
H         9.77741075       1.51608206      10.95968269         0.00000000       0.00000000       0.00000000          1
H        10.88875805       3.66622304      12.35471105         0.00000000       0.00000000       0.00000000          1
H        10.26955105       2.82930841       8.54358234         0.00000000       0.00000000       0.00000000          1
6
pbc=[F, F, F] list_num_par=6 frozen=false iter=20000 energy=-1.26974174 Lattice="15.00000000 0.00000000 0.00000000 0.00000000 15.00000000 0.00000000 0.00000000 0.00000000 15.00000000" energy_frozen_part=0.00000000 Properties=species:S:1:pos:R:3:velocities:R:3:Z:I:1
H        11.41643182       4.98377080       9.94261276         0.00000000       0.00000000       0.00000000          1
H         8.82670597       4.11350851      10.52592722         0.00000000       0.00000000       0.00000000          1
H        12.38008110       2.39477875      10.35828498         0.00000000       0.00000000       0.00000000          1
H         9.79035991       1.52451812      10.94160368         0.00000000       0.00000000       0.00000000          1
H        10.89408387       3.66889441      12.35145884         0.00000000       0.00000000       0.00000000          1
H        10.31270168       2.83939372       8.53276031         0.00000000       0.00000000       0.00000000          1
6
pbc=[F, F, F] list_num_par=6 frozen=false iter=20000 energy=-1.26974174 Lattice="15.00000000 0.00000000 0.00000000 0.00000000 15.00000000 0.00000000 0.00000000 0.00000000 15.00000000" energy_frozen_part=0.00000000 Properties=species:S:1:pos:R:3:velocities:R:3:Z:I:1
H        11.38088016       4.97945832       9.93862463         0.00000000       0.00000000       0.00000000          1
H         8.80052665       4.10118521      10.55075685         0.00000000       0.00000000       0.00000000          1
H        12.35777866       2.39436157      10.34755225         0.00000000       0.00000000       0.00000000          1
H         9.77743250       1.51608686      10.95968132         0.00000000       0.00000000       0.00000000          1
H        10.88877641       3.66621606      12.35471960         0.00000000       0.00000000       0.00000000          1
H        10.26952807       2.82932881       8.54358543         0.00000000       0.00000000       0.00000000          1
6
pbc=[F, F, F] list_num_par=6 frozen=false iter=20000 energy=-1.26974174 Lattice="15.00000000 0.00000000 0.00000000 0.00000000 15.00000000 0.00000000 0.00000000 0.00000000 15.00000000" energy_frozen_part=0.00000000 Properties=species:S:1:pos:R:3:velocities:R:3:Z:I:1
H        11.38086420       4.97945078       9.93861625         0.00000000       0.00000000       0.00000000          1
H         8.80050867       4.10116708      10.55071936         0.00000000       0.00000000       0.00000000          1
H        12.35777427       2.39436638      10.34759743         0.00000000       0.00000000       0.00000000          1
H         9.77741550       1.51608629      10.95970943         0.00000000       0.00000000       0.00000000          1
H        10.88874148       3.66624802      12.35472476         0.00000000       0.00000000       0.00000000          1
H        10.26954303       2.82928980       8.54359905         0.00000000       0.00000000       0.00000000          1
6
pbc=[F, F, F] list_num_par=6 frozen=false iter=20000 energy=-1.26974174 Lattice="15.00000000 0.00000000 0.00000000 0.00000000 15.00000000 0.00000000 0.00000000 0.00000000 15.00000000" energy_frozen_part=0.00000000 Properties=species:S:1:pos:R:3:velocities:R:3:Z:I:1
H        11.38036626       4.97965605       9.93914498         0.00000000       0.00000000       0.00000000          1
H         8.80015031       4.10067960      10.55084718         0.00000000       0.00000000       0.00000000          1
H        12.35776052       2.39463976      10.34738108         0.00000000       0.00000000       0.00000000          1
H         9.77754135       1.51566339      10.95908585         0.00000000       0.00000000       0.00000000          1
H        10.88837232       3.66560737      12.35482222         0.00000000       0.00000000       0.00000000          1
H        10.26953457       2.82971587       8.54340523         0.00000000       0.00000000       0.00000000          1
6
pbc=[F, F, F] list_num_par=6 frozen=false iter=20000 energy=-1.26974174 Lattice="15.00000000 0.00000000 0.00000000 0.00000000 15.00000000 0.00000000 0.00000000 0.00000000 15.00000000" energy_frozen_part=0.00000000 Properties=species:S:1:pos:R:3:velocities:R:3:Z:I:1
H        11.38087109       4.97945873       9.93862503         0.00000000       0.00000000       0.00000000          1
H         8.80050917       4.10117903      10.55071100         0.00000000       0.00000000       0.00000000          1
H        12.35777081       2.39436538      10.34756921         0.00000000       0.00000000       0.00000000          1
H         9.77740871       1.51608523      10.95965372         0.00000000       0.00000000       0.00000000          1
H        10.88873512       3.66621343      12.35471534         0.00000000       0.00000000       0.00000000          1
H        10.26955193       2.82933260       8.54356590         0.00000000       0.00000000       0.00000000          1
6
pbc=[F, F, F] list_num_par=6 frozen=false iter=20000 energy=-1.26974174 Lattice="15.00000000 0.00000000 0.00000000 0.00000000 15.00000000 0.00000000 0.00000000 0.00000000 15.00000000" energy_frozen_part=0.00000000 Properties=species:S:1:pos:R:3:velocities:R:3:Z:I:1
H        11.41646822       4.98393724       9.94250677         0.00000000       0.00000000       0.00000000          1
H         8.82670105       4.11380551      10.52581624         0.00000000       0.00000000       0.00000000          1
H        12.37993634       2.39483677      10.35793236         0.00000000       0.00000000       0.00000000          1
H         9.79016803       1.52470337      10.94123728         0.00000000       0.00000000       0.00000000          1
H        10.89408588       3.66888804      12.35125596         0.00000000       0.00000000       0.00000000          1
H        10.31254829       2.83975451       8.53249043         0.00000000       0.00000000       0.00000000          1
6
pbc=[F, F, F] list_num_par=6 frozen=false iter=20000 energy=-1.26974174 Lattice="15.00000000 0.00000000 0.00000000 0.00000000 15.00000000 0.00000000 0.00000000 0.00000000 15.00000000" energy_frozen_part=0.00000000 Properties=species:S:1:pos:R:3:velocities:R:3:Z:I:1
H        11.38087287       4.97945942       9.93861350         0.00000000       0.00000000       0.00000000          1
H         8.80052134       4.10117565      10.55072497         0.00000000       0.00000000       0.00000000          1
H        12.35777956       2.39436766      10.34756571         0.00000000       0.00000000       0.00000000          1
H         9.77742478       1.51608255      10.95966806         0.00000000       0.00000000       0.00000000          1
H        10.88875205       3.66622349      12.35471552         0.00000000       0.00000000       0.00000000          1
H        10.26954664       2.82932171       8.54357467         0.00000000       0.00000000       0.00000000          1
6
pbc=[F, F, F] list_num_par=6 frozen=false iter=20000 energy=-1.26974174 Lattice="15.00000000 0.00000000 0.00000000 0.00000000 15.00000000 0.00000000 0.00000000 0.00000000 15.00000000" energy_frozen_part=0.00000000 Properties=species:S:1:pos:R:3:velocities:R:3:Z:I:1
H        11.38088471       4.97946473       9.93861080         0.00000000       0.00000000       0.00000000          1
H         8.80052236       4.10120512      10.55070761         0.00000000       0.00000000       0.00000000          1
H        12.35776795       2.39437051      10.34757544         0.00000000       0.00000000       0.00000000          1
H         9.77740815       1.51610344      10.95966437         0.00000000       0.00000000       0.00000000          1
H        10.88874421       3.66624026      12.35471159         0.00000000       0.00000000       0.00000000          1
H        10.26954717       2.82933189       8.54356793         0.00000000       0.00000000       0.00000000          1
6
pbc=[F, F, F] list_num_par=6 frozen=false iter=20000 energy=-1.26974174 Lattice="15.00000000 0.00000000 0.00000000 0.00000000 15.00000000 0.00000000 0.00000000 0.00000000 15.00000000" energy_frozen_part=0.00000000 Properties=species:S:1:pos:R:3:velocities:R:3:Z:I:1
H        11.38088306       4.97945703       9.93864775         0.00000000       0.00000000       0.00000000          1
H         8.80052838       4.10117857      10.55076545         0.00000000       0.00000000       0.00000000          1
H        12.35777940       2.39435398      10.34755480         0.00000000       0.00000000       0.00000000          1
H         9.77742671       1.51607391      10.95968094         0.00000000       0.00000000       0.00000000          1
H        10.88877953       3.66619442      12.35472725         0.00000000       0.00000000       0.00000000          1
H        10.26952273       2.82934159       8.54359658         0.00000000       0.00000000       0.00000000          1
6
pbc=[F, F, F] list_num_par=6 frozen=false iter=20000 energy=-1.26974174 Lattice="15.00000000 0.00000000 0.00000000 0.00000000 15.00000000 0.00000000 0.00000000 0.00000000 15.00000000" energy_frozen_part=0.00000000 Properties=species:S:1:pos:R:3:velocities:R:3:Z:I:1
H        11.41642089       4.98374966       9.94263704         0.00000000       0.00000000       0.00000000          1
H         8.82668077       4.11350398      10.52591111         0.00000000       0.00000000       0.00000000          1
H        12.38004186       2.39475187      10.35833059         0.00000000       0.00000000       0.00000000          1
H         9.79030556       1.52450071      10.94160799         0.00000000       0.00000000       0.00000000          1
H        10.89402289       3.66888245      12.35147842         0.00000000       0.00000000       0.00000000          1
H        10.31269355       2.83936897       8.53277191         0.00000000       0.00000000       0.00000000          1
6
pbc=[F, F, F] list_num_par=6 frozen=false iter=20000 energy=-1.26974174 Lattice="15.00000000 0.00000000 0.00000000 0.00000000 15.00000000 0.00000000 0.00000000 0.00000000 15.00000000" energy_frozen_part=0.00000000 Properties=species:S:1:pos:R:3:velocities:R:3:Z:I:1
H        11.41646197       4.98393384       9.94250841         0.00000000       0.00000000       0.00000000          1
H         8.82669552       4.11380551      10.52581816         0.00000000       0.00000000       0.00000000          1
H        12.37993429       2.39483990      10.35793826         0.00000000       0.00000000       0.00000000          1
H         9.79016777       1.52470938      10.94124286         0.00000000       0.00000000       0.00000000          1
H        10.89408827       3.66888937      12.35126032         0.00000000       0.00000000       0.00000000          1
H        10.31254918       2.83975502       8.53249355         0.00000000       0.00000000       0.00000000          1
6
pbc=[F, F, F] list_num_par=6 frozen=false iter=20000 energy=-1.26974174 Lattice="15.00000000 0.00000000 0.00000000 0.00000000 15.00000000 0.00000000 0.00000000 0.00000000 15.00000000" energy_frozen_part=0.00000000 Properties=species:S:1:pos:R:3:velocities:R:3:Z:I:1
H        11.38086055       4.97946109       9.93862110         0.00000000       0.00000000       0.00000000          1
H         8.80050862       4.10117528      10.55072636         0.00000000       0.00000000       0.00000000          1
H        12.35777816       2.39437866      10.34756676         0.00000000       0.00000000       0.00000000          1
H         9.77742311       1.51608652      10.95967932         0.00000000       0.00000000       0.00000000          1
H        10.88874810       3.66622954      12.35471650         0.00000000       0.00000000       0.00000000          1
H        10.26953250       2.82931846       8.54358321         0.00000000       0.00000000       0.00000000          1
6
pbc=[F, F, F] list_num_par=6 frozen=false iter=20000 energy=-1.26974174 Lattice="15.00000000 0.00000000 0.00000000 0.00000000 15.00000000 0.00000000 0.00000000 0.00000000 15.00000000" energy_frozen_part=0.00000000 Properties=species:S:1:pos:R:3:velocities:R:3:Z:I:1
H        11.41657954       4.98385074       9.94252931         0.00000000       0.00000000       0.00000000          1
H         8.82675946       4.11374488      10.52563861         0.00000000       0.00000000       0.00000000          1
H        12.38003564       2.39480089      10.35826710         0.00000000       0.00000000       0.00000000          1
H         9.79021522       1.52468807      10.94138611         0.00000000       0.00000000       0.00000000          1
H        10.89396503       3.66900440      12.35132988         0.00000000       0.00000000       0.00000000          1
H        10.31283107       2.83953961       8.53258161         0.00000000       0.00000000       0.00000000          1
6
pbc=[F, F, F] list_num_par=6 frozen=false iter=20000 energy=-1.26974174 Lattice="15.00000000 0.00000000 0.00000000 0.00000000 15.00000000 0.00000000 0.00000000 0.00000000 15.00000000" energy_frozen_part=0.00000000 Properties=species:S:1:pos:R:3:velocities:R:3:Z:I:1
H        11.38085014       4.97945903       9.93861054         0.00000000       0.00000000       0.00000000          1
H         8.80049832       4.10116420      10.55069494         0.00000000       0.00000000       0.00000000          1
H        12.35777667       2.39437987      10.34756848         0.00000000       0.00000000       0.00000000          1
H         9.77742391       1.51607594      10.95965487         0.00000000       0.00000000       0.00000000          1
H        10.88872065       3.66622151      12.35470417         0.00000000       0.00000000       0.00000000          1
H        10.26954518       2.82931242       8.54356373         0.00000000       0.00000000       0.00000000          1
6
pbc=[F, F, F] list_num_par=6 frozen=false iter=20000 energy=-1.26974174 Lattice="15.00000000 0.00000000 0.00000000 0.00000000 15.00000000 0.00000000 0.00000000 0.00000000 15.00000000" energy_frozen_part=0.00000000 Properties=species:S:1:pos:R:3:velocities:R:3:Z:I:1
H        11.38085778       4.97945103       9.93861107         0.00000000       0.00000000       0.00000000          1
H         8.80050692       4.10116237      10.55070291         0.00000000       0.00000000       0.00000000          1
H        12.35776812       2.39436412      10.34758050         0.00000000       0.00000000       0.00000000          1
H         9.77741260       1.51607452      10.95967395         0.00000000       0.00000000       0.00000000          1
H        10.88872631       3.66622654      12.35470532         0.00000000       0.00000000       0.00000000          1
H        10.26954381       2.82930216       8.54357586         0.00000000       0.00000000       0.00000000          1
6
pbc=[F, F, F] list_num_par=6 frozen=false iter=20000 energy=-1.26974174 Lattice="15.00000000 0.00000000 0.00000000 0.00000000 15.00000000 0.00000000 0.00000000 0.00000000 15.00000000" energy_frozen_part=0.00000000 Properties=species:S:1:pos:R:3:velocities:R:3:Z:I:1
H        11.41649693       4.98385458       9.94256428         0.00000000       0.00000000       0.00000000          1
H         8.82670928       4.11368032      10.52570847         0.00000000       0.00000000       0.00000000          1
H        12.38001049       2.39480890      10.35822934         0.00000000       0.00000000       0.00000000          1
H         9.79022179       1.52463936      10.94137758         0.00000000       0.00000000       0.00000000          1
H        10.89396559       3.66893912      12.35134777         0.00000000       0.00000000       0.00000000          1
H        10.31275961       2.83954886       8.53259134         0.00000000       0.00000000       0.00000000          1
6
pbc=[F, F, F] list_num_par=6 frozen=false iter=20000 energy=-1.26974174 Lattice="15.00000000 0.00000000 0.00000000 0.00000000 15.00000000 0.00000000 0.00000000 0.00000000 15.00000000" energy_frozen_part=0.00000000 Properties=species:S:1:pos:R:3:velocities:R:3:Z:I:1
H        11.38085800       4.97946316       9.93860788         0.00000000       0.00000000       0.00000000          1
H         8.80050413       4.10117092      10.55071490         0.00000000       0.00000000       0.00000000          1
H        12.35777360       2.39437631      10.34757887         0.00000000       0.00000000       0.00000000          1
H         9.77742096       1.51608631      10.95967959         0.00000000       0.00000000       0.00000000          1
H        10.88874050       3.66624174      12.35471054         0.00000000       0.00000000       0.00000000          1
H        10.26954534       2.82930514       8.54358244         0.00000000       0.00000000       0.00000000          1
6
pbc=[F, F, F] list_num_par=6 frozen=false iter=20000 energy=-1.26974174 Lattice="15.00000000 0.00000000 0.00000000 0.00000000 15.00000000 0.00000000 0.00000000 0.00000000 15.00000000" energy_frozen_part=0.00000000 Properties=species:S:1:pos:R:3:velocities:R:3:Z:I:1
H        11.41657840       4.98383854       9.94252296         0.00000000       0.00000000       0.00000000          1
H         8.82676591       4.11372733      10.52565177         0.00000000       0.00000000       0.00000000          1
H        12.38004202       2.39478429      10.35824361         0.00000000       0.00000000       0.00000000          1
H         9.79022687       1.52467658      10.94138000         0.00000000       0.00000000       0.00000000          1
H        10.89398530       3.66898413      12.35132217         0.00000000       0.00000000       0.00000000          1
H        10.31282114       2.83953140       8.53257501         0.00000000       0.00000000       0.00000000          1
6
pbc=[F, F, F] list_num_par=6 frozen=false iter=20000 energy=-1.26974174 Lattice="15.00000000 0.00000000 0.00000000 0.00000000 15.00000000 0.00000000 0.00000000 0.00000000 15.00000000" energy_frozen_part=0.00000000 Properties=species:S:1:pos:R:3:velocities:R:3:Z:I:1
H        11.38086661       4.97943972       9.93860352         0.00000000       0.00000000       0.00000000          1
H         8.80050994       4.10116463      10.55071393         0.00000000       0.00000000       0.00000000          1
H        12.35775944       2.39434841      10.34757326         0.00000000       0.00000000       0.00000000          1
H         9.77740419       1.51607377      10.95968147         0.00000000       0.00000000       0.00000000          1
H        10.88873556       3.66622138      12.35470862         0.00000000       0.00000000       0.00000000          1
H        10.26952831       2.82929797       8.54358016         0.00000000       0.00000000       0.00000000          1
6
pbc=[F, F, F] list_num_par=6 frozen=false iter=20000 energy=-1.26974174 Lattice="15.00000000 0.00000000 0.00000000 0.00000000 15.00000000 0.00000000 0.00000000 0.00000000 15.00000000" energy_frozen_part=0.00000000 Properties=species:S:1:pos:R:3:velocities:R:3:Z:I:1
H        11.41653686       4.98386458       9.94248889         0.00000000       0.00000000       0.00000000          1
H         8.82673515       4.11372931      10.52564107         0.00000000       0.00000000       0.00000000          1
H        12.38003431       2.39482849      10.35826731         0.00000000       0.00000000       0.00000000          1
H         9.79022989       1.52469736      10.94142726         0.00000000       0.00000000       0.00000000          1
H        10.89397262       3.66905081      12.35132003         0.00000000       0.00000000       0.00000000          1
H        10.31280402       2.83951090       8.53258978         0.00000000       0.00000000       0.00000000          1
6
pbc=[F, F, F] list_num_par=6 frozen=false iter=20000 energy=-1.26974174 Lattice="15.00000000 0.00000000 0.00000000 0.00000000 15.00000000 0.00000000 0.00000000 0.00000000 15.00000000" energy_frozen_part=0.00000000 Properties=species:S:1:pos:R:3:velocities:R:3:Z:I:1
H        11.38088167       4.97944892       9.93864345         0.00000000       0.00000000       0.00000000          1
H         8.80051850       4.10119026      10.55073525         0.00000000       0.00000000       0.00000000          1
H        12.35776922       2.39435188      10.34759697         0.00000000       0.00000000       0.00000000          1
H         9.77740417       1.51609186      10.95969683         0.00000000       0.00000000       0.00000000          1
H        10.88874375       3.66622483      12.35473556         0.00000000       0.00000000       0.00000000          1
H        10.26954753       2.82931622       8.54359680         0.00000000       0.00000000       0.00000000          1
6
pbc=[F, F, F] list_num_par=6 frozen=false iter=20000 energy=-1.26974174 Lattice="15.00000000 0.00000000 0.00000000 0.00000000 15.00000000 0.00000000 0.00000000 0.00000000 15.00000000" energy_frozen_part=0.00000000 Properties=species:S:1:pos:R:3:velocities:R:3:Z:I:1
H        11.38088702       4.97946403       9.93861951         0.00000000       0.00000000       0.00000000          1
H         8.80051730       4.10120272      10.55070245         0.00000000       0.00000000       0.00000000          1
H        12.35776532       2.39436466      10.34757977         0.00000000       0.00000000       0.00000000          1
H         9.77739813       1.51610746      10.95966155         0.00000000       0.00000000       0.00000000          1
H        10.88873463       3.66623839      12.35471197         0.00000000       0.00000000       0.00000000          1
H        10.26955501       2.82933006       8.54357131         0.00000000       0.00000000       0.00000000          1
6
pbc=[F, F, F] list_num_par=6 frozen=false iter=20000 energy=-1.26974174 Lattice="15.00000000 0.00000000 0.00000000 0.00000000 15.00000000 0.00000000 0.00000000 0.00000000 15.00000000" energy_frozen_part=0.00000000 Properties=species:S:1:pos:R:3:velocities:R:3:Z:I:1
H        11.41642712       4.98374710       9.94264383         0.00000000       0.00000000       0.00000000          1
H         8.82668750       4.11350603      10.52591924         0.00000000       0.00000000       0.00000000          1
H        12.38004513       2.39475121      10.35832715         0.00000000       0.00000000       0.00000000          1
H         9.79030292       1.52450412      10.94160376         0.00000000       0.00000000       0.00000000          1
H        10.89403323       3.66886917      12.35148229         0.00000000       0.00000000       0.00000000          1
H        10.31269847       2.83937958       8.53276531         0.00000000       0.00000000       0.00000000          1
6
pbc=[F, F, F] list_num_par=6 frozen=false iter=20000 energy=-1.26974174 Lattice="15.00000000 0.00000000 0.00000000 0.00000000 15.00000000 0.00000000 0.00000000 0.00000000 15.00000000" energy_frozen_part=0.00000000 Properties=species:S:1:pos:R:3:velocities:R:3:Z:I:1
H        11.41655023       4.98392707       9.94241637         0.00000000       0.00000000       0.00000000          1
H         8.82677419       4.11379073      10.52570823         0.00000000       0.00000000       0.00000000          1
H        12.38008016       2.39490805      10.35821764         0.00000000       0.00000000       0.00000000          1
H         9.79030369       1.52477277      10.94151324         0.00000000       0.00000000       0.00000000          1
H        10.89408820       3.66916919      12.35130094         0.00000000       0.00000000       0.00000000          1
H        10.31276221       2.83953130       8.53262775         0.00000000       0.00000000       0.00000000          1
6
pbc=[F, F, F] list_num_par=6 frozen=false iter=20000 energy=-1.26974174 Lattice="15.00000000 0.00000000 0.00000000 0.00000000 15.00000000 0.00000000 0.00000000 0.00000000 15.00000000" energy_frozen_part=0.00000000 Properties=species:S:1:pos:R:3:velocities:R:3:Z:I:1
H        11.38087608       4.97946592       9.93862262         0.00000000       0.00000000       0.00000000          1
H         8.80052322       4.10117741      10.55072604         0.00000000       0.00000000       0.00000000          1
H        12.35779222       2.39437762      10.34757034         0.00000000       0.00000000       0.00000000          1
H         9.77743938       1.51609335      10.95967896         0.00000000       0.00000000       0.00000000          1
H        10.88876378       3.66622811      12.35471644         0.00000000       0.00000000       0.00000000          1
H        10.26955539       2.82932774       8.54358173         0.00000000       0.00000000       0.00000000          1
6
pbc=[F, F, F] list_num_par=6 frozen=false iter=20000 energy=-1.26974174 Lattice="15.00000000 0.00000000 0.00000000 0.00000000 15.00000000 0.00000000 0.00000000 0.00000000 15.00000000" energy_frozen_part=0.00000000 Properties=species:S:1:pos:R:3:velocities:R:3:Z:I:1
H        11.41644552       4.98393619       9.94253965         0.00000000       0.00000000       0.00000000          1
H         8.82667796       4.11376320      10.52579366         0.00000000       0.00000000       0.00000000          1
H        12.37994919       2.39485412      10.35797255         0.00000000       0.00000000       0.00000000          1
H         9.79018092       1.52467919      10.94123323         0.00000000       0.00000000       0.00000000          1
H        10.89404246       3.66887644      12.35127094         0.00000000       0.00000000       0.00000000          1
H        10.31258264       2.83974391       8.53249513         0.00000000       0.00000000       0.00000000          1
6
pbc=[F, F, F] list_num_par=6 frozen=false iter=20000 energy=-1.26974174 Lattice="15.00000000 0.00000000 0.00000000 0.00000000 15.00000000 0.00000000 0.00000000 0.00000000 15.00000000" energy_frozen_part=0.00000000 Properties=species:S:1:pos:R:3:velocities:R:3:Z:I:1
H        11.41642703       4.98372447       9.94260281         0.00000000       0.00000000       0.00000000          1
H         8.82668886       4.11349236      10.52589626         0.00000000       0.00000000       0.00000000          1
H        12.38004925       2.39473364      10.35834693         0.00000000       0.00000000       0.00000000          1
H         9.79030792       1.52450074      10.94163778         0.00000000       0.00000000       0.00000000          1
H        10.89402892       3.66889599      12.35146861         0.00000000       0.00000000       0.00000000          1
H        10.31270454       2.83932243       8.53277116         0.00000000       0.00000000       0.00000000          1
6
pbc=[F, F, F] list_num_par=6 frozen=false iter=20000 energy=-1.26974174 Lattice="15.00000000 0.00000000 0.00000000 0.00000000 15.00000000 0.00000000 0.00000000 0.00000000 15.00000000" energy_frozen_part=0.00000000 Properties=species:S:1:pos:R:3:velocities:R:3:Z:I:1
H        11.41652989       4.98392383       9.94245628         0.00000000       0.00000000       0.00000000          1
H         8.82676297       4.11375518      10.52571192         0.00000000       0.00000000       0.00000000          1
H        12.38008590       2.39491084      10.35823159         0.00000000       0.00000000       0.00000000          1
H         9.79031644       1.52474789      10.94149267         0.00000000       0.00000000       0.00000000          1
H        10.89407042       3.66913123      12.35132260         0.00000000       0.00000000       0.00000000          1
H        10.31278371       2.83953783       8.53262661         0.00000000       0.00000000       0.00000000          1
6
pbc=[F, F, F] list_num_par=6 frozen=false iter=20000 energy=-1.26974174 Lattice="15.00000000 0.00000000 0.00000000 0.00000000 15.00000000 0.00000000 0.00000000 0.00000000 15.00000000" energy_frozen_part=0.00000000 Properties=species:S:1:pos:R:3:velocities:R:3:Z:I:1
H        11.38085177       4.97945883       9.93859810         0.00000000       0.00000000       0.00000000          1
H         8.80050086       4.10117041      10.55071382         0.00000000       0.00000000       0.00000000          1
H        12.35776604       2.39437461      10.34756651         0.00000000       0.00000000       0.00000000          1
H         9.77741512       1.51608216      10.95968438         0.00000000       0.00000000       0.00000000          1
H        10.88873829       3.66623730      12.35470472         0.00000000       0.00000000       0.00000000          1
H        10.26952928       2.82929945       8.54357626         0.00000000       0.00000000       0.00000000          1
6
pbc=[F, F, F] list_num_par=6 frozen=false iter=20000 energy=-1.26974174 Lattice="15.00000000 0.00000000 0.00000000 0.00000000 15.00000000 0.00000000 0.00000000 0.00000000 15.00000000" energy_frozen_part=0.00000000 Properties=species:S:1:pos:R:3:velocities:R:3:Z:I:1
H        11.41640651       4.98376162       9.94261041         0.00000000       0.00000000       0.00000000          1
H         8.82667500       4.11349165      10.52589374         0.00000000       0.00000000       0.00000000          1
H        12.38004957       2.39476768      10.35831794         0.00000000       0.00000000       0.00000000          1
H         9.79032179       1.52450331      10.94160105         0.00000000       0.00000000       0.00000000          1
H        10.89402574       3.66889223      12.35145856         0.00000000       0.00000000       0.00000000          1
H        10.31270047       2.83936048       8.53275440         0.00000000       0.00000000       0.00000000          1
