6
pbc=[F, F, F] list_num_par=6 frozen=false iter=20000 energy=-1.26974174 Lattice="15.00000000 0.00000000 0.00000000 0.00000000 15.00000000 0.00000000 0.00000000 0.00000000 15.00000000" energy_frozen_part=0.00000000 Properties=species:S:1:pos:R:3:velocities:R:3:Z:I:1
H         1.66577793       7.89881353       9.49786776         0.00000000       0.00000000       0.00000000          1
H         4.23535967       8.90286535       9.93768536         0.00000000       0.00000000       0.00000000          1
H         3.40476771       6.57316813      11.23650580         0.00000000       0.00000000       0.00000000          1
H         3.58507962       7.76044417       7.47267027         0.00000000       0.00000000       0.00000000          1
H         2.75449127       5.43075260       8.77149069         0.00000000       0.00000000       0.00000000          1
H         5.32407062       6.43479726       9.21130641         0.00000000       0.00000000       0.00000000          1
6
pbc=[F, F, F] list_num_par=6 frozen=false iter=20000 energy=-1.26974174 Lattice="15.00000000 0.00000000 0.00000000 0.00000000 15.00000000 0.00000000 0.00000000 0.00000000 15.00000000" energy_frozen_part=0.00000000 Properties=species:S:1:pos:R:3:velocities:R:3:Z:I:1
H         1.66504008       7.89708891       9.49720387         0.00000000       0.00000000       0.00000000          1
H         4.23362980       8.90387272       9.93651630         0.00000000       0.00000000       0.00000000          1
H         3.40484699       6.57477221      11.23755420         0.00000000       0.00000000       0.00000000          1
H         3.58487541       7.75833862       7.47253900         0.00000000       0.00000000       0.00000000          1
H         2.75608741       5.42924419       8.77358316         0.00000000       0.00000000       0.00000000          1
H         5.32468179       6.43602214       9.21289025         0.00000000       0.00000000       0.00000000          1
6
pbc=[F, F, F] list_num_par=6 frozen=false iter=20000 energy=-1.26974174 Lattice="15.00000000 0.00000000 0.00000000 0.00000000 15.00000000 0.00000000 0.00000000 0.00000000 15.00000000" energy_frozen_part=0.00000000 Properties=species:S:1:pos:R:3:velocities:R:3:Z:I:1
H         1.66500243       7.89716877       9.49735284         0.00000000       0.00000000       0.00000000          1
H         4.23367549       8.90371393       9.93673745         0.00000000       0.00000000       0.00000000          1
H         3.40472338       6.57456679      11.23757450         0.00000000       0.00000000       0.00000000          1
H         3.58482218       7.75844332       7.47266583         0.00000000       0.00000000       0.00000000          1
H         2.75586511       5.42929809       8.77351059         0.00000000       0.00000000       0.00000000          1
H         5.32454094       6.43584959       9.21289419         0.00000000       0.00000000       0.00000000          1
6
pbc=[F, F, F] list_num_par=6 frozen=false iter=20000 energy=-1.26974174 Lattice="15.00000000 0.00000000 0.00000000 0.00000000 15.00000000 0.00000000 0.00000000 0.00000000 15.00000000" energy_frozen_part=0.00000000 Properties=species:S:1:pos:R:3:velocities:R:3:Z:I:1
H         2.82783612       5.15686420       7.93434439         0.00000000       0.00000000       0.00000000          1
H         1.77491942       6.27829532      10.26630980         0.00000000       0.00000000       0.00000000          1
H         3.73543134       7.64589276       8.82051206         0.00000000       0.00000000       0.00000000          1
H         1.10745489       8.59302314       8.85179834         0.00000000       0.00000000       0.00000000          1
H         0.19986287       6.10398817       7.96563943         0.00000000       0.00000000       0.00000000          1
H         2.16037340       7.47158813       6.51983549         0.00000000       0.00000000       0.00000000          1
6
pbc=[F, F, F] list_num_par=6 frozen=false iter=20000 energy=-1.26974174 Lattice="15.00000000 0.00000000 0.00000000 0.00000000 15.00000000 0.00000000 0.00000000 0.00000000 15.00000000" energy_frozen_part=0.00000000 Properties=species:S:1:pos:R:3:velocities:R:3:Z:I:1
H         1.66490228       7.89710299       9.49728859         0.00000000       0.00000000       0.00000000          1
H         4.23348768       8.90394980       9.93651379         0.00000000       0.00000000       0.00000000          1
H         3.40480478       6.57481610      11.23756575         0.00000000       0.00000000       0.00000000          1
H         3.58466930       7.75842391       7.47255539         0.00000000       0.00000000       0.00000000          1
H         2.75598506       5.42928853       8.77360643         0.00000000       0.00000000       0.00000000          1
H         5.32457288       6.43613332       9.21283141         0.00000000       0.00000000       0.00000000          1
6
pbc=[F, F, F] list_num_par=6 frozen=false iter=20000 energy=-1.26974174 Lattice="15.00000000 0.00000000 0.00000000 0.00000000 15.00000000 0.00000000 0.00000000 0.00000000 15.00000000" energy_frozen_part=0.00000000 Properties=species:S:1:pos:R:3:velocities:R:3:Z:I:1
H         2.82781953       5.15685557       7.93435820         0.00000000       0.00000000       0.00000000          1
H         1.77490228       6.27831386      10.26630852         0.00000000       0.00000000       0.00000000          1
H         3.73544712       7.64588129       8.82051517         0.00000000       0.00000000       0.00000000          1
H         1.10748556       8.59304583       8.85178965         0.00000000       0.00000000       0.00000000          1
H         0.19985725       6.10402296       7.96563398         0.00000000       0.00000000       0.00000000          1
H         2.16039428       7.47158470       6.51983738         0.00000000       0.00000000       0.00000000          1
6
pbc=[F, F, F] list_num_par=6 frozen=false iter=20000 energy=-1.26974174 Lattice="15.00000000 0.00000000 0.00000000 0.00000000 15.00000000 0.00000000 0.00000000 0.00000000 15.00000000" energy_frozen_part=0.00000000 Properties=species:S:1:pos:R:3:velocities:R:3:Z:I:1
H         1.66502362       7.89708848       9.49720443         0.00000000       0.00000000       0.00000000          1
H         4.23363121       8.90385916       9.93649274         0.00000000       0.00000000       0.00000000          1
H         3.40483367       6.57478004      11.23755561         0.00000000       0.00000000       0.00000000          1
H         3.58485496       7.75832327       7.47253395         0.00000000       0.00000000       0.00000000          1
H         2.75606165       5.42923656       8.77358887         0.00000000       0.00000000       0.00000000          1
H         5.32466432       6.43600257       9.21288980         0.00000000       0.00000000       0.00000000          1
6
pbc=[F, F, F] list_num_par=6 frozen=false iter=20000 energy=-1.26974174 Lattice="15.00000000 0.00000000 0.00000000 0.00000000 15.00000000 0.00000000 0.00000000 0.00000000 15.00000000" energy_frozen_part=0.00000000 Properties=species:S:1:pos:R:3:velocities:R:3:Z:I:1
H         2.82776208       5.15659703       7.93437968         0.00000000       0.00000000       0.00000000          1
H         1.77496855       6.27807165      10.26637548         0.00000000       0.00000000       0.00000000          1
H         3.73549218       7.64559064       8.82051425         0.00000000       0.00000000       0.00000000          1
H         1.10755383       8.59281658       8.85188860         0.00000000       0.00000000       0.00000000          1
H         0.19982892       6.10382198       7.96575775         0.00000000       0.00000000       0.00000000          1
H         2.16035469       7.47134346       6.51989361         0.00000000       0.00000000       0.00000000          1
6
pbc=[F, F, F] list_num_par=6 frozen=false iter=20000 energy=-1.26974174 Lattice="15.00000000 0.00000000 0.00000000 0.00000000 15.00000000 0.00000000 0.00000000 0.00000000 15.00000000" energy_frozen_part=0.00000000 Properties=species:S:1:pos:R:3:velocities:R:3:Z:I:1
H         2.82784388       5.15686544       7.93432685         0.00000000       0.00000000       0.00000000          1
H         1.77494113       6.27829746      10.26629455         0.00000000       0.00000000       0.00000000          1
H         3.73545388       7.64588864       8.82047771         0.00000000       0.00000000       0.00000000          1
H         1.10747514       8.59302299       8.85179098         0.00000000       0.00000000       0.00000000          1
H         0.19986708       6.10399033       7.96563547         0.00000000       0.00000000       0.00000000          1
H         2.16037455       7.47159117       6.51982320         0.00000000       0.00000000       0.00000000          1
6
pbc=[F, F, F] list_num_par=6 frozen=false iter=20000 energy=-1.26974174 Lattice="15.00000000 0.00000000 0.00000000 0.00000000 15.00000000 0.00000000 0.00000000 0.00000000 15.00000000" energy_frozen_part=0.00000000 Properties=species:S:1:pos:R:3:velocities:R:3:Z:I:1
H         1.66501609       7.89709832       9.49721626         0.00000000       0.00000000       0.00000000          1
H         4.23362264       8.90386801       9.93648807         0.00000000       0.00000000       0.00000000          1
H         3.40482755       6.57478965      11.23756145         0.00000000       0.00000000       0.00000000          1
H         3.58483330       7.75831547       7.47253424         0.00000000       0.00000000       0.00000000          1
H         2.75604968       5.42923505       8.77360846         0.00000000       0.00000000       0.00000000          1
H         5.32465110       6.43600598       9.21288579         0.00000000       0.00000000       0.00000000          1
6
pbc=[F, F, F] list_num_par=6 frozen=false iter=20000 energy=-1.26974174 Lattice="15.00000000 0.00000000 0.00000000 0.00000000 15.00000000 0.00000000 0.00000000 0.00000000 15.00000000" energy_frozen_part=0.00000000 Properties=species:S:1:pos:R:3:velocities:R:3:Z:I:1
H         1.66502074       7.89709215       9.49719964         0.00000000       0.00000000       0.00000000          1
H         4.23362952       8.90386035       9.93646337         0.00000000       0.00000000       0.00000000          1
H         3.40482919       6.57479827      11.23756026         0.00000000       0.00000000       0.00000000          1
H         3.58483678       7.75828587       7.47251673         0.00000000       0.00000000       0.00000000          1
H         2.75604002       5.42922556       8.77361553         0.00000000       0.00000000       0.00000000          1
H         5.32464856       6.43598964       9.21287884         0.00000000       0.00000000       0.00000000          1
6
pbc=[F, F, F] list_num_par=6 frozen=false iter=20000 energy=-1.26974174 Lattice="15.00000000 0.00000000 0.00000000 0.00000000 15.00000000 0.00000000 0.00000000 0.00000000 15.00000000" energy_frozen_part=0.00000000 Properties=species:S:1:pos:R:3:velocities:R:3:Z:I:1
H         2.82782824       5.15664217       7.93437418         0.00000000       0.00000000       0.00000000          1
H         1.77499878       6.27802845      10.26639562         0.00000000       0.00000000       0.00000000          1
H         3.73547484       7.64564148       8.82055451         0.00000000       0.00000000       0.00000000          1
H         1.10750946       8.59278284       8.85195605         0.00000000       0.00000000       0.00000000          1
H         0.19985823       6.10377817       7.96577998         0.00000000       0.00000000       0.00000000          1
H         2.16033489       7.47139168       6.51993457         0.00000000       0.00000000       0.00000000          1
6
pbc=[F, F, F] list_num_par=6 frozen=false iter=20000 energy=-1.26974174 Lattice="15.00000000 0.00000000 0.00000000 0.00000000 15.00000000 0.00000000 0.00000000 0.00000000 15.00000000" energy_frozen_part=0.00000000 Properties=species:S:1:pos:R:3:velocities:R:3:Z:I:1
H         2.82778136       5.15659994       7.93438818         0.00000000       0.00000000       0.00000000          1
H         1.77499429       6.27807270      10.26638774         0.00000000       0.00000000       0.00000000          1
H         3.73549829       7.64560182       8.82051077         0.00000000       0.00000000       0.00000000          1
H         1.10756245       8.59281677       8.85190439         0.00000000       0.00000000       0.00000000          1
H         0.19984405       6.10381925       7.96577442         0.00000000       0.00000000       0.00000000          1
H         2.16035129       7.47134715       6.51990147         0.00000000       0.00000000       0.00000000          1
6
pbc=[F, F, F] list_num_par=6 frozen=false iter=20000 energy=-1.26974174 Lattice="15.00000000 0.00000000 0.00000000 0.00000000 15.00000000 0.00000000 0.00000000 0.00000000 15.00000000" energy_frozen_part=0.00000000 Properties=species:S:1:pos:R:3:velocities:R:3:Z:I:1
H         2.82788366       5.15685454       7.93436939         0.00000000       0.00000000       0.00000000          1
H         1.77493915       6.27829125      10.26631952         0.00000000       0.00000000       0.00000000          1
H         3.73541946       7.64592110       8.82050263         0.00000000       0.00000000       0.00000000          1
H         1.10741951       8.59298432       8.85177395         0.00000000       0.00000000       0.00000000          1
H         0.19988405       6.10391528       7.96564896         0.00000000       0.00000000       0.00000000          1
H         2.16036910       7.47154275       6.51983315         0.00000000       0.00000000       0.00000000          1
6
pbc=[F, F, F] list_num_par=6 frozen=false iter=20000 energy=-1.26974174 Lattice="15.00000000 0.00000000 0.00000000 0.00000000 15.00000000 0.00000000 0.00000000 0.00000000 15.00000000" energy_frozen_part=0.00000000 Properties=species:S:1:pos:R:3:velocities:R:3:Z:I:1
H         2.82776005       5.15660556       7.93437479         0.00000000       0.00000000       0.00000000          1
H         1.77498818       6.27807846      10.26637963         0.00000000       0.00000000       0.00000000          1
H         3.73549737       7.64560218       8.82049613         0.00000000       0.00000000       0.00000000          1
H         1.10755293       8.59282425       8.85190428         0.00000000       0.00000000       0.00000000          1
H         0.19981773       6.10382729       7.96578212         0.00000000       0.00000000       0.00000000          1
H         2.16031927       7.47135338       6.51989422         0.00000000       0.00000000       0.00000000          1
6
pbc=[F, F, F] list_num_par=6 frozen=false iter=20000 energy=-1.26974174 Lattice="15.00000000 0.00000000 0.00000000 0.00000000 15.00000000 0.00000000 0.00000000 0.00000000 15.00000000" energy_frozen_part=0.00000000 Properties=species:S:1:pos:R:3:velocities:R:3:Z:I:1
H         1.66577499       7.89882663       9.49786214         0.00000000       0.00000000       0.00000000          1
H         4.23535801       8.90287221       9.93767585         0.00000000       0.00000000       0.00000000          1
H         3.40477185       6.57317750      11.23649458         0.00000000       0.00000000       0.00000000          1
H         3.58507941       7.76043968       7.47266393         0.00000000       0.00000000       0.00000000          1
H         2.75448642       5.43075332       8.77148582         0.00000000       0.00000000       0.00000000          1
H         5.32406978       6.43479888       9.21129918         0.00000000       0.00000000       0.00000000          1
6
pbc=[F, F, F] list_num_par=6 frozen=false iter=20000 energy=-1.26974174 Lattice="15.00000000 0.00000000 0.00000000 0.00000000 15.00000000 0.00000000 0.00000000 0.00000000 15.00000000" energy_frozen_part=0.00000000 Properties=species:S:1:pos:R:3:velocities:R:3:Z:I:1
H         1.66502101       7.89708937       9.49720793         0.00000000       0.00000000       0.00000000          1
H         4.23362383       8.90386388       9.93647319         0.00000000       0.00000000       0.00000000          1
H         3.40483688       6.57478747      11.23756406         0.00000000       0.00000000       0.00000000          1
H         3.58483640       7.75829431       7.47252464         0.00000000       0.00000000       0.00000000          1
H         2.75604703       5.42922473       8.77361472         0.00000000       0.00000000       0.00000000          1
H         5.32465073       6.43599204       9.21288481         0.00000000       0.00000000       0.00000000          1
6
pbc=[F, F, F] list_num_par=6 frozen=false iter=20000 energy=-1.26974174 Lattice="15.00000000 0.00000000 0.00000000 0.00000000 15.00000000 0.00000000 0.00000000 0.00000000 15.00000000" energy_frozen_part=0.00000000 Properties=species:S:1:pos:R:3:velocities:R:3:Z:I:1
H         1.66489591       7.89709620       9.49728412         0.00000000       0.00000000       0.00000000          1
H         4.23348105       8.90395131       9.93650905         0.00000000       0.00000000       0.00000000          1
H         3.40481611       6.57481563      11.23756134         0.00000000       0.00000000       0.00000000          1
H         3.58466903       7.75842700       7.47255051         0.00000000       0.00000000       0.00000000          1
H         2.75599469       5.42929250       8.77360217         0.00000000       0.00000000       0.00000000          1
H         5.32457618       6.43614081       9.21282466         0.00000000       0.00000000       0.00000000          1
6
pbc=[F, F, F] list_num_par=6 frozen=false iter=20000 energy=-1.26974174 Lattice="15.00000000 0.00000000 0.00000000 0.00000000 15.00000000 0.00000000 0.00000000 0.00000000 15.00000000" energy_frozen_part=0.00000000 Properties=species:S:1:pos:R:3:velocities:R:3:Z:I:1
H         1.66579624       7.89887127       9.49788029         0.00000000       0.00000000       0.00000000          1
H         4.23539716       8.90287273       9.93765224         0.00000000       0.00000000       0.00000000          1
H         3.40477072       6.57321010      11.23651176         0.00000000       0.00000000       0.00000000          1
H         3.58507097       7.76042246       7.47266203         0.00000000       0.00000000       0.00000000          1
H         2.75444622       5.43076931       8.77152154         0.00000000       0.00000000       0.00000000          1
H         5.32405061       6.43477045       9.21130081         0.00000000       0.00000000       0.00000000          1
6
pbc=[F, F, F] list_num_par=6 frozen=false iter=20000 energy=-1.26974174 Lattice="15.00000000 0.00000000 0.00000000 0.00000000 15.00000000 0.00000000 0.00000000 0.00000000 15.00000000" energy_frozen_part=0.00000000 Properties=species:S:1:pos:R:3:velocities:R:3:Z:I:1
H         2.82785954       5.15687105       7.93433806         0.00000000       0.00000000       0.00000000          1
H         1.77492218       6.27829476      10.26628993         0.00000000       0.00000000       0.00000000          1
H         3.73543343       7.64591250       8.82049281         0.00000000       0.00000000       0.00000000          1
H         1.10745109       8.59300803       8.85177648         0.00000000       0.00000000       0.00000000          1
H         0.19987152       6.10397004       7.96561234         0.00000000       0.00000000       0.00000000          1
H         2.16037874       7.47157876       6.51981580         0.00000000       0.00000000       0.00000000          1
6
pbc=[F, F, F] list_num_par=6 frozen=false iter=20000 energy=-1.26974174 Lattice="15.00000000 0.00000000 0.00000000 0.00000000 15.00000000 0.00000000 0.00000000 0.00000000 15.00000000" energy_frozen_part=0.00000000 Properties=species:S:1:pos:R:3:velocities:R:3:Z:I:1
H         2.82784741       5.15695277       7.93432616         0.00000000       0.00000000       0.00000000          1
H         1.77510892       6.27854152      10.26629324         0.00000000       0.00000000       0.00000000          1
H         3.73549138       7.64605569       8.82024785         0.00000000       0.00000000       0.00000000          1
H         1.10750976       8.59315646       8.85166864         0.00000000       0.00000000       0.00000000          1
H         0.19986781       6.10405459       7.96575783         0.00000000       0.00000000       0.00000000          1
H         2.16025667       7.47157080       6.51970776         0.00000000       0.00000000       0.00000000          1
6
pbc=[F, F, F] list_num_par=6 frozen=false iter=20000 energy=-1.26974174 Lattice="15.00000000 0.00000000 0.00000000 0.00000000 15.00000000 0.00000000 0.00000000 0.00000000 15.00000000" energy_frozen_part=0.00000000 Properties=species:S:1:pos:R:3:velocities:R:3:Z:I:1
H         1.65959126       7.89359975       9.50106132         0.00000000       0.00000000       0.00000000          1
H         4.22732115       8.90406930       9.93691644         0.00000000       0.00000000       0.00000000          1
H         3.40203986       6.57633423      11.24260740         0.00000000       0.00000000       0.00000000          1
H         3.57826169       7.75345882       7.47538823         0.00000000       0.00000000       0.00000000          1
H         2.75297576       5.42572239       8.78108088         0.00000000       0.00000000       0.00000000          1
H         5.32070862       6.43619741       9.21692811         0.00000000       0.00000000       0.00000000          1
6
pbc=[F, F, F] list_num_par=6 frozen=false iter=20000 energy=-1.26974174 Lattice="15.00000000 0.00000000 0.00000000 0.00000000 15.00000000 0.00000000 0.00000000 0.00000000 15.00000000" energy_frozen_part=0.00000000 Properties=species:S:1:pos:R:3:velocities:R:3:Z:I:1
H         1.66575640       7.89881598       9.49785640         0.00000000       0.00000000       0.00000000          1
H         4.23532344       8.90287909       9.93770663         0.00000000       0.00000000       0.00000000          1
H         3.40474336       6.57317335      11.23650051         0.00000000       0.00000000       0.00000000          1
H         3.58507790       7.76047119       7.47267573         0.00000000       0.00000000       0.00000000          1
H         2.75449908       5.43076222       8.77146838         0.00000000       0.00000000       0.00000000          1
H         5.32406617       6.43483308       9.21132094         0.00000000       0.00000000       0.00000000          1
6
pbc=[F, F, F] list_num_par=6 frozen=false iter=20000 energy=-1.26974174 Lattice="15.00000000 0.00000000 0.00000000 0.00000000 15.00000000 0.00000000 0.00000000 0.00000000 15.00000000" energy_frozen_part=0.00000000 Properties=species:S:1:pos:R:3:velocities:R:3:Z:I:1
H         1.66504118       7.89716032       9.49736160         0.00000000       0.00000000       0.00000000          1
H         4.23371708       8.90372609       9.93670070         0.00000000       0.00000000       0.00000000          1
H         3.40478503       6.57458592      11.23757518         0.00000000       0.00000000       0.00000000          1
H         3.58482380       7.75843678       7.47265194         0.00000000       0.00000000       0.00000000          1
H         2.75590354       5.42929689       8.77352335         0.00000000       0.00000000       0.00000000          1
H         5.32457994       6.43586034       9.21286899         0.00000000       0.00000000       0.00000000          1
6
pbc=[F, F, F] list_num_par=6 frozen=false iter=20000 energy=-1.26974174 Lattice="15.00000000 0.00000000 0.00000000 0.00000000 15.00000000 0.00000000 0.00000000 0.00000000 15.00000000" energy_frozen_part=0.00000000 Properties=species:S:1:pos:R:3:velocities:R:3:Z:I:1
H         2.82784213       5.15686524       7.93434833         0.00000000       0.00000000       0.00000000          1
H         1.77491813       6.27829662      10.26630068         0.00000000       0.00000000       0.00000000          1
H         3.73543783       7.64590136       8.82050697         0.00000000       0.00000000       0.00000000          1
H         1.10745957       8.59302418       8.85178615         0.00000000       0.00000000       0.00000000          1
H         0.19986734       6.10398880       7.96562581         0.00000000       0.00000000       0.00000000          1
H         2.16038857       7.47158543       6.51983183         0.00000000       0.00000000       0.00000000          1
6
pbc=[F, F, F] list_num_par=6 frozen=false iter=20000 energy=-1.26974174 Lattice="15.00000000 0.00000000 0.00000000 0.00000000 15.00000000 0.00000000 0.00000000 0.00000000 15.00000000" energy_frozen_part=0.00000000 Properties=species:S:1:pos:R:3:velocities:R:3:Z:I:1
H         2.82783617       5.15686016       7.93433268         0.00000000       0.00000000       0.00000000          1
H         1.77494509       6.27828695      10.26630434         0.00000000       0.00000000       0.00000000          1
H         3.73545385       7.64588680       8.82049386         0.00000000       0.00000000       0.00000000          1
H         1.10748255       8.59302225       8.85180754         0.00000000       0.00000000       0.00000000          1
H         0.19986633       6.10400070       7.96564750         0.00000000       0.00000000       0.00000000          1
H         2.16037179       7.47158646       6.51983474         0.00000000       0.00000000       0.00000000          1
6
pbc=[F, F, F] list_num_par=6 frozen=false iter=20000 energy=-1.26974174 Lattice="15.00000000 0.00000000 0.00000000 0.00000000 15.00000000 0.00000000 0.00000000 0.00000000 15.00000000" energy_frozen_part=0.00000000 Properties=species:S:1:pos:R:3:velocities:R:3:Z:I:1
H         1.66502505       7.89708097       9.49720711         0.00000000       0.00000000       0.00000000          1
H         4.23362899       8.90385855       9.93647126         0.00000000       0.00000000       0.00000000          1
H         3.40484423       6.57478648      11.23756216         0.00000000       0.00000000       0.00000000          1
H         3.58483768       7.75829274       7.47253192         0.00000000       0.00000000       0.00000000          1
H         2.75605776       5.42922046       8.77361526         0.00000000       0.00000000       0.00000000          1
H         5.32466326       6.43599338       9.21288482         0.00000000       0.00000000       0.00000000          1
6
pbc=[F, F, F] list_num_par=6 frozen=false iter=20000 energy=-1.26974174 Lattice="15.00000000 0.00000000 0.00000000 0.00000000 15.00000000 0.00000000 0.00000000 0.00000000 15.00000000" energy_frozen_part=0.00000000 Properties=species:S:1:pos:R:3:velocities:R:3:Z:I:1
H         1.66492799       7.89711267       9.49730336         0.00000000       0.00000000       0.00000000          1
H         4.23351767       8.90393934       9.93656160         0.00000000       0.00000000       0.00000000          1
H         3.40482326       6.57478828      11.23755984         0.00000000       0.00000000       0.00000000          1
H         3.58470249       7.75846314       7.47257685         0.00000000       0.00000000       0.00000000          1
H         2.75600940       5.42930843       8.77357688         0.00000000       0.00000000       0.00000000          1
H         5.32459724       6.43613675       9.21284075         0.00000000       0.00000000       0.00000000          1
6
pbc=[F, F, F] list_num_par=6 frozen=false iter=20000 energy=-1.26974174 Lattice="15.00000000 0.00000000 0.00000000 0.00000000 15.00000000 0.00000000 0.00000000 0.00000000 15.00000000" energy_frozen_part=0.00000000 Properties=species:S:1:pos:R:3:velocities:R:3:Z:I:1
H         1.66501839       7.89717322       9.49736114         0.00000000       0.00000000       0.00000000          1
H         4.23369416       8.90372842       9.93671764         0.00000000       0.00000000       0.00000000          1
H         3.40475741       6.57457988      11.23758010         0.00000000       0.00000000       0.00000000          1
H         3.58481699       7.75845076       7.47266323         0.00000000       0.00000000       0.00000000          1
H         2.75587666       5.42930462       8.77352460         0.00000000       0.00000000       0.00000000          1
H         5.32455236       6.43585662       9.21287591         0.00000000       0.00000000       0.00000000          1
6
pbc=[F, F, F] list_num_par=6 frozen=false iter=20000 energy=-1.26974174 Lattice="15.00000000 0.00000000 0.00000000 0.00000000 15.00000000 0.00000000 0.00000000 0.00000000 15.00000000" energy_frozen_part=0.00000000 Properties=species:S:1:pos:R:3:velocities:R:3:Z:I:1
H         1.66576931       7.89879429       9.49784944         0.00000000       0.00000000       0.00000000          1
H         4.23533055       8.90287202       9.93769530         0.00000000       0.00000000       0.00000000          1
H         3.40477137       6.57315207      11.23648151         0.00000000       0.00000000       0.00000000          1
H         3.58508882       7.76046525       7.47266167         0.00000000       0.00000000       0.00000000          1
H         2.75452437       5.43074684       8.77145358         0.00000000       0.00000000       0.00000000          1
H         5.32408511       6.43482942       9.21128952         0.00000000       0.00000000       0.00000000          1
6
pbc=[F, F, F] list_num_par=6 frozen=false iter=20000 energy=-1.26974174 Lattice="15.00000000 0.00000000 0.00000000 0.00000000 15.00000000 0.00000000 0.00000000 0.00000000 15.00000000" energy_frozen_part=0.00000000 Properties=species:S:1:pos:R:3:velocities:R:3:Z:I:1
H         1.66503339       7.89708658       9.49720212         0.00000000       0.00000000       0.00000000          1
H         4.23363057       8.90386306       9.93650892         0.00000000       0.00000000       0.00000000          1
H         3.40485092       6.57477010      11.23755466         0.00000000       0.00000000       0.00000000          1
H         3.58486934       7.75833032       7.47253856         0.00000000       0.00000000       0.00000000          1
H         2.75607844       5.42923712       8.77358168         0.00000000       0.00000000       0.00000000          1
H         5.32467994       6.43601762       9.21288890         0.00000000       0.00000000       0.00000000          1
6
pbc=[F, F, F] list_num_par=6 frozen=false iter=20000 energy=-1.26974174 Lattice="15.00000000 0.00000000 0.00000000 0.00000000 15.00000000 0.00000000 0.00000000 0.00000000 15.00000000" energy_frozen_part=0.00000000 Properties=species:S:1:pos:R:3:velocities:R:3:Z:I:1
H         1.66579822       7.89887409       9.49788019         0.00000000       0.00000000       0.00000000          1
H         4.23540484       8.90286253       9.93765494         0.00000000       0.00000000       0.00000000          1
H         3.40477850       6.57320084      11.23651131         0.00000000       0.00000000       0.00000000          1
H         3.58506801       7.76042508       7.47266046         0.00000000       0.00000000       0.00000000          1
H         2.75444201       5.43076218       8.77152170         0.00000000       0.00000000       0.00000000          1
H         5.32404629       6.43475939       9.21128789         0.00000000       0.00000000       0.00000000          1
6
pbc=[F, F, F] list_num_par=6 frozen=false iter=20000 energy=-1.26974174 Lattice="15.00000000 0.00000000 0.00000000 0.00000000 15.00000000 0.00000000 0.00000000 0.00000000 15.00000000" energy_frozen_part=0.00000000 Properties=species:S:1:pos:R:3:velocities:R:3:Z:I:1
H         1.66501875       7.89708628       9.49721436         0.00000000       0.00000000       0.00000000          1
H         4.23362367       8.90386857       9.93649690         0.00000000       0.00000000       0.00000000          1
H         3.40483727       6.57478820      11.23756847         0.00000000       0.00000000       0.00000000          1
H         3.58484612       7.75831322       7.47254002         0.00000000       0.00000000       0.00000000          1
H         2.75605487       5.42923041       8.77361494         0.00000000       0.00000000       0.00000000          1
H         5.32465900       6.43601089       9.21289394         0.00000000       0.00000000       0.00000000          1
6
pbc=[F, F, F] list_num_par=6 frozen=false iter=20000 energy=-1.26974174 Lattice="15.00000000 0.00000000 0.00000000 0.00000000 15.00000000 0.00000000 0.00000000 0.00000000 15.00000000" energy_frozen_part=0.00000000 Properties=species:S:1:pos:R:3:velocities:R:3:Z:I:1
H         1.66493017       7.89710902       9.49731155         0.00000000       0.00000000       0.00000000          1
H         4.23351199       8.90392652       9.93658130         0.00000000       0.00000000       0.00000000          1
H         3.40481846       6.57477381      11.23757201         0.00000000       0.00000000       0.00000000          1
H         3.58471819       7.75846429       7.47259118         0.00000000       0.00000000       0.00000000          1
H         2.75602041       5.42930713       8.77358388         0.00000000       0.00000000       0.00000000          1
H         5.32460454       6.43613291       9.21285431         0.00000000       0.00000000       0.00000000          1
6
pbc=[F, F, F] list_num_par=6 frozen=false iter=20000 energy=-1.26974174 Lattice="15.00000000 0.00000000 0.00000000 0.00000000 15.00000000 0.00000000 0.00000000 0.00000000 15.00000000" energy_frozen_part=0.00000000 Properties=species:S:1:pos:R:3:velocities:R:3:Z:I:1
H         2.82784299       5.15685171       7.93434815         0.00000000       0.00000000       0.00000000          1
H         1.77488847       6.27829241      10.26629149         0.00000000       0.00000000       0.00000000          1
H         3.73542773       7.64588450       8.82050752         0.00000000       0.00000000       0.00000000          1
H         1.10745010       8.59300432       8.85176291         0.00000000       0.00000000       0.00000000          1
H         0.19986347       6.10397046       7.96559807         0.00000000       0.00000000       0.00000000          1
H         2.16040025       7.47156838       6.51982064         0.00000000       0.00000000       0.00000000          1
6
pbc=[F, F, F] list_num_par=6 frozen=false iter=20000 energy=-1.26974174 Lattice="15.00000000 0.00000000 0.00000000 0.00000000 15.00000000 0.00000000 0.00000000 0.00000000 15.00000000" energy_frozen_part=0.00000000 Properties=species:S:1:pos:R:3:velocities:R:3:Z:I:1
H         2.82786659       5.15685514       7.93438190         0.00000000       0.00000000       0.00000000          1
H         1.77491954       6.27834530      10.26629890         0.00000000       0.00000000       0.00000000          1
H         3.73546218       7.64590199       8.82049795         0.00000000       0.00000000       0.00000000          1
H         1.10749064       8.59304524       8.85172671         0.00000000       0.00000000       0.00000000          1
H         0.19989341       6.10399406       7.96560993         0.00000000       0.00000000       0.00000000          1
H         2.16043217       7.47154457       6.51980867         0.00000000       0.00000000       0.00000000          1
6
pbc=[F, F, F] list_num_par=6 frozen=false iter=20000 energy=-1.26974174 Lattice="15.00000000 0.00000000 0.00000000 0.00000000 15.00000000 0.00000000 0.00000000 0.00000000 15.00000000" energy_frozen_part=0.00000000 Properties=species:S:1:pos:R:3:velocities:R:3:Z:I:1
H         2.82782611       5.15663610       7.93437129         0.00000000       0.00000000       0.00000000          1
H         1.77499407       6.27803107      10.26639435         0.00000000       0.00000000       0.00000000          1
H         3.73547188       7.64563960       8.82055447         0.00000000       0.00000000       0.00000000          1
H         1.10750596       8.59279358       8.85195434         0.00000000       0.00000000       0.00000000          1
H         0.19986119       6.10378977       7.96576764         0.00000000       0.00000000       0.00000000          1
H         2.16033716       7.47139953       6.51993049         0.00000000       0.00000000       0.00000000          1
6
pbc=[F, F, F] list_num_par=6 frozen=false iter=20000 energy=-1.26974174 Lattice="15.00000000 0.00000000 0.00000000 0.00000000 15.00000000 0.00000000 0.00000000 0.00000000 15.00000000" energy_frozen_part=0.00000000 Properties=species:S:1:pos:R:3:velocities:R:3:Z:I:1
H         1.66579060       7.89886344       9.49788884         0.00000000       0.00000000       0.00000000          1
H         4.23540002       8.90285972       9.93766461         0.00000000       0.00000000       0.00000000          1
H         3.40477699       6.57319433      11.23651265         0.00000000       0.00000000       0.00000000          1
H         3.58506273       7.76043982       7.47266470         0.00000000       0.00000000       0.00000000          1
H         2.75445057       5.43076586       8.77151293         0.00000000       0.00000000       0.00000000          1
H         5.32405164       6.43476655       9.21128761         0.00000000       0.00000000       0.00000000          1
6
pbc=[F, F, F] list_num_par=6 frozen=false iter=20000 energy=-1.26974174 Lattice="15.00000000 0.00000000 0.00000000 0.00000000 15.00000000 0.00000000 0.00000000 0.00000000 15.00000000" energy_frozen_part=0.00000000 Properties=species:S:1:pos:R:3:velocities:R:3:Z:I:1
H         1.65959925       7.89359678       9.50106950         0.00000000       0.00000000       0.00000000          1
H         4.22733799       8.90407318       9.93691241         0.00000000       0.00000000       0.00000000          1
H         3.40205838       6.57633584      11.24260256         0.00000000       0.00000000       0.00000000          1
H         3.57827011       7.75346127       7.47539177         0.00000000       0.00000000       0.00000000          1
H         2.75298339       5.42572547       8.78107790         0.00000000       0.00000000       0.00000000          1
H         5.32071871       6.43619395       9.21692557         0.00000000       0.00000000       0.00000000          1
6
pbc=[F, F, F] list_num_par=6 frozen=false iter=20000 energy=-1.26974174 Lattice="15.00000000 0.00000000 0.00000000 0.00000000 15.00000000 0.00000000 0.00000000 0.00000000 15.00000000" energy_frozen_part=0.00000000 Properties=species:S:1:pos:R:3:velocities:R:3:Z:I:1
H         2.82787564       5.15685828       7.93437107         0.00000000       0.00000000       0.00000000          1
H         1.77492741       6.27829713      10.26631500         0.00000000       0.00000000       0.00000000          1
H         3.73542243       7.64591361       8.82049953         0.00000000       0.00000000       0.00000000          1
H         1.10742415       8.59298877       8.85177005         0.00000000       0.00000000       0.00000000          1
H         0.19987407       6.10393137       7.96564119         0.00000000       0.00000000       0.00000000          1
H         2.16036932       7.47155040       6.51982956         0.00000000       0.00000000       0.00000000          1
6
pbc=[F, F, F] list_num_par=6 frozen=false iter=20000 energy=-1.26974174 Lattice="15.00000000 0.00000000 0.00000000 0.00000000 15.00000000 0.00000000 0.00000000 0.00000000 15.00000000" energy_frozen_part=0.00000000 Properties=species:S:1:pos:R:3:velocities:R:3:Z:I:1
H         1.66578695       7.89883740       9.49788623         0.00000000       0.00000000       0.00000000          1
H         4.23538308       8.90286019       9.93764437         0.00000000       0.00000000       0.00000000          1
H         3.40478936       6.57318669      11.23650091         0.00000000       0.00000000       0.00000000          1
H         3.58504119       7.76042138       7.47265396         0.00000000       0.00000000       0.00000000          1
H         2.75445543       5.43074802       8.77150482         0.00000000       0.00000000       0.00000000          1
H         5.32405025       6.43477595       9.21127078         0.00000000       0.00000000       0.00000000          1
6
pbc=[F, F, F] list_num_par=6 frozen=false iter=20000 energy=-1.26974174 Lattice="15.00000000 0.00000000 0.00000000 0.00000000 15.00000000 0.00000000 0.00000000 0.00000000 15.00000000" energy_frozen_part=0.00000000 Properties=species:S:1:pos:R:3:velocities:R:3:Z:I:1
H         2.82787281       5.15685827       7.93436726         0.00000000       0.00000000       0.00000000          1
H         1.77493534       6.27829396      10.26632003         0.00000000       0.00000000       0.00000000          1
H         3.73541308       7.64592107       8.82050162         0.00000000       0.00000000       0.00000000          1
H         1.10741845       8.59298437       8.85177825         0.00000000       0.00000000       0.00000000          1
H         0.19987968       6.10392604       7.96564463         0.00000000       0.00000000       0.00000000          1
H         2.16036250       7.47155054       6.51983151         0.00000000       0.00000000       0.00000000          1
6
pbc=[F, F, F] list_num_par=6 frozen=false iter=20000 energy=-1.26974174 Lattice="15.00000000 0.00000000 0.00000000 0.00000000 15.00000000 0.00000000 0.00000000 0.00000000 15.00000000" energy_frozen_part=0.00000000 Properties=species:S:1:pos:R:3:velocities:R:3:Z:I:1
H         2.82785071       5.15686674       7.93435085         0.00000000       0.00000000       0.00000000          1
H         1.77491700       6.27829879      10.26629817         0.00000000       0.00000000       0.00000000          1
H         3.73544211       7.64590118       8.82050797         0.00000000       0.00000000       0.00000000          1
H         1.10746070       8.59302000       8.85178337         0.00000000       0.00000000       0.00000000          1
H         0.19986702       6.10398505       7.96562418         0.00000000       0.00000000       0.00000000          1
H         2.16039315       7.47158472       6.51983417         0.00000000       0.00000000       0.00000000          1
6
pbc=[F, F, F] list_num_par=6 frozen=false iter=20000 energy=-1.26974174 Lattice="15.00000000 0.00000000 0.00000000 0.00000000 15.00000000 0.00000000 0.00000000 0.00000000 15.00000000" energy_frozen_part=0.00000000 Properties=species:S:1:pos:R:3:velocities:R:3:Z:I:1
H         1.66502118       7.89717662       9.49736518         0.00000000       0.00000000       0.00000000          1
H         4.23370529       8.90372363       9.93671684         0.00000000       0.00000000       0.00000000          1
H         3.40475983       6.57458062      11.23757871         0.00000000       0.00000000       0.00000000          1
H         3.58482244       7.75844591       7.47266471         0.00000000       0.00000000       0.00000000          1
H         2.75587553       5.42930913       8.77352736         0.00000000       0.00000000       0.00000000          1
H         5.32455997       6.43585356       9.21287807         0.00000000       0.00000000       0.00000000          1
6
pbc=[F, F, F] list_num_par=6 frozen=false iter=20000 energy=-1.26974174 Lattice="15.00000000 0.00000000 0.00000000 0.00000000 15.00000000 0.00000000 0.00000000 0.00000000 15.00000000" energy_frozen_part=0.00000000 Properties=species:S:1:pos:R:3:velocities:R:3:Z:I:1
H         1.66506661       7.89721681       9.49726049         0.00000000       0.00000000       0.00000000          1
H         4.23376674       8.90367122       9.93672339         0.00000000       0.00000000       0.00000000          1
H         3.40470853       6.57451353      11.23748495         0.00000000       0.00000000       0.00000000          1
H         3.58491701       7.75850457       7.47261201         0.00000000       0.00000000       0.00000000          1
H         2.75586363       5.42933774       8.77336765         0.00000000       0.00000000       0.00000000          1
H         5.32455860       6.43579337       9.21283547         0.00000000       0.00000000       0.00000000          1
6
pbc=[F, F, F] list_num_par=6 frozen=false iter=20000 energy=-1.26974174 Lattice="15.00000000 0.00000000 0.00000000 0.00000000 15.00000000 0.00000000 0.00000000 0.00000000 15.00000000" energy_frozen_part=0.00000000 Properties=species:S:1:pos:R:3:velocities:R:3:Z:I:1
H         1.66579327       7.89886442       9.49787847         0.00000000       0.00000000       0.00000000          1
H         4.23539949       8.90286477       9.93765674         0.00000000       0.00000000       0.00000000          1
H         3.40477365       6.57320874      11.23651401         0.00000000       0.00000000       0.00000000          1
H         3.58506804       7.76042825       7.47266218         0.00000000       0.00000000       0.00000000          1
H         2.75444681       5.43076546       8.77151745         0.00000000       0.00000000       0.00000000          1
H         5.32404432       6.43476083       9.21129708         0.00000000       0.00000000       0.00000000          1
6
pbc=[F, F, F] list_num_par=6 frozen=false iter=20000 energy=-1.26974174 Lattice="15.00000000 0.00000000 0.00000000 0.00000000 15.00000000 0.00000000 0.00000000 0.00000000 15.00000000" energy_frozen_part=0.00000000 Properties=species:S:1:pos:R:3:velocities:R:3:Z:I:1
H         1.66502570       7.89710706       9.49720623         0.00000000       0.00000000       0.00000000          1
H         4.23362953       8.90386894       9.93650835         0.00000000       0.00000000       0.00000000          1
H         3.40483561       6.57478473      11.23755386         0.00000000       0.00000000       0.00000000          1
H         3.58485916       7.75833916       7.47253697         0.00000000       0.00000000       0.00000000          1
H         2.75606467       5.42925219       8.77358784         0.00000000       0.00000000       0.00000000          1
H         5.32466449       6.43601902       9.21288252         0.00000000       0.00000000       0.00000000          1
6
pbc=[F, F, F] list_num_par=6 frozen=false iter=20000 energy=-1.26974174 Lattice="15.00000000 0.00000000 0.00000000 0.00000000 15.00000000 0.00000000 0.00000000 0.00000000 15.00000000" energy_frozen_part=0.00000000 Properties=species:S:1:pos:R:3:velocities:R:3:Z:I:1
H         1.66492129       7.89709847       9.49729659         0.00000000       0.00000000       0.00000000          1
H         4.23351273       8.90393541       9.93653011         0.00000000       0.00000000       0.00000000          1
H         3.40482962       6.57479794      11.23756642         0.00000000       0.00000000       0.00000000          1
H         3.58468786       7.75842377       7.47256545         0.00000000       0.00000000       0.00000000          1
H         2.75600032       5.42929014       8.77360553         0.00000000       0.00000000       0.00000000          1
H         5.32459208       6.43612119       9.21283561         0.00000000       0.00000000       0.00000000          1
6
pbc=[F, F, F] list_num_par=6 frozen=false iter=20000 energy=-1.26974174 Lattice="15.00000000 0.00000000 0.00000000 0.00000000 15.00000000 0.00000000 0.00000000 0.00000000 15.00000000" energy_frozen_part=0.00000000 Properties=species:S:1:pos:R:3:velocities:R:3:Z:I:1
H         2.82776483       5.15660400       7.93437254         0.00000000       0.00000000       0.00000000          1
H         1.77499975       6.27807024      10.26637881         0.00000000       0.00000000       0.00000000          1
H         3.73549742       7.64560147       8.82049070         0.00000000       0.00000000       0.00000000          1
H         1.10755526       8.59282357       8.85190081         0.00000000       0.00000000       0.00000000          1
H         0.19982372       6.10383219       7.96578225         0.00000000       0.00000000       0.00000000          1
H         2.16032732       7.47135474       6.51989245         0.00000000       0.00000000       0.00000000          1
6
pbc=[F, F, F] list_num_par=6 frozen=false iter=20000 energy=-1.26974174 Lattice="15.00000000 0.00000000 0.00000000 0.00000000 15.00000000 0.00000000 0.00000000 0.00000000 15.00000000" energy_frozen_part=0.00000000 Properties=species:S:1:pos:R:3:velocities:R:3:Z:I:1
H         1.66578228       7.89883067       9.49783185         0.00000000       0.00000000       0.00000000          1
H         4.23536006       8.90287200       9.93766161         0.00000000       0.00000000       0.00000000          1
H         3.40475882       6.57318743      11.23648954         0.00000000       0.00000000       0.00000000          1
H         3.58509411       7.76043752       7.47265074         0.00000000       0.00000000       0.00000000          1
H         2.75449144       5.43075147       8.77148023         0.00000000       0.00000000       0.00000000          1
H         5.32406578       6.43478846       9.21130625         0.00000000       0.00000000       0.00000000          1
6
pbc=[F, F, F] list_num_par=6 frozen=false iter=20000 energy=-1.26974174 Lattice="15.00000000 0.00000000 0.00000000 0.00000000 15.00000000 0.00000000 0.00000000 0.00000000 15.00000000" energy_frozen_part=0.00000000 Properties=species:S:1:pos:R:3:velocities:R:3:Z:I:1
H         2.82815710       5.15692969       7.93442621         0.00000000       0.00000000       0.00000000          1
H         1.77494141       6.27825923      10.26629868         0.00000000       0.00000000       0.00000000          1
H         3.73566410       7.64590568       8.82082392         0.00000000       0.00000000       0.00000000          1
H         1.10769294       8.59305674       8.85181335         0.00000000       0.00000000       0.00000000          1
H         0.20018330       6.10407530       7.96541995         0.00000000       0.00000000       0.00000000          1
H         2.16089747       7.47172502       6.51993593         0.00000000       0.00000000       0.00000000          1
6
pbc=[F, F, F] list_num_par=6 frozen=false iter=20000 energy=-1.26974174 Lattice="15.00000000 0.00000000 0.00000000 0.00000000 15.00000000 0.00000000 0.00000000 0.00000000 15.00000000" energy_frozen_part=0.00000000 Properties=species:S:1:pos:R:3:velocities:R:3:Z:I:1
H         1.66501690       7.89714086       9.49734258         0.00000000       0.00000000       0.00000000          1
H         4.23367468       8.90372352       9.93672801         0.00000000       0.00000000       0.00000000          1
H         3.40476158       6.57455459      11.23755857         0.00000000       0.00000000       0.00000000          1
H         3.58483059       7.75846505       7.47265484         0.00000000       0.00000000       0.00000000          1
H         2.75591634       5.42930135       8.77348311         0.00000000       0.00000000       0.00000000          1
H         5.32457577       6.43588634       9.21287298         0.00000000       0.00000000       0.00000000          1
6
pbc=[F, F, F] list_num_par=6 frozen=false iter=20000 energy=-1.26974174 Lattice="15.00000000 0.00000000 0.00000000 0.00000000 15.00000000 0.00000000 0.00000000 0.00000000 15.00000000" energy_frozen_part=0.00000000 Properties=species:S:1:pos:R:3:velocities:R:3:Z:I:1
H         1.66502659       7.89709069       9.49721651         0.00000000       0.00000000       0.00000000          1
H         4.23362584       8.90386412       9.93649933         0.00000000       0.00000000       0.00000000          1
H         3.40484072       6.57477834      11.23756500         0.00000000       0.00000000       0.00000000          1
H         3.58484933       7.75831845       7.47253817         0.00000000       0.00000000       0.00000000          1
H         2.75605697       5.42923764       8.77360810         0.00000000       0.00000000       0.00000000          1
H         5.32465839       6.43600569       9.21289171         0.00000000       0.00000000       0.00000000          1
6
pbc=[F, F, F] list_num_par=6 frozen=false iter=20000 energy=-1.26974174 Lattice="15.00000000 0.00000000 0.00000000 0.00000000 15.00000000 0.00000000 0.00000000 0.00000000 15.00000000" energy_frozen_part=0.00000000 Properties=species:S:1:pos:R:3:velocities:R:3:Z:I:1
H         2.82784055       5.15686274       7.93433942         0.00000000       0.00000000       0.00000000          1
H         1.77494092       6.27829999      10.26630435         0.00000000       0.00000000       0.00000000          1
H         3.73545089       7.64588962       8.82048444         0.00000000       0.00000000       0.00000000          1
H         1.10747906       8.59301743       8.85179899         0.00000000       0.00000000       0.00000000          1
H         0.19986451       6.10399447       7.96564393         0.00000000       0.00000000       0.00000000          1
H         2.16037106       7.47158048       6.51982768         0.00000000       0.00000000       0.00000000          1
6
pbc=[F, F, F] list_num_par=6 frozen=false iter=20000 energy=-1.26974174 Lattice="15.00000000 0.00000000 0.00000000 0.00000000 15.00000000 0.00000000 0.00000000 0.00000000 15.00000000" energy_frozen_part=0.00000000 Properties=species:S:1:pos:R:3:velocities:R:3:Z:I:1
H         1.66506520       7.89721187       9.49725624         0.00000000       0.00000000       0.00000000          1
H         4.23375490       8.90367464       9.93673199         0.00000000       0.00000000       0.00000000          1
H         3.40470833       6.57450500      11.23748253         0.00000000       0.00000000       0.00000000          1
H         3.58492291       7.75850096       7.47260825         0.00000000       0.00000000       0.00000000          1
H         2.75587262       5.42933532       8.77336765         0.00000000       0.00000000       0.00000000          1
H         5.32456700       6.43580271       9.21283395         0.00000000       0.00000000       0.00000000          1
6
pbc=[F, F, F] list_num_par=6 frozen=false iter=20000 energy=-1.26974174 Lattice="15.00000000 0.00000000 0.00000000 0.00000000 15.00000000 0.00000000 0.00000000 0.00000000 15.00000000" energy_frozen_part=0.00000000 Properties=species:S:1:pos:R:3:velocities:R:3:Z:I:1
H         1.66500996       7.89716184       9.49736963         0.00000000       0.00000000       0.00000000          1
H         4.23368585       8.90371526       9.93674308         0.00000000       0.00000000       0.00000000          1
H         3.40473770       6.57456091      11.23758490         0.00000000       0.00000000       0.00000000          1
H         3.58481413       7.75845093       7.47267556         0.00000000       0.00000000       0.00000000          1
H         2.75586887       5.42929564       8.77351078         0.00000000       0.00000000       0.00000000          1
H         5.32454283       6.43585182       9.21289127         0.00000000       0.00000000       0.00000000          1
6
pbc=[F, F, F] list_num_par=6 frozen=false iter=20000 energy=-1.26974174 Lattice="15.00000000 0.00000000 0.00000000 0.00000000 15.00000000 0.00000000 0.00000000 0.00000000 15.00000000" energy_frozen_part=0.00000000 Properties=species:S:1:pos:R:3:velocities:R:3:Z:I:1
H         2.82826551       5.15690516       7.93437870         0.00000000       0.00000000       0.00000000          1
H         1.77499584       6.27812220      10.26628318         0.00000000       0.00000000       0.00000000          1
H         3.73563681       7.64591315       8.82083930         0.00000000       0.00000000       0.00000000          1
H         1.10761195       8.59291450       8.85184509         0.00000000       0.00000000       0.00000000          1
H         0.20024427       6.10390672       7.96539104         0.00000000       0.00000000       0.00000000          1
H         2.16088804       7.47169111       6.51994732         0.00000000       0.00000000       0.00000000          1
6
pbc=[F, F, F] list_num_par=6 frozen=false iter=20000 energy=-1.26974174 Lattice="15.00000000 0.00000000 0.00000000 0.00000000 15.00000000 0.00000000 0.00000000 0.00000000 15.00000000" energy_frozen_part=0.00000000 Properties=species:S:1:pos:R:3:velocities:R:3:Z:I:1
H         2.82826432       5.15689156       7.93439006         0.00000000       0.00000000       0.00000000          1
H         1.77499411       6.27812647      10.26627896         0.00000000       0.00000000       0.00000000          1
H         3.73564193       7.64590639       8.82082393         0.00000000       0.00000000       0.00000000          1
H         1.10762159       8.59291519       8.85183267         0.00000000       0.00000000       0.00000000          1
H         0.20024167       6.10390261       7.96539649         0.00000000       0.00000000       0.00000000          1
H         2.16088346       7.47167523       6.51993632         0.00000000       0.00000000       0.00000000          1
6
pbc=[F, F, F] list_num_par=6 frozen=false iter=20000 energy=-1.26974174 Lattice="15.00000000 0.00000000 0.00000000 0.00000000 15.00000000 0.00000000 0.00000000 0.00000000 15.00000000" energy_frozen_part=0.00000000 Properties=species:S:1:pos:R:3:velocities:R:3:Z:I:1
H         2.82782922       5.15661519       7.93437772         0.00000000       0.00000000       0.00000000          1
H         1.77499268       6.27799547      10.26640014         0.00000000       0.00000000       0.00000000          1
H         3.73547985       7.64560764       8.82057332         0.00000000       0.00000000       0.00000000          1
H         1.10752111       8.59276273       8.85197578         0.00000000       0.00000000       0.00000000          1
H         0.19986293       6.10377061       7.96577535         0.00000000       0.00000000       0.00000000          1
H         2.16034539       7.47138348       6.51994759         0.00000000       0.00000000       0.00000000          1
6
pbc=[F, F, F] list_num_par=6 frozen=false iter=20000 energy=-1.26974174 Lattice="15.00000000 0.00000000 0.00000000 0.00000000 15.00000000 0.00000000 0.00000000 0.00000000 15.00000000" energy_frozen_part=0.00000000 Properties=species:S:1:pos:R:3:velocities:R:3:Z:I:1
H         2.82786159       5.15687355       7.93434139         0.00000000       0.00000000       0.00000000          1
H         1.77492422       6.27829946      10.26629398         0.00000000       0.00000000       0.00000000          1
H         3.73543486       7.64591561       8.82049557         0.00000000       0.00000000       0.00000000          1
H         1.10744495       8.59301176       8.85177000         0.00000000       0.00000000       0.00000000          1
H         0.19987224       6.10396694       7.96562321         0.00000000       0.00000000       0.00000000          1
H         2.16037789       7.47158218       6.51982328         0.00000000       0.00000000       0.00000000          1
6
pbc=[F, F, F] list_num_par=6 frozen=false iter=20000 energy=-1.26974174 Lattice="15.00000000 0.00000000 0.00000000 0.00000000 15.00000000 0.00000000 0.00000000 0.00000000 15.00000000" energy_frozen_part=0.00000000 Properties=species:S:1:pos:R:3:velocities:R:3:Z:I:1
H         1.66506234       7.89723296       9.49725102         0.00000000       0.00000000       0.00000000          1
H         4.23376110       8.90368498       9.93672986         0.00000000       0.00000000       0.00000000          1
H         3.40469239       6.57453630      11.23748863         0.00000000       0.00000000       0.00000000          1
H         3.58492599       7.75849970       7.47261697         0.00000000       0.00000000       0.00000000          1
H         2.75586489       5.42934573       8.77337520         0.00000000       0.00000000       0.00000000          1
H         5.32455938       6.43579994       9.21284995         0.00000000       0.00000000       0.00000000          1
6
pbc=[F, F, F] list_num_par=6 frozen=false iter=20000 energy=-1.26974174 Lattice="15.00000000 0.00000000 0.00000000 0.00000000 15.00000000 0.00000000 0.00000000 0.00000000 15.00000000" energy_frozen_part=0.00000000 Properties=species:S:1:pos:R:3:velocities:R:3:Z:I:1
H         1.66578293       7.89884358       9.49789728         0.00000000       0.00000000       0.00000000          1
H         4.23538710       8.90285158       9.93764585         0.00000000       0.00000000       0.00000000          1
H         3.40478503       6.57319449      11.23652573         0.00000000       0.00000000       0.00000000          1
H         3.58504027       7.76039405       7.47266108         0.00000000       0.00000000       0.00000000          1
H         2.75443603       5.43074096       8.77153828         0.00000000       0.00000000       0.00000000          1
H         5.32403818       6.43474985       9.21128849         0.00000000       0.00000000       0.00000000          1
6
pbc=[F, F, F] list_num_par=6 frozen=false iter=20000 energy=-1.26974174 Lattice="15.00000000 0.00000000 0.00000000 0.00000000 15.00000000 0.00000000 0.00000000 0.00000000 15.00000000" energy_frozen_part=0.00000000 Properties=species:S:1:pos:R:3:velocities:R:3:Z:I:1
H         1.66504914       7.89721323       9.49727011         0.00000000       0.00000000       0.00000000          1
H         4.23373363       8.90368119       9.93674123         0.00000000       0.00000000       0.00000000          1
H         3.40470208       6.57450934      11.23748430         0.00000000       0.00000000       0.00000000          1
H         3.58489987       7.75851193       7.47261721         0.00000000       0.00000000       0.00000000          1
H         2.75586998       5.42934302       8.77336550         0.00000000       0.00000000       0.00000000          1
H         5.32455711       6.43581866       9.21283480         0.00000000       0.00000000       0.00000000          1
6
pbc=[F, F, F] list_num_par=6 frozen=false iter=20000 energy=-1.26974174 Lattice="15.00000000 0.00000000 0.00000000 0.00000000 15.00000000 0.00000000 0.00000000 0.00000000 15.00000000" energy_frozen_part=0.00000000 Properties=species:S:1:pos:R:3:velocities:R:3:Z:I:1
H         1.66576723       7.89878916       9.49784572         0.00000000       0.00000000       0.00000000          1
H         4.23532577       8.90287892       9.93768505         0.00000000       0.00000000       0.00000000          1
H         3.40477505       6.57315975      11.23648515         0.00000000       0.00000000       0.00000000          1
H         3.58508185       7.76046779       7.47266015         0.00000000       0.00000000       0.00000000          1
H         2.75452201       5.43074698       8.77145563         0.00000000       0.00000000       0.00000000          1
H         5.32408271       6.43483546       9.21129756         0.00000000       0.00000000       0.00000000          1
6
pbc=[F, F, F] list_num_par=6 frozen=false iter=20000 energy=-1.26974174 Lattice="15.00000000 0.00000000 0.00000000 0.00000000 15.00000000 0.00000000 0.00000000 0.00000000 15.00000000" energy_frozen_part=0.00000000 Properties=species:S:1:pos:R:3:velocities:R:3:Z:I:1
H         1.65959367       7.89359865       9.50106499         0.00000000       0.00000000       0.00000000          1
H         4.22733080       8.90407062       9.93691616         0.00000000       0.00000000       0.00000000          1
H         3.40205058       6.57633231      11.24260685         0.00000000       0.00000000       0.00000000          1
H         3.57826242       7.75346194       7.47539072         0.00000000       0.00000000       0.00000000          1
H         2.75297457       5.42572065       8.78108734         0.00000000       0.00000000       0.00000000          1
H         5.32071267       6.43619199       9.21692921         0.00000000       0.00000000       0.00000000          1
6
pbc=[F, F, F] list_num_par=6 frozen=false iter=20000 energy=-1.26974174 Lattice="15.00000000 0.00000000 0.00000000 0.00000000 15.00000000 0.00000000 0.00000000 0.00000000 15.00000000" energy_frozen_part=0.00000000 Properties=species:S:1:pos:R:3:velocities:R:3:Z:I:1
H         1.66577780       7.89885460       9.49790193         0.00000000       0.00000000       0.00000000          1
H         4.23538639       8.90285578       9.93763328         0.00000000       0.00000000       0.00000000          1
H         3.40478130       6.57319562      11.23651423         0.00000000       0.00000000       0.00000000          1
H         3.58501976       7.76039896       7.47265948         0.00000000       0.00000000       0.00000000          1
H         2.75441359       5.43074557       8.77154126         0.00000000       0.00000000       0.00000000          1
H         5.32402433       6.43475035       9.21127278         0.00000000       0.00000000       0.00000000          1
6
pbc=[F, F, F] list_num_par=6 frozen=false iter=20000 energy=-1.26974174 Lattice="15.00000000 0.00000000 0.00000000 0.00000000 15.00000000 0.00000000 0.00000000 0.00000000 15.00000000" energy_frozen_part=0.00000000 Properties=species:S:1:pos:R:3:velocities:R:3:Z:I:1
H         2.82782251       5.15663502       7.93437560         0.00000000       0.00000000       0.00000000          1
H         1.77498741       6.27802881      10.26639238         0.00000000       0.00000000       0.00000000          1
H         3.73547626       7.64563657       8.82055333         0.00000000       0.00000000       0.00000000          1
H         1.10751533       8.59278969       8.85194672         0.00000000       0.00000000       0.00000000          1
H         0.19985987       6.10378826       7.96576162         0.00000000       0.00000000       0.00000000          1
H         2.16034244       7.47139692       6.51992651         0.00000000       0.00000000       0.00000000          1
6
pbc=[F, F, F] list_num_par=6 frozen=false iter=20000 energy=-1.26974174 Lattice="15.00000000 0.00000000 0.00000000 0.00000000 15.00000000 0.00000000 0.00000000 0.00000000 15.00000000" energy_frozen_part=0.00000000 Properties=species:S:1:pos:R:3:velocities:R:3:Z:I:1
H         1.66493078       7.89710293       9.49731321         0.00000000       0.00000000       0.00000000          1
H         4.23351461       8.90393446       9.93656892         0.00000000       0.00000000       0.00000000          1
H         3.40482248       6.57478030      11.23757761         0.00000000       0.00000000       0.00000000          1
H         3.58471153       7.75846119       7.47258510         0.00000000       0.00000000       0.00000000          1
H         2.75601977       5.42930581       8.77358983         0.00000000       0.00000000       0.00000000          1
H         5.32460121       6.43613571       9.21284788         0.00000000       0.00000000       0.00000000          1
6
pbc=[F, F, F] list_num_par=6 frozen=false iter=20000 energy=-1.26974174 Lattice="15.00000000 0.00000000 0.00000000 0.00000000 15.00000000 0.00000000 0.00000000 0.00000000 15.00000000" energy_frozen_part=0.00000000 Properties=species:S:1:pos:R:3:velocities:R:3:Z:I:1
H         2.82784909       5.15686164       7.93434625         0.00000000       0.00000000       0.00000000          1
H         1.77492376       6.27830363      10.26629358         0.00000000       0.00000000       0.00000000          1
H         3.73543171       7.64590479       8.82049762         0.00000000       0.00000000       0.00000000          1
H         1.10744956       8.59301132       8.85176998         0.00000000       0.00000000       0.00000000          1
H         0.19987053       6.10397354       7.96561924         0.00000000       0.00000000       0.00000000          1
H         2.16038258       7.47157292       6.51982140         0.00000000       0.00000000       0.00000000          1
6
pbc=[F, F, F] list_num_par=6 frozen=false iter=20000 energy=-1.26974174 Lattice="15.00000000 0.00000000 0.00000000 0.00000000 15.00000000 0.00000000 0.00000000 0.00000000 15.00000000" energy_frozen_part=0.00000000 Properties=species:S:1:pos:R:3:velocities:R:3:Z:I:1
H         1.65958869       7.89359969       9.50107833         0.00000000       0.00000000       0.00000000          1
H         4.22732906       8.90406841       9.93690853         0.00000000       0.00000000       0.00000000          1
H         3.40204532       6.57633252      11.24261034         0.00000000       0.00000000       0.00000000          1
H         3.57824538       7.75344669       7.47539295         0.00000000       0.00000000       0.00000000          1
H         2.75296385       5.42572124       8.78109261         0.00000000       0.00000000       0.00000000          1
H         5.32070448       6.43618337       9.21693228         0.00000000       0.00000000       0.00000000          1
6
pbc=[F, F, F] list_num_par=6 frozen=false iter=20000 energy=-1.26974174 Lattice="15.00000000 0.00000000 0.00000000 0.00000000 15.00000000 0.00000000 0.00000000 0.00000000 15.00000000" energy_frozen_part=0.00000000 Properties=species:S:1:pos:R:3:velocities:R:3:Z:I:1
H         2.82785675       5.15685036       7.93434743         0.00000000       0.00000000       0.00000000          1
H         1.77491788       6.27830516      10.26628810         0.00000000       0.00000000       0.00000000          1
H         3.73544484       7.64589035       8.82049515         0.00000000       0.00000000       0.00000000          1
H         1.10746817       8.59301484       8.85175933         0.00000000       0.00000000       0.00000000          1
H         0.19987530       6.10397652       7.96560490         0.00000000       0.00000000       0.00000000          1
H         2.16040618       7.47156447       6.51981208         0.00000000       0.00000000       0.00000000          1
6
pbc=[F, F, F] list_num_par=6 frozen=false iter=20000 energy=-1.26974174 Lattice="15.00000000 0.00000000 0.00000000 0.00000000 15.00000000 0.00000000 0.00000000 0.00000000 15.00000000" energy_frozen_part=0.00000000 Properties=species:S:1:pos:R:3:velocities:R:3:Z:I:1
H         2.82781682       5.15686023       7.93436263         0.00000000       0.00000000       0.00000000          1
H         1.77490455       6.27833090      10.26631274         0.00000000       0.00000000       0.00000000          1
H         3.73544575       7.64588258       8.82051486         0.00000000       0.00000000       0.00000000          1
H         1.10748402       8.59304840       8.85177761         0.00000000       0.00000000       0.00000000          1
H         0.19985664       6.10402336       7.96563496         0.00000000       0.00000000       0.00000000          1
H         2.16039907       7.47158764       6.51983396         0.00000000       0.00000000       0.00000000          1
6
pbc=[F, F, F] list_num_par=6 frozen=false iter=20000 energy=-1.26974174 Lattice="15.00000000 0.00000000 0.00000000 0.00000000 15.00000000 0.00000000 0.00000000 0.00000000 15.00000000" energy_frozen_part=0.00000000 Properties=species:S:1:pos:R:3:velocities:R:3:Z:I:1
H         1.65960040       7.89360831       9.50107406         0.00000000       0.00000000       0.00000000          1
H         4.22733814       8.90406348       9.93691513         0.00000000       0.00000000       0.00000000          1
H         3.40205659       6.57632707      11.24260153         0.00000000       0.00000000       0.00000000          1
H         3.57825782       7.75346446       7.47538944         0.00000000       0.00000000       0.00000000          1
H         2.75297137       5.42573035       8.78107793         0.00000000       0.00000000       0.00000000          1
H         5.32071116       6.43618897       9.21691880         0.00000000       0.00000000       0.00000000          1
6
pbc=[F, F, F] list_num_par=6 frozen=false iter=20000 energy=-1.26974174 Lattice="15.00000000 0.00000000 0.00000000 0.00000000 15.00000000 0.00000000 0.00000000 0.00000000 15.00000000" energy_frozen_part=0.00000000 Properties=species:S:1:pos:R:3:velocities:R:3:Z:I:1
H         2.82784104       5.15687777       7.93432884         0.00000000       0.00000000       0.00000000          1
H         1.77494149       6.27831365      10.26629219         0.00000000       0.00000000       0.00000000          1
H         3.73544658       7.64590525       8.82047874         0.00000000       0.00000000       0.00000000          1
H         1.10746907       8.59302975       8.85177763         0.00000000       0.00000000       0.00000000          1
H         0.19986811       6.10399762       7.96562975         0.00000000       0.00000000       0.00000000          1
H         2.16037765       7.47159601       6.51981851         0.00000000       0.00000000       0.00000000          1
6
pbc=[F, F, F] list_num_par=6 frozen=false iter=20000 energy=-1.26974174 Lattice="15.00000000 0.00000000 0.00000000 0.00000000 15.00000000 0.00000000 0.00000000 0.00000000 15.00000000" energy_frozen_part=0.00000000 Properties=species:S:1:pos:R:3:velocities:R:3:Z:I:1
H         2.82825045       5.15686558       7.93440435         0.00000000       0.00000000       0.00000000          1
H         1.77495076       6.27812845      10.26627389         0.00000000       0.00000000       0.00000000          1
H         3.73564215       7.64586690       8.82085577         0.00000000       0.00000000       0.00000000          1
H         1.10763676       8.59291672       8.85179584         0.00000000       0.00000000       0.00000000          1
H         0.20024387       6.10391505       7.96535193         0.00000000       0.00000000       0.00000000          1
H         2.16093931       7.47165801       6.51993339         0.00000000       0.00000000       0.00000000          1
6
pbc=[F, F, F] list_num_par=6 frozen=false iter=20000 energy=-1.26974174 Lattice="15.00000000 0.00000000 0.00000000 0.00000000 15.00000000 0.00000000 0.00000000 0.00000000 15.00000000" energy_frozen_part=0.00000000 Properties=species:S:1:pos:R:3:velocities:R:3:Z:I:1
H         2.82788691       5.15686086       7.93436315         0.00000000       0.00000000       0.00000000          1
H         1.77492747       6.27829043      10.26630969         0.00000000       0.00000000       0.00000000          1
H         3.73541980       7.64591870       8.82050348         0.00000000       0.00000000       0.00000000          1
H         1.10742690       8.59298922       8.85177383         0.00000000       0.00000000       0.00000000          1
H         0.19988374       6.10393031       7.96563569         0.00000000       0.00000000       0.00000000          1
H         2.16037545       7.47155350       6.51982914         0.00000000       0.00000000       0.00000000          1
6
pbc=[F, F, F] list_num_par=6 frozen=false iter=20000 energy=-1.26974174 Lattice="15.00000000 0.00000000 0.00000000 0.00000000 15.00000000 0.00000000 0.00000000 0.00000000 15.00000000" energy_frozen_part=0.00000000 Properties=species:S:1:pos:R:3:velocities:R:3:Z:I:1
H         1.66506507       7.89722297       9.49725893         0.00000000       0.00000000       0.00000000          1
H         4.23375679       8.90368335       9.93672969         0.00000000       0.00000000       0.00000000          1
H         3.40470655       6.57451815      11.23748453         0.00000000       0.00000000       0.00000000          1
H         3.58492043       7.75850148       7.47260908         0.00000000       0.00000000       0.00000000          1
H         2.75587217       5.42934561       8.77336778         0.00000000       0.00000000       0.00000000          1
H         5.32456786       6.43580975       9.21284045         0.00000000       0.00000000       0.00000000          1
6
pbc=[F, F, F] list_num_par=6 frozen=false iter=20000 energy=-1.26974174 Lattice="15.00000000 0.00000000 0.00000000 0.00000000 15.00000000 0.00000000 0.00000000 0.00000000 15.00000000" energy_frozen_part=0.00000000 Properties=species:S:1:pos:R:3:velocities:R:3:Z:I:1
H         2.82784703       5.15686539       7.93433420         0.00000000       0.00000000       0.00000000          1
H         1.77492439       6.27829931      10.26629006         0.00000000       0.00000000       0.00000000          1
H         3.73544083       7.64589404       8.82049610         0.00000000       0.00000000       0.00000000          1
H         1.10745813       8.59301870       8.85177662         0.00000000       0.00000000       0.00000000          1
H         0.19986440       6.10398716       7.96561716         0.00000000       0.00000000       0.00000000          1
H         2.16038310       7.47158534       6.51981984         0.00000000       0.00000000       0.00000000          1
6
pbc=[F, F, F] list_num_par=6 frozen=false iter=20000 energy=-1.26974174 Lattice="15.00000000 0.00000000 0.00000000 0.00000000 15.00000000 0.00000000 0.00000000 0.00000000 15.00000000" energy_frozen_part=0.00000000 Properties=species:S:1:pos:R:3:velocities:R:3:Z:I:1
H         1.66502514       7.89717590       9.49736437         0.00000000       0.00000000       0.00000000          1
H         4.23370208       8.90372615       9.93672258         0.00000000       0.00000000       0.00000000          1
H         3.40475867       6.57458059      11.23757977         0.00000000       0.00000000       0.00000000          1
H         3.58482072       7.75844937       7.47266850         0.00000000       0.00000000       0.00000000          1
H         2.75587941       5.42930163       8.77352492         0.00000000       0.00000000       0.00000000          1
H         5.32455487       6.43585551       9.21288148         0.00000000       0.00000000       0.00000000          1
6
pbc=[F, F, F] list_num_par=6 frozen=false iter=20000 energy=-1.26974174 Lattice="15.00000000 0.00000000 0.00000000 0.00000000 15.00000000 0.00000000 0.00000000 0.00000000 15.00000000" energy_frozen_part=0.00000000 Properties=species:S:1:pos:R:3:velocities:R:3:Z:I:1
H         2.82783638       5.15686857       7.93433847         0.00000000       0.00000000       0.00000000          1
H         1.77493603       6.27830581      10.26630990         0.00000000       0.00000000       0.00000000          1
H         3.73545248       7.64589441       8.82049769         0.00000000       0.00000000       0.00000000          1
H         1.10747802       8.59302338       8.85180098         0.00000000       0.00000000       0.00000000          1
H         0.19986509       6.10399781       7.96564380         0.00000000       0.00000000       0.00000000          1
H         2.16037654       7.47159325       6.51983269         0.00000000       0.00000000       0.00000000          1
6
pbc=[F, F, F] list_num_par=6 frozen=false iter=20000 energy=-1.26974174 Lattice="15.00000000 0.00000000 0.00000000 0.00000000 15.00000000 0.00000000 0.00000000 0.00000000 15.00000000" energy_frozen_part=0.00000000 Properties=species:S:1:pos:R:3:velocities:R:3:Z:I:1
H         2.82826819       5.15690053       7.93438491         0.00000000       0.00000000       0.00000000          1
H         1.77497693       6.27811918      10.26627910         0.00000000       0.00000000       0.00000000          1
H         3.73564008       7.64590560       8.82084560         0.00000000       0.00000000       0.00000000          1
H         1.10761803       8.59291053       8.85183358         0.00000000       0.00000000       0.00000000          1
H         0.20024725       6.10390507       7.96537189         0.00000000       0.00000000       0.00000000          1
H         2.16091226       7.47169296       6.51994339         0.00000000       0.00000000       0.00000000          1
6
pbc=[F, F, F] list_num_par=6 frozen=false iter=20000 energy=-1.26974174 Lattice="15.00000000 0.00000000 0.00000000 0.00000000 15.00000000 0.00000000 0.00000000 0.00000000 15.00000000" energy_frozen_part=0.00000000 Properties=species:S:1:pos:R:3:velocities:R:3:Z:I:1
H         1.66506227       7.89722681       9.49725807         0.00000000       0.00000000       0.00000000          1
H         4.23376129       8.90367908       9.93672382         0.00000000       0.00000000       0.00000000          1
H         3.40470253       6.57452520      11.23748597         0.00000000       0.00000000       0.00000000          1
H         3.58492335       7.75849575       7.47261529         0.00000000       0.00000000       0.00000000          1
H         2.75586167       5.42934662       8.77337907         0.00000000       0.00000000       0.00000000          1
H         5.32456162       6.43580009       9.21284725         0.00000000       0.00000000       0.00000000          1
6
pbc=[F, F, F] list_num_par=6 frozen=false iter=20000 energy=-1.26974174 Lattice="15.00000000 0.00000000 0.00000000 0.00000000 15.00000000 0.00000000 0.00000000 0.00000000 15.00000000" energy_frozen_part=0.00000000 Properties=species:S:1:pos:R:3:velocities:R:3:Z:I:1
H         2.82781878       5.15662508       7.93438118         0.00000000       0.00000000       0.00000000          1
H         1.77498636       6.27801012      10.26639647         0.00000000       0.00000000       0.00000000          1
H         3.73547265       7.64562341       8.82056736         0.00000000       0.00000000       0.00000000          1
H         1.10750634       8.59277130       8.85196193         0.00000000       0.00000000       0.00000000          1
H         0.19985034       6.10377249       7.96576855         0.00000000       0.00000000       0.00000000          1
H         2.16033246       7.47138783       6.51994342         0.00000000       0.00000000       0.00000000          1
6
pbc=[F, F, F] list_num_par=6 frozen=false iter=20000 energy=-1.26974174 Lattice="15.00000000 0.00000000 0.00000000 0.00000000 15.00000000 0.00000000 0.00000000 0.00000000 15.00000000" energy_frozen_part=0.00000000 Properties=species:S:1:pos:R:3:velocities:R:3:Z:I:1
H         2.82777726       5.15659944       7.93438503         0.00000000       0.00000000       0.00000000          1
H         1.77499058       6.27806931      10.26638277         0.00000000       0.00000000       0.00000000          1
H         3.73549864       7.64559186       8.82050708         0.00000000       0.00000000       0.00000000          1
H         1.10755835       8.59281619       8.85190163         0.00000000       0.00000000       0.00000000          1
H         0.19983764       6.10381641       7.96577032         0.00000000       0.00000000       0.00000000          1
H         2.16034546       7.47134853       6.51989753         0.00000000       0.00000000       0.00000000          1
6
pbc=[F, F, F] list_num_par=6 frozen=false iter=20000 energy=-1.26974174 Lattice="15.00000000 0.00000000 0.00000000 0.00000000 15.00000000 0.00000000 0.00000000 0.00000000 15.00000000" energy_frozen_part=0.00000000 Properties=species:S:1:pos:R:3:velocities:R:3:Z:I:1
H         1.66502657       7.89709581       9.49719594         0.00000000       0.00000000       0.00000000          1
H         4.23362838       8.90386217       9.93649298         0.00000000       0.00000000       0.00000000          1
H         3.40482602       6.57478574      11.23755561         0.00000000       0.00000000       0.00000000          1
H         3.58485096       7.75831442       7.47252801         0.00000000       0.00000000       0.00000000          1
H         2.75605464       5.42923661       8.77359627         0.00000000       0.00000000       0.00000000          1
H         5.32465624       6.43600350       9.21289074         0.00000000       0.00000000       0.00000000          1
6
pbc=[F, F, F] list_num_par=6 frozen=false iter=20000 energy=-1.26974174 Lattice="15.00000000 0.00000000 0.00000000 0.00000000 15.00000000 0.00000000 0.00000000 0.00000000 15.00000000" energy_frozen_part=0.00000000 Properties=species:S:1:pos:R:3:velocities:R:3:Z:I:1
H         2.82783353       5.15686776       7.93433439         0.00000000       0.00000000       0.00000000          1
H         1.77493314       6.27829879      10.26630281         0.00000000       0.00000000       0.00000000          1
H         3.73544352       7.64589721       8.82049806         0.00000000       0.00000000       0.00000000          1
H         1.10747210       8.59302678       8.85180703         0.00000000       0.00000000       0.00000000          1
H         0.19986411       6.10400381       7.96564265         0.00000000       0.00000000       0.00000000          1
H         2.16037616       7.47160029       6.51983679         0.00000000       0.00000000       0.00000000          1
6
pbc=[F, F, F] list_num_par=6 frozen=false iter=20000 energy=-1.26974174 Lattice="15.00000000 0.00000000 0.00000000 0.00000000 15.00000000 0.00000000 0.00000000 0.00000000 15.00000000" energy_frozen_part=0.00000000 Properties=species:S:1:pos:R:3:velocities:R:3:Z:I:1
H         2.82777010       5.15659468       7.93437743         0.00000000       0.00000000       0.00000000          1
H         1.77498259       6.27806789      10.26637972         0.00000000       0.00000000       0.00000000          1
H         3.73550142       7.64558483       8.82050555         0.00000000       0.00000000       0.00000000          1
H         1.10756158       8.59281273       8.85189674         0.00000000       0.00000000       0.00000000          1
H         0.19983592       6.10382148       7.96575822         0.00000000       0.00000000       0.00000000          1
H         2.16035131       7.47134850       6.51989423         0.00000000       0.00000000       0.00000000          1
6
pbc=[F, F, F] list_num_par=6 frozen=false iter=20000 energy=-1.26974174 Lattice="15.00000000 0.00000000 0.00000000 0.00000000 15.00000000 0.00000000 0.00000000 0.00000000 15.00000000" energy_frozen_part=0.00000000 Properties=species:S:1:pos:R:3:velocities:R:3:Z:I:1
H         1.66503128       7.89708184       9.49720799         0.00000000       0.00000000       0.00000000          1
H         4.23363049       8.90386989       9.93649261         0.00000000       0.00000000       0.00000000          1
H         3.40485235       6.57477488      11.23755468         0.00000000       0.00000000       0.00000000          1
H         3.58485843       7.75832091       7.47253461         0.00000000       0.00000000       0.00000000          1
H         2.75607548       5.42923224       8.77359552         0.00000000       0.00000000       0.00000000          1
H         5.32467810       6.43601618       9.21288091         0.00000000       0.00000000       0.00000000          1
6
pbc=[F, F, F] list_num_par=6 frozen=false iter=20000 energy=-1.26974174 Lattice="15.00000000 0.00000000 0.00000000 0.00000000 15.00000000 0.00000000 0.00000000 0.00000000 15.00000000" energy_frozen_part=0.00000000 Properties=species:S:1:pos:R:3:velocities:R:3:Z:I:1
H         2.82784406       5.15688196       7.93435188         0.00000000       0.00000000       0.00000000          1
H         1.77489131       6.27832165      10.26629001         0.00000000       0.00000000       0.00000000          1
H         3.73541874       7.64592726       8.82050878         0.00000000       0.00000000       0.00000000          1
H         1.10743036       8.59302915       8.85175245         0.00000000       0.00000000       0.00000000          1
H         0.19986071       6.10398599       7.96559640         0.00000000       0.00000000       0.00000000          1
H         2.16039061       7.47159247       6.51981955         0.00000000       0.00000000       0.00000000          1
6
pbc=[F, F, F] list_num_par=6 frozen=false iter=20000 energy=-1.26974174 Lattice="15.00000000 0.00000000 0.00000000 0.00000000 15.00000000 0.00000000 0.00000000 0.00000000 15.00000000" energy_frozen_part=0.00000000 Properties=species:S:1:pos:R:3:velocities:R:3:Z:I:1
H         1.66503354       7.89715898       9.49735761         0.00000000       0.00000000       0.00000000          1
H         4.23370511       8.90372577       9.93671057         0.00000000       0.00000000       0.00000000          1
H         3.40478044       6.57457855      11.23756969         0.00000000       0.00000000       0.00000000          1
H         3.58482795       7.75844613       7.47265739         0.00000000       0.00000000       0.00000000          1
H         2.75589852       5.42929494       8.77351699         0.00000000       0.00000000       0.00000000          1
H         5.32457636       6.43586014       9.21286421         0.00000000       0.00000000       0.00000000          1
6
pbc=[F, F, F] list_num_par=6 frozen=false iter=20000 energy=-1.26974174 Lattice="15.00000000 0.00000000 0.00000000 0.00000000 15.00000000 0.00000000 0.00000000 0.00000000 15.00000000" energy_frozen_part=0.00000000 Properties=species:S:1:pos:R:3:velocities:R:3:Z:I:1
H         1.66490325       7.89709957       9.49728650         0.00000000       0.00000000       0.00000000          1
H         4.23348496       8.90393968       9.93652247         0.00000000       0.00000000       0.00000000          1
H         3.40481109       6.57480903      11.23756793         0.00000000       0.00000000       0.00000000          1
H         3.58467462       7.75842438       7.47255888         0.00000000       0.00000000       0.00000000          1
H         2.75599967       5.42928860       8.77360322         0.00000000       0.00000000       0.00000000          1
H         5.32458262       6.43613559       9.21283107         0.00000000       0.00000000       0.00000000          1
6
pbc=[F, F, F] list_num_par=6 frozen=false iter=20000 energy=-1.26974174 Lattice="15.00000000 0.00000000 0.00000000 0.00000000 15.00000000 0.00000000 0.00000000 0.00000000 15.00000000" energy_frozen_part=0.00000000 Properties=species:S:1:pos:R:3:velocities:R:3:Z:I:1
H         2.82826285       5.15689325       7.93437589         0.00000000       0.00000000       0.00000000          1
H         1.77498914       6.27811546      10.26627434         0.00000000       0.00000000       0.00000000          1
H         3.73563517       7.64590431       8.82083026         0.00000000       0.00000000       0.00000000          1
H         1.10761264       8.59291353       8.85183556         0.00000000       0.00000000       0.00000000          1
H         0.20024498       6.10390477       7.96538166         0.00000000       0.00000000       0.00000000          1
H         2.16089381       7.47169050       6.51993934         0.00000000       0.00000000       0.00000000          1
6
pbc=[F, F, F] list_num_par=6 frozen=false iter=20000 energy=-1.26974174 Lattice="15.00000000 0.00000000 0.00000000 0.00000000 15.00000000 0.00000000 0.00000000 0.00000000 15.00000000" energy_frozen_part=0.00000000 Properties=species:S:1:pos:R:3:velocities:R:3:Z:I:1
H         2.82782283       5.15663304       7.93437361         0.00000000       0.00000000       0.00000000          1
H         1.77498097       6.27802307      10.26638686         0.00000000       0.00000000       0.00000000          1
H         3.73548012       7.64562913       8.82056312         0.00000000       0.00000000       0.00000000          1
H         1.10751540       8.59278653       8.85194685         0.00000000       0.00000000       0.00000000          1
H         0.19985503       6.10379063       7.96575816         0.00000000       0.00000000       0.00000000          1
H         2.16035352       7.47139723       6.51993398         0.00000000       0.00000000       0.00000000          1
6
pbc=[F, F, F] list_num_par=6 frozen=false iter=20000 energy=-1.26974174 Lattice="15.00000000 0.00000000 0.00000000 0.00000000 15.00000000 0.00000000 0.00000000 0.00000000 15.00000000" energy_frozen_part=0.00000000 Properties=species:S:1:pos:R:3:velocities:R:3:Z:I:1
H         2.82784160       5.15694951       7.93433236         0.00000000       0.00000000       0.00000000          1
H         1.77512338       6.27852086      10.26631563         0.00000000       0.00000000       0.00000000          1
H         3.73550145       7.64604179       8.82024989         0.00000000       0.00000000       0.00000000          1
H         1.10752373       8.59314593       8.85171202         0.00000000       0.00000000       0.00000000          1
H         0.19985669       6.10405427       7.96579649         0.00000000       0.00000000       0.00000000          1
H         2.16023136       7.47157227       6.51973237         0.00000000       0.00000000       0.00000000          1
6
pbc=[F, F, F] list_num_par=6 frozen=false iter=20000 energy=-1.26974174 Lattice="15.00000000 0.00000000 0.00000000 0.00000000 15.00000000 0.00000000 0.00000000 0.00000000 15.00000000" energy_frozen_part=0.00000000 Properties=species:S:1:pos:R:3:velocities:R:3:Z:I:1
H         2.82784356       5.15684938       7.93433820         0.00000000       0.00000000       0.00000000          1
H         1.77491876       6.27830115      10.26628515         0.00000000       0.00000000       0.00000000          1
H         3.73544336       7.64588597       8.82049071         0.00000000       0.00000000       0.00000000          1
H         1.10747067       8.59301498       8.85175713         0.00000000       0.00000000       0.00000000          1
H         0.19987044       6.10398492       7.96560751         0.00000000       0.00000000       0.00000000          1
H         2.16039547       7.47156116       6.51980832         0.00000000       0.00000000       0.00000000          1
6
pbc=[F, F, F] list_num_par=6 frozen=false iter=20000 energy=-1.26974174 Lattice="15.00000000 0.00000000 0.00000000 0.00000000 15.00000000 0.00000000 0.00000000 0.00000000 15.00000000" energy_frozen_part=0.00000000 Properties=species:S:1:pos:R:3:velocities:R:3:Z:I:1
H         1.66502479       7.89715738       9.49734773         0.00000000       0.00000000       0.00000000          1
H         4.23369651       8.90372832       9.93671822         0.00000000       0.00000000       0.00000000          1
H         3.40476625       6.57458033      11.23756487         0.00000000       0.00000000       0.00000000          1
H         3.58483419       7.75845529       7.47265595         0.00000000       0.00000000       0.00000000          1
H         2.75590355       5.42930510       8.77350426         0.00000000       0.00000000       0.00000000          1
H         5.32457247       6.43587049       9.21287302         0.00000000       0.00000000       0.00000000          1
6
pbc=[F, F, F] list_num_par=6 frozen=false iter=20000 energy=-1.26974174 Lattice="15.00000000 0.00000000 0.00000000 0.00000000 15.00000000 0.00000000 0.00000000 0.00000000 15.00000000" energy_frozen_part=0.00000000 Properties=species:S:1:pos:R:3:velocities:R:3:Z:I:1
H         1.66578514       7.89885346       9.49790102         0.00000000       0.00000000       0.00000000          1
H         4.23538888       8.90286118       9.93764433         0.00000000       0.00000000       0.00000000          1
H         3.40478363       6.57320418      11.23652701         0.00000000       0.00000000       0.00000000          1
H         3.58503808       7.76040660       7.47266588         0.00000000       0.00000000       0.00000000          1
H         2.75443704       5.43074921       8.77154895         0.00000000       0.00000000       0.00000000          1
H         5.32404127       6.43475423       9.21129033         0.00000000       0.00000000       0.00000000          1
6
pbc=[F, F, F] list_num_par=6 frozen=false iter=20000 energy=-1.26974174 Lattice="15.00000000 0.00000000 0.00000000 0.00000000 15.00000000 0.00000000 0.00000000 0.00000000 15.00000000" energy_frozen_part=0.00000000 Properties=species:S:1:pos:R:3:velocities:R:3:Z:I:1
H         2.82784538       5.15687070       7.93433477         0.00000000       0.00000000       0.00000000          1
H         1.77493108       6.27831287      10.26629901         0.00000000       0.00000000       0.00000000          1
H         3.73543909       7.64590567       8.82048503         0.00000000       0.00000000       0.00000000          1
H         1.10746234       8.59302792       8.85177543         0.00000000       0.00000000       0.00000000          1
H         0.19986770       6.10399734       7.96562821         0.00000000       0.00000000       0.00000000          1
H         2.16037788       7.47158950       6.51981516         0.00000000       0.00000000       0.00000000          1
6
pbc=[F, F, F] list_num_par=6 frozen=false iter=20000 energy=-1.26974174 Lattice="15.00000000 0.00000000 0.00000000 0.00000000 15.00000000 0.00000000 0.00000000 0.00000000 15.00000000" energy_frozen_part=0.00000000 Properties=species:S:1:pos:R:3:velocities:R:3:Z:I:1
H         1.66500680       7.89713431       9.49734561         0.00000000       0.00000000       0.00000000          1
H         4.23366205       8.90373093       9.93673538         0.00000000       0.00000000       0.00000000          1
H         3.40475772       6.57454973      11.23755439         0.00000000       0.00000000       0.00000000          1
H         3.58482423       7.75847964       7.47265509         0.00000000       0.00000000       0.00000000          1
H         2.75592286       5.42930375       8.77347142         0.00000000       0.00000000       0.00000000          1
H         5.32458038       6.43590120       9.21286921         0.00000000       0.00000000       0.00000000          1
6
pbc=[F, F, F] list_num_par=6 frozen=false iter=20000 energy=-1.26974174 Lattice="15.00000000 0.00000000 0.00000000 0.00000000 15.00000000 0.00000000 0.00000000 0.00000000 15.00000000" energy_frozen_part=0.00000000 Properties=species:S:1:pos:R:3:velocities:R:3:Z:I:1
H         1.66502640       7.89709176       9.49720000         0.00000000       0.00000000       0.00000000          1
H         4.23362245       8.90387316       9.93649948         0.00000000       0.00000000       0.00000000          1
H         3.40483276       6.57478047      11.23755074         0.00000000       0.00000000       0.00000000          1
H         3.58485871       7.75832889       7.47253661         0.00000000       0.00000000       0.00000000          1
H         2.75607156       5.42923820       8.77358429         0.00000000       0.00000000       0.00000000          1
H         5.32466659       6.43601654       9.21289214         0.00000000       0.00000000       0.00000000          1
6
pbc=[F, F, F] list_num_par=6 frozen=false iter=20000 energy=-1.26974174 Lattice="15.00000000 0.00000000 0.00000000 0.00000000 15.00000000 0.00000000 0.00000000 0.00000000 15.00000000" energy_frozen_part=0.00000000 Properties=species:S:1:pos:R:3:velocities:R:3:Z:I:1
H         2.82825648       5.15687156       7.93440454         0.00000000       0.00000000       0.00000000          1
H         1.77494795       6.27812411      10.26627063         0.00000000       0.00000000       0.00000000          1
H         3.73564950       7.64586953       8.82086227         0.00000000       0.00000000       0.00000000          1
H         1.10763890       8.59291393       8.85180095         0.00000000       0.00000000       0.00000000          1
H         0.20024312       6.10391797       7.96534284         0.00000000       0.00000000       0.00000000          1
H         2.16095042       7.47166054       6.51993688         0.00000000       0.00000000       0.00000000          1
6
pbc=[F, F, F] list_num_par=6 frozen=false iter=20000 energy=-1.26974174 Lattice="15.00000000 0.00000000 0.00000000 0.00000000 15.00000000 0.00000000 0.00000000 0.00000000 15.00000000" energy_frozen_part=0.00000000 Properties=species:S:1:pos:R:3:velocities:R:3:Z:I:1
H         1.66577451       7.89880294       9.49785482         0.00000000       0.00000000       0.00000000          1
H         4.23533552       8.90288246       9.93769550         0.00000000       0.00000000       0.00000000          1
H         3.40477827       6.57316198      11.23648673         0.00000000       0.00000000       0.00000000          1
H         3.58509138       7.76047345       7.47266760         0.00000000       0.00000000       0.00000000          1
H         2.75452555       5.43075819       8.77146349         0.00000000       0.00000000       0.00000000          1
H         5.32409042       6.43483993       9.21130086         0.00000000       0.00000000       0.00000000          1
6
pbc=[F, F, F] list_num_par=6 frozen=false iter=20000 energy=-1.26974174 Lattice="15.00000000 0.00000000 0.00000000 0.00000000 15.00000000 0.00000000 0.00000000 0.00000000 15.00000000" energy_frozen_part=0.00000000 Properties=species:S:1:pos:R:3:velocities:R:3:Z:I:1
H         2.82785908       5.15684795       7.93438759         0.00000000       0.00000000       0.00000000          1
H         1.77489298       6.27832944      10.26630103         0.00000000       0.00000000       0.00000000          1
H         3.73541893       7.64590897       8.82049199         0.00000000       0.00000000       0.00000000          1
H         1.10743358       8.59300578       8.85171918         0.00000000       0.00000000       0.00000000          1
H         0.19987369       6.10394146       7.96561433         0.00000000       0.00000000       0.00000000          1
H         2.16039129       7.47152596       6.51980094         0.00000000       0.00000000       0.00000000          1
6
pbc=[F, F, F] list_num_par=6 frozen=false iter=20000 energy=-1.26974174 Lattice="15.00000000 0.00000000 0.00000000 0.00000000 15.00000000 0.00000000 0.00000000 0.00000000 15.00000000" energy_frozen_part=0.00000000 Properties=species:S:1:pos:R:3:velocities:R:3:Z:I:1
H         1.66489991       7.89710881       9.49728514         0.00000000       0.00000000       0.00000000          1
H         4.23348873       8.90395056       9.93651663         0.00000000       0.00000000       0.00000000          1
H         3.40480222       6.57482251      11.23756574         0.00000000       0.00000000       0.00000000          1
H         3.58466678       7.75842317       7.47255583         0.00000000       0.00000000       0.00000000          1
H         2.75599120       5.42929522       8.77361174         0.00000000       0.00000000       0.00000000          1
H         5.32457298       6.43613930       9.21283427         0.00000000       0.00000000       0.00000000          1
6
pbc=[F, F, F] list_num_par=6 frozen=false iter=20000 energy=-1.26974174 Lattice="15.00000000 0.00000000 0.00000000 0.00000000 15.00000000 0.00000000 0.00000000 0.00000000 15.00000000" energy_frozen_part=0.00000000 Properties=species:S:1:pos:R:3:velocities:R:3:Z:I:1
H         2.82775983       5.15660121       7.93438705         0.00000000       0.00000000       0.00000000          1
H         1.77498326       6.27807682      10.26638758         0.00000000       0.00000000       0.00000000          1
H         3.73549222       7.64559449       8.82049954         0.00000000       0.00000000       0.00000000          1
H         1.10754805       8.59282206       8.85190329         0.00000000       0.00000000       0.00000000          1
H         0.19981808       6.10382342       7.96578780         0.00000000       0.00000000       0.00000000          1
H         2.16032190       7.47134783       6.51990000         0.00000000       0.00000000       0.00000000          1
6
pbc=[F, F, F] list_num_par=6 frozen=false iter=20000 energy=-1.26974174 Lattice="15.00000000 0.00000000 0.00000000 0.00000000 15.00000000 0.00000000 0.00000000 0.00000000 15.00000000" energy_frozen_part=0.00000000 Properties=species:S:1:pos:R:3:velocities:R:3:Z:I:1
H         1.66502351       7.89708894       9.49720116         0.00000000       0.00000000       0.00000000          1
H         4.23362002       8.90386118       9.93648610         0.00000000       0.00000000       0.00000000          1
H         3.40483938       6.57477866      11.23755357         0.00000000       0.00000000       0.00000000          1
H         3.58484548       7.75831017       7.47252937         0.00000000       0.00000000       0.00000000          1
H         2.75605969       5.42923291       8.77359924         0.00000000       0.00000000       0.00000000          1
H         5.32466288       6.43600589       9.21288269         0.00000000       0.00000000       0.00000000          1
6
pbc=[F, F, F] list_num_par=6 frozen=false iter=20000 energy=-1.26974174 Lattice="15.00000000 0.00000000 0.00000000 0.00000000 15.00000000 0.00000000 0.00000000 0.00000000 15.00000000" energy_frozen_part=0.00000000 Properties=species:S:1:pos:R:3:velocities:R:3:Z:I:1
H         2.82788164       5.15685614       7.93437513         0.00000000       0.00000000       0.00000000          1
H         1.77493037       6.27829272      10.26631584         0.00000000       0.00000000       0.00000000          1
H         3.73541768       7.64592211       8.82050701         0.00000000       0.00000000       0.00000000          1
H         1.10741754       8.59297876       8.85177232         0.00000000       0.00000000       0.00000000          1
H         0.19987755       6.10391239       7.96564233         0.00000000       0.00000000       0.00000000          1
H         2.16036349       7.47154217       6.51983269         0.00000000       0.00000000       0.00000000          1
6
pbc=[F, F, F] list_num_par=6 frozen=false iter=20000 energy=-1.26974174 Lattice="15.00000000 0.00000000 0.00000000 0.00000000 15.00000000 0.00000000 0.00000000 0.00000000 15.00000000" energy_frozen_part=0.00000000 Properties=species:S:1:pos:R:3:velocities:R:3:Z:I:1
H         2.82785619       5.15687549       7.93433484         0.00000000       0.00000000       0.00000000          1
H         1.77492497       6.27829138      10.26629023         0.00000000       0.00000000       0.00000000          1
H         3.73543501       7.64591080       8.82049964         0.00000000       0.00000000       0.00000000          1
H         1.10744729       8.59300803       8.85177875         0.00000000       0.00000000       0.00000000          1
H         0.19987291       6.10397280       7.96560808         0.00000000       0.00000000       0.00000000          1
H         2.16038420       7.47159006       6.51982070         0.00000000       0.00000000       0.00000000          1
6
pbc=[F, F, F] list_num_par=6 frozen=false iter=20000 energy=-1.26974174 Lattice="15.00000000 0.00000000 0.00000000 0.00000000 15.00000000 0.00000000 0.00000000 0.00000000 15.00000000" energy_frozen_part=0.00000000 Properties=species:S:1:pos:R:3:velocities:R:3:Z:I:1
H         2.82784711       5.15694336       7.93433709         0.00000000       0.00000000       0.00000000          1
H         1.77510107       6.27852425      10.26630033         0.00000000       0.00000000       0.00000000          1
H         3.73548956       7.64604545       8.82025025         0.00000000       0.00000000       0.00000000          1
H         1.10750986       8.59314593       8.85168047         0.00000000       0.00000000       0.00000000          1
H         0.19986010       6.10404550       7.96576945         0.00000000       0.00000000       0.00000000          1
H         2.16025258       7.47155841       6.51971372         0.00000000       0.00000000       0.00000000          1
6
pbc=[F, F, F] list_num_par=6 frozen=false iter=20000 energy=-1.26974174 Lattice="15.00000000 0.00000000 0.00000000 0.00000000 15.00000000 0.00000000 0.00000000 0.00000000 15.00000000" energy_frozen_part=0.00000000 Properties=species:S:1:pos:R:3:velocities:R:3:Z:I:1
H         1.66494334       7.89711085       9.49731297         0.00000000       0.00000000       0.00000000          1
H         4.23353023       8.90394563       9.93656586         0.00000000       0.00000000       0.00000000          1
H         3.40483917       6.57479020      11.23757581         0.00000000       0.00000000       0.00000000          1
H         3.58471704       7.75846109       7.47258832         0.00000000       0.00000000       0.00000000          1
H         2.75603409       5.42930990       8.77359362         0.00000000       0.00000000       0.00000000          1
H         5.32461865       6.43614424       9.21284717         0.00000000       0.00000000       0.00000000          1
6
pbc=[F, F, F] list_num_par=6 frozen=false iter=20000 energy=-1.26974174 Lattice="15.00000000 0.00000000 0.00000000 0.00000000 15.00000000 0.00000000 0.00000000 0.00000000 15.00000000" energy_frozen_part=0.00000000 Properties=species:S:1:pos:R:3:velocities:R:3:Z:I:1
H         2.82785287       5.15695093       7.93433567         0.00000000       0.00000000       0.00000000          1
H         1.77510444       6.27853580      10.26629723         0.00000000       0.00000000       0.00000000          1
H         3.73549378       7.64605485       8.82024675         0.00000000       0.00000000       0.00000000          1
H         1.10750666       8.59315255       8.85168090         0.00000000       0.00000000       0.00000000          1
H         0.19986375       6.10404829       7.96576810         0.00000000       0.00000000       0.00000000          1
H         2.16024571       7.47156306       6.51971660         0.00000000       0.00000000       0.00000000          1
6
pbc=[F, F, F] list_num_par=6 frozen=false iter=20000 energy=-1.26974174 Lattice="15.00000000 0.00000000 0.00000000 0.00000000 15.00000000 0.00000000 0.00000000 0.00000000 15.00000000" energy_frozen_part=0.00000000 Properties=species:S:1:pos:R:3:velocities:R:3:Z:I:1
H         2.82788087       5.15694460       7.93434528         0.00000000       0.00000000       0.00000000          1
H         1.77511026       6.27852436      10.26630126         0.00000000       0.00000000       0.00000000          1
H         3.73549704       7.64605430       8.82025781         0.00000000       0.00000000       0.00000000          1
H         1.10750341       8.59313215       8.85166904         0.00000000       0.00000000       0.00000000          1
H         0.19988898       6.10402017       7.96576025         0.00000000       0.00000000       0.00000000          1
H         2.16027384       7.47155544       6.51971306         0.00000000       0.00000000       0.00000000          1
6
pbc=[F, F, F] list_num_par=6 frozen=false iter=20000 energy=-1.26974174 Lattice="15.00000000 0.00000000 0.00000000 0.00000000 15.00000000 0.00000000 0.00000000 0.00000000 15.00000000" energy_frozen_part=0.00000000 Properties=species:S:1:pos:R:3:velocities:R:3:Z:I:1
H         1.66501421       7.89715912       9.49736923         0.00000000       0.00000000       0.00000000          1
H         4.23368422       8.90372123       9.93672459         0.00000000       0.00000000       0.00000000          1
H         3.40476181       6.57456481      11.23757711         0.00000000       0.00000000       0.00000000          1
H         3.58480746       7.75845162       7.47265973         0.00000000       0.00000000       0.00000000          1
H         2.75588047       5.42930311       8.77351274         0.00000000       0.00000000       0.00000000          1
H         5.32455369       6.43586482       9.21287348         0.00000000       0.00000000       0.00000000          1
6
pbc=[F, F, F] list_num_par=6 frozen=false iter=20000 energy=-1.26974174 Lattice="15.00000000 0.00000000 0.00000000 0.00000000 15.00000000 0.00000000 0.00000000 0.00000000 15.00000000" energy_frozen_part=0.00000000 Properties=species:S:1:pos:R:3:velocities:R:3:Z:I:1
H         1.66502965       7.89716433       9.49735082         0.00000000       0.00000000       0.00000000          1
H         4.23369692       8.90372476       9.93671761         0.00000000       0.00000000       0.00000000          1
H         3.40476867       6.57457648      11.23756982         0.00000000       0.00000000       0.00000000          1
H         3.58483554       7.75845600       7.47265595         0.00000000       0.00000000       0.00000000          1
H         2.75590001       5.42930597       8.77350235         0.00000000       0.00000000       0.00000000          1
H         5.32457386       6.43586752       9.21287447         0.00000000       0.00000000       0.00000000          1
6
pbc=[F, F, F] list_num_par=6 frozen=false iter=20000 energy=-1.26974174 Lattice="15.00000000 0.00000000 0.00000000 0.00000000 15.00000000 0.00000000 0.00000000 0.00000000 15.00000000" energy_frozen_part=0.00000000 Properties=species:S:1:pos:R:3:velocities:R:3:Z:I:1
H         1.66501136       7.89715680       9.49736812         0.00000000       0.00000000       0.00000000          1
H         4.23368713       8.90371763       9.93672339         0.00000000       0.00000000       0.00000000          1
H         3.40475175       6.57457094      11.23757617         0.00000000       0.00000000       0.00000000          1
H         3.58480666       7.75844902       7.47266196         0.00000000       0.00000000       0.00000000          1
H         2.75587415       5.42929589       8.77351387         0.00000000       0.00000000       0.00000000          1
H         5.32454996       6.43585851       9.21287307         0.00000000       0.00000000       0.00000000          1
6
pbc=[F, F, F] list_num_par=6 frozen=false iter=20000 energy=-1.26974174 Lattice="15.00000000 0.00000000 0.00000000 0.00000000 15.00000000 0.00000000 0.00000000 0.00000000 15.00000000" energy_frozen_part=0.00000000 Properties=species:S:1:pos:R:3:velocities:R:3:Z:I:1
H         1.66494237       7.89711305       9.49731336         0.00000000       0.00000000       0.00000000          1
H         4.23352571       8.90393888       9.93657579         0.00000000       0.00000000       0.00000000          1
H         3.40483198       6.57478664      11.23757756         0.00000000       0.00000000       0.00000000          1
H         3.58472282       7.75846393       7.47259107         0.00000000       0.00000000       0.00000000          1
H         2.75602720       5.42931473       8.77359627         0.00000000       0.00000000       0.00000000          1
H         5.32461558       6.43613757       9.21285322         0.00000000       0.00000000       0.00000000          1
6
pbc=[F, F, F] list_num_par=6 frozen=false iter=20000 energy=-1.26974174 Lattice="15.00000000 0.00000000 0.00000000 0.00000000 15.00000000 0.00000000 0.00000000 0.00000000 15.00000000" energy_frozen_part=0.00000000 Properties=species:S:1:pos:R:3:velocities:R:3:Z:I:1
H         2.82825159       5.15686696       7.93441327         0.00000000       0.00000000       0.00000000          1
H         1.77495618       6.27814027      10.26627874         0.00000000       0.00000000       0.00000000          1
H         3.73564338       7.64588012       8.82084142         0.00000000       0.00000000       0.00000000          1
H         1.10763692       8.59291908       8.85179964         0.00000000       0.00000000       0.00000000          1
H         0.20024146       6.10391178       7.96536606         0.00000000       0.00000000       0.00000000          1
H         2.16092595       7.47164842       6.51992909         0.00000000       0.00000000       0.00000000          1
6
pbc=[F, F, F] list_num_par=6 frozen=false iter=20000 energy=-1.26974174 Lattice="15.00000000 0.00000000 0.00000000 0.00000000 15.00000000 0.00000000 0.00000000 0.00000000 15.00000000" energy_frozen_part=0.00000000 Properties=species:S:1:pos:R:3:velocities:R:3:Z:I:1
H         2.82827833       5.15689815       7.93438430         0.00000000       0.00000000       0.00000000          1
H         1.77498522       6.27812323      10.26627309         0.00000000       0.00000000       0.00000000          1
H         3.73563737       7.64591202       8.82083960         0.00000000       0.00000000       0.00000000          1
H         1.10761355       8.59291541       8.85183133         0.00000000       0.00000000       0.00000000          1
H         0.20024954       6.10389950       7.96537824         0.00000000       0.00000000       0.00000000          1
H         2.16090189       7.47168662       6.51994230         0.00000000       0.00000000       0.00000000          1
6
pbc=[F, F, F] list_num_par=6 frozen=false iter=20000 energy=-1.26974174 Lattice="15.00000000 0.00000000 0.00000000 0.00000000 15.00000000 0.00000000 0.00000000 0.00000000 15.00000000" energy_frozen_part=0.00000000 Properties=species:S:1:pos:R:3:velocities:R:3:Z:I:1
H         1.66502547       7.89710001       9.49721076         0.00000000       0.00000000       0.00000000          1
H         4.23362306       8.90387953       9.93650585         0.00000000       0.00000000       0.00000000          1
H         3.40484404       6.57478774      11.23755544         0.00000000       0.00000000       0.00000000          1
H         3.58485296       7.75834641       7.47253912         0.00000000       0.00000000       0.00000000          1
H         2.75606424       5.42925377       8.77358963         0.00000000       0.00000000       0.00000000          1
H         5.32466507       6.43602811       9.21288270         0.00000000       0.00000000       0.00000000          1
6
pbc=[F, F, F] list_num_par=6 frozen=false iter=20000 energy=-1.26974174 Lattice="15.00000000 0.00000000 0.00000000 0.00000000 15.00000000 0.00000000 0.00000000 0.00000000 15.00000000" energy_frozen_part=0.00000000 Properties=species:S:1:pos:R:3:velocities:R:3:Z:I:1
H         1.66502776       7.89716220       9.49735122         0.00000000       0.00000000       0.00000000          1
H         4.23369910       8.90372435       9.93671157         0.00000000       0.00000000       0.00000000          1
H         3.40476563       6.57457189      11.23756697         0.00000000       0.00000000       0.00000000          1
H         3.58482730       7.75844388       7.47265310         0.00000000       0.00000000       0.00000000          1
H         2.75589406       5.42930063       8.77350609         0.00000000       0.00000000       0.00000000          1
H         5.32456987       6.43586454       9.21286593         0.00000000       0.00000000       0.00000000          1
