6
pbc=[F, F, F] list_num_par=6 frozen=false iter=20000 energy=-1.26974174 Lattice="15.00000000 0.00000000 0.00000000 0.00000000 15.00000000 0.00000000 0.00000000 0.00000000 15.00000000" energy_frozen_part=0.00000000 Properties=species:S:1:pos:R:3:velocities:R:3:Z:I:1
H         4.94602183      14.30571972      12.09783380         0.00000000       0.00000000       0.00000000          1
H         5.02601737      13.74874680       9.36147716         0.00000000       0.00000000       0.00000000          1
H         3.54190427      12.11735185      11.07619079         0.00000000       0.00000000       0.00000000          1
H         5.81216584      11.70819648      12.65187297         0.00000000       0.00000000       0.00000000          1
H         5.89216024      11.15122524       9.91551323         0.00000000       0.00000000       0.00000000          1
H         7.29628056      13.33959031      10.93716537         0.00000000       0.00000000       0.00000000          1
6
pbc=[F, F, F] list_num_par=6 frozen=false iter=20000 energy=-1.26974174 Lattice="15.00000000 0.00000000 0.00000000 0.00000000 15.00000000 0.00000000 0.00000000 0.00000000 15.00000000" energy_frozen_part=0.00000000 Properties=species:S:1:pos:R:3:velocities:R:3:Z:I:1
H         4.94604522      14.30573906      12.09786525         0.00000000       0.00000000       0.00000000          1
H         5.02602649      13.74873250       9.36150952         0.00000000       0.00000000       0.00000000          1
H         3.54192192      12.11735441      11.07625246         0.00000000       0.00000000       0.00000000          1
H         5.81219292      11.70822333      12.65192803         0.00000000       0.00000000       0.00000000          1
H         5.89217169      11.15121632       9.91557963         0.00000000       0.00000000       0.00000000          1
H         7.29629716      13.33960003      10.93719167         0.00000000       0.00000000       0.00000000          1
6
pbc=[F, F, F] list_num_par=6 frozen=false iter=20000 energy=-1.26974174 Lattice="15.00000000 0.00000000 0.00000000 0.00000000 15.00000000 0.00000000 0.00000000 0.00000000 15.00000000" energy_frozen_part=0.00000000 Properties=species:S:1:pos:R:3:velocities:R:3:Z:I:1
H         4.94606357      14.30573633      12.09781648         0.00000000       0.00000000       0.00000000          1
H         5.02598194      13.74872356       9.36146414         0.00000000       0.00000000       0.00000000          1
H         3.54191010      12.11735054      11.07623727         0.00000000       0.00000000       0.00000000          1
H         5.81221872      11.70821794      12.65186518         0.00000000       0.00000000       0.00000000          1
H         5.89213275      11.15120518       9.91550665         0.00000000       0.00000000       0.00000000          1
H         7.29628921      13.33958285      10.93709402         0.00000000       0.00000000       0.00000000          1
6
pbc=[F, F, F] list_num_par=6 frozen=false iter=20000 energy=-1.26974174 Lattice="15.00000000 0.00000000 0.00000000 0.00000000 15.00000000 0.00000000 0.00000000 0.00000000 15.00000000" energy_frozen_part=0.00000000 Properties=species:S:1:pos:R:3:velocities:R:3:Z:I:1
H         4.94600169      14.30570305      12.09784725         0.00000000       0.00000000       0.00000000          1
H         5.02602033      13.74874083       9.36148959         0.00000000       0.00000000       0.00000000          1
H         3.54189004      12.11733534      11.07617916         0.00000000       0.00000000       0.00000000          1
H         5.81214088      11.70817511      12.65187860         0.00000000       0.00000000       0.00000000          1
H         5.89215705      11.15121627       9.91551828         0.00000000       0.00000000       0.00000000          1
H         7.29627483      13.33957514      10.93719227         0.00000000       0.00000000       0.00000000          1
6
pbc=[F, F, F] list_num_par=6 frozen=false iter=20000 energy=-1.26974174 Lattice="15.00000000 0.00000000 0.00000000 0.00000000 15.00000000 0.00000000 0.00000000 0.00000000 15.00000000" energy_frozen_part=0.00000000 Properties=species:S:1:pos:R:3:velocities:R:3:Z:I:1
H         4.94605530      14.30572356      12.09791440         0.00000000       0.00000000       0.00000000          1
H         5.02598383      13.74877931       9.36154932         0.00000000       0.00000000       0.00000000          1
H         3.54192856      12.11734981      11.07627942         0.00000000       0.00000000       0.00000000          1
H         5.81223332      11.70819909      12.65189856         0.00000000       0.00000000       0.00000000          1
H         5.89216009      11.15125145       9.91553347         0.00000000       0.00000000       0.00000000          1
H         7.29628921      13.33962485      10.93716718         0.00000000       0.00000000       0.00000000          1
6
pbc=[F, F, F] list_num_par=6 frozen=false iter=20000 energy=-1.26974174 Lattice="15.00000000 0.00000000 0.00000000 0.00000000 15.00000000 0.00000000 0.00000000 0.00000000 15.00000000" energy_frozen_part=0.00000000 Properties=species:S:1:pos:R:3:velocities:R:3:Z:I:1
H         4.94607825      14.30573223      12.09787447         0.00000000       0.00000000       0.00000000          1
H         5.02599187      13.74872211       9.36152015         0.00000000       0.00000000       0.00000000          1
H         3.54190717      12.11736203      11.07629621         0.00000000       0.00000000       0.00000000          1
H         5.81221503      11.70820975      12.65191979         0.00000000       0.00000000       0.00000000          1
H         5.89212691      11.15120075       9.91556383         0.00000000       0.00000000       0.00000000          1
H         7.29629650      13.33956349      10.93714503         0.00000000       0.00000000       0.00000000          1
6
pbc=[F, F, F] list_num_par=6 frozen=false iter=20000 energy=-1.26974174 Lattice="15.00000000 0.00000000 0.00000000 0.00000000 15.00000000 0.00000000 0.00000000 0.00000000 15.00000000" energy_frozen_part=0.00000000 Properties=species:S:1:pos:R:3:velocities:R:3:Z:I:1
H         4.94600789      14.30569581      12.09791639         0.00000000       0.00000000       0.00000000          1
H         5.02595649      13.74879296       9.36154157         0.00000000       0.00000000       0.00000000          1
H         3.54191143      12.11731983      11.07623692         0.00000000       0.00000000       0.00000000          1
H         5.81221987      11.70817270      12.65185696         0.00000000       0.00000000       0.00000000          1
H         5.89216548      11.15127497       9.91548209         0.00000000       0.00000000       0.00000000          1
H         7.29626077      13.33964463      10.93716301         0.00000000       0.00000000       0.00000000          1
6
pbc=[F, F, F] list_num_par=6 frozen=false iter=20000 energy=-1.26974174 Lattice="15.00000000 0.00000000 0.00000000 0.00000000 15.00000000 0.00000000 0.00000000 0.00000000 15.00000000" energy_frozen_part=0.00000000 Properties=species:S:1:pos:R:3:velocities:R:3:Z:I:1
H         4.94605065      14.30575641      12.09784786         0.00000000       0.00000000       0.00000000          1
H         5.02602869      13.74872857       9.36149502         0.00000000       0.00000000       0.00000000          1
H         3.54191092      12.11737162      11.07624411         0.00000000       0.00000000       0.00000000          1
H         5.81217709      11.70823814      12.65192945         0.00000000       0.00000000       0.00000000          1
H         5.89215643      11.15120726       9.91557959         0.00000000       0.00000000       0.00000000          1
H         7.29629681      13.33958725      10.93718230         0.00000000       0.00000000       0.00000000          1
6
pbc=[F, F, F] list_num_par=6 frozen=false iter=20000 energy=-1.26974174 Lattice="15.00000000 0.00000000 0.00000000 0.00000000 15.00000000 0.00000000 0.00000000 0.00000000 15.00000000" energy_frozen_part=0.00000000 Properties=species:S:1:pos:R:3:velocities:R:3:Z:I:1
H         4.94607122      14.30572948      12.09785884         0.00000000       0.00000000       0.00000000          1
H         5.02600534      13.74872792       9.36150525         0.00000000       0.00000000       0.00000000          1
H         3.54190734      12.11736538      11.07626316         0.00000000       0.00000000       0.00000000          1
H         5.81220139      11.70820108      12.65189920         0.00000000       0.00000000       0.00000000          1
H         5.89213475      11.15120574       9.91554746         0.00000000       0.00000000       0.00000000          1
H         7.29629739      13.33957096      10.93714276         0.00000000       0.00000000       0.00000000          1
6
pbc=[F, F, F] list_num_par=6 frozen=false iter=20000 energy=-1.26974174 Lattice="15.00000000 0.00000000 0.00000000 0.00000000 15.00000000 0.00000000 0.00000000 0.00000000 15.00000000" energy_frozen_part=0.00000000 Properties=species:S:1:pos:R:3:velocities:R:3:Z:I:1
H         4.94604422      14.30570145      12.09783975         0.00000000       0.00000000       0.00000000          1
H         5.02602307      13.74872526       9.36148069         0.00000000       0.00000000       0.00000000          1
H         3.54190645      12.11733560      11.07619635         0.00000000       0.00000000       0.00000000          1
H         5.81218320      11.70817444      12.65187111         0.00000000       0.00000000       0.00000000          1
H         5.89215509      11.15119618       9.91551176         0.00000000       0.00000000       0.00000000          1
H         7.29629450      13.33956357      10.93715104         0.00000000       0.00000000       0.00000000          1
6
pbc=[F, F, F] list_num_par=6 frozen=false iter=20000 energy=-1.26974174 Lattice="15.00000000 0.00000000 0.00000000 0.00000000 15.00000000 0.00000000 0.00000000 0.00000000 15.00000000" energy_frozen_part=0.00000000 Properties=species:S:1:pos:R:3:velocities:R:3:Z:I:1
H         4.94600995      14.30572806      12.09782889         0.00000000       0.00000000       0.00000000          1
H         5.02602557      13.74875147       9.36146954         0.00000000       0.00000000       0.00000000          1
H         3.54189663      12.11736063      11.07616640         0.00000000       0.00000000       0.00000000          1
H         5.81215401      11.70820728      12.65186702         0.00000000       0.00000000       0.00000000          1
H         5.89216608      11.15123180       9.91551091         0.00000000       0.00000000       0.00000000          1
H         7.29628065      13.33960112      10.93716722         0.00000000       0.00000000       0.00000000          1
6
pbc=[F, F, F] list_num_par=6 frozen=false iter=20000 energy=-1.26974174 Lattice="15.00000000 0.00000000 0.00000000 0.00000000 15.00000000 0.00000000 0.00000000 0.00000000 15.00000000" energy_frozen_part=0.00000000 Properties=species:S:1:pos:R:3:velocities:R:3:Z:I:1
H         4.94601238      14.30572873      12.09783154         0.00000000       0.00000000       0.00000000          1
H         5.02601266      13.74875771       9.36147360         0.00000000       0.00000000       0.00000000          1
H         3.54189234      12.11735882      11.07617588         0.00000000       0.00000000       0.00000000          1
H         5.81214923      11.70820331      12.65186831         0.00000000       0.00000000       0.00000000          1
H         5.89215611      11.15123167       9.91550524         0.00000000       0.00000000       0.00000000          1
H         7.29627288      13.33959570      10.93715744         0.00000000       0.00000000       0.00000000          1
6
pbc=[F, F, F] list_num_par=6 frozen=false iter=20000 energy=-1.26974174 Lattice="15.00000000 0.00000000 0.00000000 0.00000000 15.00000000 0.00000000 0.00000000 0.00000000 15.00000000" energy_frozen_part=0.00000000 Properties=species:S:1:pos:R:3:velocities:R:3:Z:I:1
H         4.94469797      14.30401805      12.09835942         0.00000000       0.00000000       0.00000000          1
H         5.02925229      13.74866637       9.36180631         0.00000000       0.00000000       0.00000000          1
H         3.54456939      12.11459781      11.07348188         0.00000000       0.00000000       0.00000000          1
H         5.81304722      11.70718795      12.65218360         0.00000000       0.00000000       0.00000000          1
H         5.89760042      11.15183064       9.91563515         0.00000000       0.00000000       0.00000000          1
H         7.29773259      13.34125046      10.94051135         0.00000000       0.00000000       0.00000000          1
6
pbc=[F, F, F] list_num_par=6 frozen=false iter=20000 energy=-1.26974174 Lattice="15.00000000 0.00000000 0.00000000 0.00000000 15.00000000 0.00000000 0.00000000 0.00000000 15.00000000" energy_frozen_part=0.00000000 Properties=species:S:1:pos:R:3:velocities:R:3:Z:I:1
H         4.94469554      14.30400715      12.09837248         0.00000000       0.00000000       0.00000000          1
H         5.02925365      13.74872496       9.36180354         0.00000000       0.00000000       0.00000000          1
H         3.54454617      12.11463033      11.07343455         0.00000000       0.00000000       0.00000000          1
H         5.81301926      11.70715478      12.65213098         0.00000000       0.00000000       0.00000000          1
H         5.89756936      11.15187543       9.91556661         0.00000000       0.00000000       0.00000000          1
H         7.29772128      13.34125030      10.94050767         0.00000000       0.00000000       0.00000000          1
6
pbc=[F, F, F] list_num_par=6 frozen=false iter=20000 energy=-1.26974174 Lattice="15.00000000 0.00000000 0.00000000 0.00000000 15.00000000 0.00000000 0.00000000 0.00000000 15.00000000" energy_frozen_part=0.00000000 Properties=species:S:1:pos:R:3:velocities:R:3:Z:I:1
H         4.94604027      14.30570483      12.09783832         0.00000000       0.00000000       0.00000000          1
H         5.02602327      13.74873339       9.36147416         0.00000000       0.00000000       0.00000000          1
H         3.54190929      12.11733866      11.07618899         0.00000000       0.00000000       0.00000000          1
H         5.81217421      11.70817512      12.65186128         0.00000000       0.00000000       0.00000000          1
H         5.89216123      11.15120304       9.91550462         0.00000000       0.00000000       0.00000000          1
H         7.29628874      13.33956961      10.93715251         0.00000000       0.00000000       0.00000000          1
6
pbc=[F, F, F] list_num_par=6 frozen=false iter=20000 energy=-1.26974174 Lattice="15.00000000 0.00000000 0.00000000 0.00000000 15.00000000 0.00000000 0.00000000 0.00000000 15.00000000" energy_frozen_part=0.00000000 Properties=species:S:1:pos:R:3:velocities:R:3:Z:I:1
H         4.94606672      14.30573375      12.09787128         0.00000000       0.00000000       0.00000000          1
H         5.02598743      13.74872254       9.36151624         0.00000000       0.00000000       0.00000000          1
H         3.54191643      12.11735788      11.07628562         0.00000000       0.00000000       0.00000000          1
H         5.81221564      11.70821168      12.65191405         0.00000000       0.00000000       0.00000000          1
H         5.89213718      11.15120392       9.91555649         0.00000000       0.00000000       0.00000000          1
H         7.29629006      13.33958317      10.93714673         0.00000000       0.00000000       0.00000000          1
6
pbc=[F, F, F] list_num_par=6 frozen=false iter=20000 energy=-1.26974174 Lattice="15.00000000 0.00000000 0.00000000 0.00000000 15.00000000 0.00000000 0.00000000 0.00000000 15.00000000" energy_frozen_part=0.00000000 Properties=species:S:1:pos:R:3:velocities:R:3:Z:I:1
H         4.94605737      14.30573432      12.09784914         0.00000000       0.00000000       0.00000000          1
H         5.02600586      13.74871579       9.36149132         0.00000000       0.00000000       0.00000000          1
H         3.54193012      12.11734127      11.07625195         0.00000000       0.00000000       0.00000000          1
H         5.81222443      11.70822542      12.65190339         0.00000000       0.00000000       0.00000000          1
H         5.89217120      11.15120615       9.91555287         0.00000000       0.00000000       0.00000000          1
H         7.29629745      13.33960459      10.93713903         0.00000000       0.00000000       0.00000000          1
6
pbc=[F, F, F] list_num_par=6 frozen=false iter=20000 energy=-1.26974174 Lattice="15.00000000 0.00000000 0.00000000 0.00000000 15.00000000 0.00000000 0.00000000 0.00000000 15.00000000" energy_frozen_part=0.00000000 Properties=species:S:1:pos:R:3:velocities:R:3:Z:I:1
H         4.94603487      14.30572601      12.09788439         0.00000000       0.00000000       0.00000000          1
H         5.02600042      13.74874351       9.36152316         0.00000000       0.00000000       0.00000000          1
H         3.54187354      12.11737114      11.07625105         0.00000000       0.00000000       0.00000000          1
H         5.81214503      11.70819623      12.65191843         0.00000000       0.00000000       0.00000000          1
H         5.89211140      11.15121116       9.91556147         0.00000000       0.00000000       0.00000000          1
H         7.29626849      13.33956451      10.93718605         0.00000000       0.00000000       0.00000000          1
6
pbc=[F, F, F] list_num_par=6 frozen=false iter=20000 energy=-1.26974174 Lattice="15.00000000 0.00000000 0.00000000 0.00000000 15.00000000 0.00000000 0.00000000 0.00000000 15.00000000" energy_frozen_part=0.00000000 Properties=species:S:1:pos:R:3:velocities:R:3:Z:I:1
H         4.94607804      14.30572198      12.09784452         0.00000000       0.00000000       0.00000000          1
H         5.02597984      13.74873779       9.36148366         0.00000000       0.00000000       0.00000000          1
H         3.54190569      12.11736465      11.07624369         0.00000000       0.00000000       0.00000000          1
H         5.81221881      11.70819043      12.65185784         0.00000000       0.00000000       0.00000000          1
H         5.89211668      11.15120477       9.91549685         0.00000000       0.00000000       0.00000000          1
H         7.29629116      13.33956693      10.93709558         0.00000000       0.00000000       0.00000000          1
6
pbc=[F, F, F] list_num_par=6 frozen=false iter=20000 energy=-1.26974174 Lattice="15.00000000 0.00000000 0.00000000 0.00000000 15.00000000 0.00000000 0.00000000 0.00000000 15.00000000" energy_frozen_part=0.00000000 Properties=species:S:1:pos:R:3:velocities:R:3:Z:I:1
H         4.94600737      14.30572419      12.09782951         0.00000000       0.00000000       0.00000000          1
H         5.02602452      13.74874946       9.36146915         0.00000000       0.00000000       0.00000000          1
H         3.54190056      12.11735553      11.07617315         0.00000000       0.00000000       0.00000000          1
H         5.81215446      11.70819926      12.65187090         0.00000000       0.00000000       0.00000000          1
H         5.89216311      11.15122800       9.91550857         0.00000000       0.00000000       0.00000000          1
H         7.29627296      13.33959969      10.93717206         0.00000000       0.00000000       0.00000000          1
6
pbc=[F, F, F] list_num_par=6 frozen=false iter=20000 energy=-1.26974174 Lattice="15.00000000 0.00000000 0.00000000 0.00000000 15.00000000 0.00000000 0.00000000 0.00000000 15.00000000" energy_frozen_part=0.00000000 Properties=species:S:1:pos:R:3:velocities:R:3:Z:I:1
H         7.51156879      13.63916944      10.30329560         0.00000000       0.00000000       0.00000000          1
H         9.67223303      11.95130205       9.76762628         0.00000000       0.00000000       0.00000000          1
H         7.41363574      11.89337095       8.12455925         0.00000000       0.00000000       0.00000000          1
H         5.80058410      11.43149638      10.35817115         0.00000000       0.00000000       0.00000000          1
H         7.96124560       9.74362991       9.82250260         0.00000000       0.00000000       0.00000000          1
H         8.05917981      11.48943072      12.00123608         0.00000000       0.00000000       0.00000000          1
6
pbc=[F, F, F] list_num_par=6 frozen=false iter=20000 energy=-1.26974174 Lattice="15.00000000 0.00000000 0.00000000 0.00000000 15.00000000 0.00000000 0.00000000 0.00000000 15.00000000" energy_frozen_part=0.00000000 Properties=species:S:1:pos:R:3:velocities:R:3:Z:I:1
H         4.94611600      14.30569113      12.09788282         0.00000000       0.00000000       0.00000000          1
H         5.02603051      13.74870032       9.36151975         0.00000000       0.00000000       0.00000000          1
H         3.54192821      12.11734548      11.07628173         0.00000000       0.00000000       0.00000000          1
H         5.81222120      11.70815816      12.65191639         0.00000000       0.00000000       0.00000000          1
H         5.89213534      11.15116547       9.91555717         0.00000000       0.00000000       0.00000000          1
H         7.29632434      13.33951460      10.93715696         0.00000000       0.00000000       0.00000000          1
6
pbc=[F, F, F] list_num_par=6 frozen=false iter=20000 energy=-1.26974174 Lattice="15.00000000 0.00000000 0.00000000 0.00000000 15.00000000 0.00000000 0.00000000 0.00000000 15.00000000" energy_frozen_part=0.00000000 Properties=species:S:1:pos:R:3:velocities:R:3:Z:I:1
H         7.51157359      13.63918242      10.30329332         0.00000000       0.00000000       0.00000000          1
H         9.67223808      11.95131639       9.76764843         0.00000000       0.00000000       0.00000000          1
H         7.41365390      11.89338328       8.12456578         0.00000000       0.00000000       0.00000000          1
H         5.80058819      11.43151392      10.35816635         0.00000000       0.00000000       0.00000000          1
H         7.96125253       9.74364437       9.82251507         0.00000000       0.00000000       0.00000000          1
H         8.05916874      11.48944691      12.00125219         0.00000000       0.00000000       0.00000000          1
6
pbc=[F, F, F] list_num_par=6 frozen=false iter=20000 energy=-1.26974174 Lattice="15.00000000 0.00000000 0.00000000 0.00000000 15.00000000 0.00000000 0.00000000 0.00000000 15.00000000" energy_frozen_part=0.00000000 Properties=species:S:1:pos:R:3:velocities:R:3:Z:I:1
H         4.94605881      14.30572587      12.09784327         0.00000000       0.00000000       0.00000000          1
H         5.02599105      13.74871131       9.36149056         0.00000000       0.00000000       0.00000000          1
H         3.54192439      12.11733652      11.07626314         0.00000000       0.00000000       0.00000000          1
H         5.81222662      11.70822371      12.65190705         0.00000000       0.00000000       0.00000000          1
H         5.89215905      11.15120094       9.91555189         0.00000000       0.00000000       0.00000000          1
H         7.29629561      13.33959290      10.93712765         0.00000000       0.00000000       0.00000000          1
6
pbc=[F, F, F] list_num_par=6 frozen=false iter=20000 energy=-1.26974174 Lattice="15.00000000 0.00000000 0.00000000 0.00000000 15.00000000 0.00000000 0.00000000 0.00000000 15.00000000" energy_frozen_part=0.00000000 Properties=species:S:1:pos:R:3:velocities:R:3:Z:I:1
H         4.94603407      14.30573056      12.09787897         0.00000000       0.00000000       0.00000000          1
H         5.02599459      13.74874012       9.36151869         0.00000000       0.00000000       0.00000000          1
H         3.54187486      12.11737381      11.07624868         0.00000000       0.00000000       0.00000000          1
H         5.81214571      11.70820132      12.65191679         0.00000000       0.00000000       0.00000000          1
H         5.89211362      11.15121171       9.91556231         0.00000000       0.00000000       0.00000000          1
H         7.29627038      13.33956555      10.93718734         0.00000000       0.00000000       0.00000000          1
6
pbc=[F, F, F] list_num_par=6 frozen=false iter=20000 energy=-1.26974174 Lattice="15.00000000 0.00000000 0.00000000 0.00000000 15.00000000 0.00000000 0.00000000 0.00000000 15.00000000" energy_frozen_part=0.00000000 Properties=species:S:1:pos:R:3:velocities:R:3:Z:I:1
H         7.51151295      13.63912945      10.30323899         0.00000000       0.00000000       0.00000000          1
H         9.67225152      11.95131259       9.76774225         0.00000000       0.00000000       0.00000000          1
H         7.41377477      11.89329759       8.12451789         0.00000000       0.00000000       0.00000000          1
H         5.80058198      11.43141923      10.35803035         0.00000000       0.00000000       0.00000000          1
H         7.96132589       9.74359846       9.82253955         0.00000000       0.00000000       0.00000000          1
H         8.05906035      11.48942951      12.00125512         0.00000000       0.00000000       0.00000000          1
6
pbc=[F, F, F] list_num_par=6 frozen=false iter=20000 energy=-1.26974174 Lattice="15.00000000 0.00000000 0.00000000 0.00000000 15.00000000 0.00000000 0.00000000 0.00000000 15.00000000" energy_frozen_part=0.00000000 Properties=species:S:1:pos:R:3:velocities:R:3:Z:I:1
H         4.94604718      14.30572158      12.09792166         0.00000000       0.00000000       0.00000000          1
H         5.02598067      13.74877565       9.36155015         0.00000000       0.00000000       0.00000000          1
H         3.54192848      12.11734629      11.07627949         0.00000000       0.00000000       0.00000000          1
H         5.81223674      11.70820166      12.65190153         0.00000000       0.00000000       0.00000000          1
H         5.89217321      11.15126092       9.91552978         0.00000000       0.00000000       0.00000000          1
H         7.29628876      13.33963530      10.93717253         0.00000000       0.00000000       0.00000000          1
6
pbc=[F, F, F] list_num_par=6 frozen=false iter=20000 energy=-1.26974174 Lattice="15.00000000 0.00000000 0.00000000 0.00000000 15.00000000 0.00000000 0.00000000 0.00000000 15.00000000" energy_frozen_part=0.00000000 Properties=species:S:1:pos:R:3:velocities:R:3:Z:I:1
H         7.51151640      13.63915878      10.30322712         0.00000000       0.00000000       0.00000000          1
H         9.67226619      11.95134787       9.76775022         0.00000000       0.00000000       0.00000000          1
H         7.41379142      11.89331686       8.12451444         0.00000000       0.00000000       0.00000000          1
H         5.80058961      11.43144261      10.35802105         0.00000000       0.00000000       0.00000000          1
H         7.96134062       9.74363096       9.82254781         0.00000000       0.00000000       0.00000000          1
H         8.05906448      11.48946448      12.00125546         0.00000000       0.00000000       0.00000000          1
6
pbc=[F, F, F] list_num_par=6 frozen=false iter=20000 energy=-1.26974174 Lattice="15.00000000 0.00000000 0.00000000 0.00000000 15.00000000 0.00000000 0.00000000 0.00000000 15.00000000" energy_frozen_part=0.00000000 Properties=species:S:1:pos:R:3:velocities:R:3:Z:I:1
H         4.94603276      14.30571251      12.09784640         0.00000000       0.00000000       0.00000000          1
H         5.02601812      13.74873659       9.36148647         0.00000000       0.00000000       0.00000000          1
H         3.54190931      12.11734218      11.07619731         0.00000000       0.00000000       0.00000000          1
H         5.81217409      11.70818845      12.65187672         0.00000000       0.00000000       0.00000000          1
H         5.89216800      11.15121901       9.91551574         0.00000000       0.00000000       0.00000000          1
H         7.29628402      13.33958801      10.93716521         0.00000000       0.00000000       0.00000000          1
6
pbc=[F, F, F] list_num_par=6 frozen=false iter=20000 energy=-1.26974174 Lattice="15.00000000 0.00000000 0.00000000 0.00000000 15.00000000 0.00000000 0.00000000 0.00000000 15.00000000" energy_frozen_part=0.00000000 Properties=species:S:1:pos:R:3:velocities:R:3:Z:I:1
H         7.51156667      13.63917504      10.30329297         0.00000000       0.00000000       0.00000000          1
H         9.67222527      11.95130399       9.76763143         0.00000000       0.00000000       0.00000000          1
H         7.41363858      11.89337549       8.12456063         0.00000000       0.00000000       0.00000000          1
H         5.80058461      11.43150313      10.35817251         0.00000000       0.00000000       0.00000000          1
H         7.96124516       9.74363259       9.82251184         0.00000000       0.00000000       0.00000000          1
H         8.05917737      11.48943625      12.00124159         0.00000000       0.00000000       0.00000000          1
6
pbc=[F, F, F] list_num_par=6 frozen=false iter=20000 energy=-1.26974174 Lattice="15.00000000 0.00000000 0.00000000 0.00000000 15.00000000 0.00000000 0.00000000 0.00000000 15.00000000" energy_frozen_part=0.00000000 Properties=species:S:1:pos:R:3:velocities:R:3:Z:I:1
H         4.94602307      14.30567939      12.09788786         0.00000000       0.00000000       0.00000000          1
H         5.02597159      13.74875735       9.36151979         0.00000000       0.00000000       0.00000000          1
H         3.54192732      12.11729633      11.07622907         0.00000000       0.00000000       0.00000000          1
H         5.81223977      11.70816972      12.65185606         0.00000000       0.00000000       0.00000000          1
H         5.89218554      11.15124359       9.91548627         0.00000000       0.00000000       0.00000000          1
H         7.29627680      13.33963158      10.93714238         0.00000000       0.00000000       0.00000000          1
6
pbc=[F, F, F] list_num_par=6 frozen=false iter=20000 energy=-1.26974174 Lattice="15.00000000 0.00000000 0.00000000 0.00000000 15.00000000 0.00000000 0.00000000 0.00000000 15.00000000" energy_frozen_part=0.00000000 Properties=species:S:1:pos:R:3:velocities:R:3:Z:I:1
H         4.94601458      14.30569733      12.09790385         0.00000000       0.00000000       0.00000000          1
H         5.02596170      13.74878939       9.36152968         0.00000000       0.00000000       0.00000000          1
H         3.54191601      12.11732501      11.07623291         0.00000000       0.00000000       0.00000000          1
H         5.81221922      11.70817172      12.65185789         0.00000000       0.00000000       0.00000000          1
H         5.89216755      11.15126821       9.91547846         0.00000000       0.00000000       0.00000000          1
H         7.29626523      13.33963524      10.93715511         0.00000000       0.00000000       0.00000000          1
6
pbc=[F, F, F] list_num_par=6 frozen=false iter=20000 energy=-1.26974174 Lattice="15.00000000 0.00000000 0.00000000 0.00000000 15.00000000 0.00000000 0.00000000 0.00000000 15.00000000" energy_frozen_part=0.00000000 Properties=species:S:1:pos:R:3:velocities:R:3:Z:I:1
H         4.94602172      14.30572516      12.09791132         0.00000000       0.00000000       0.00000000          1
H         5.02597085      13.74878329       9.36154052         0.00000000       0.00000000       0.00000000          1
H         3.54191582      12.11734670      11.07626648         0.00000000       0.00000000       0.00000000          1
H         5.81221821      11.70820335      12.65189625         0.00000000       0.00000000       0.00000000          1
H         5.89216685      11.15126812       9.91553134         0.00000000       0.00000000       0.00000000          1
H         7.29627214      13.33964611      10.93717645         0.00000000       0.00000000       0.00000000          1
6
pbc=[F, F, F] list_num_par=6 frozen=false iter=20000 energy=-1.26974174 Lattice="15.00000000 0.00000000 0.00000000 0.00000000 15.00000000 0.00000000 0.00000000 0.00000000 15.00000000" energy_frozen_part=0.00000000 Properties=species:S:1:pos:R:3:velocities:R:3:Z:I:1
H         7.51125379      13.63906523      10.30355849         0.00000000       0.00000000       0.00000000          1
H         9.67232065      11.95176018       9.76774570         0.00000000       0.00000000       0.00000000          1
H         7.41367560      11.89331868       8.12477077         0.00000000       0.00000000       0.00000000          1
H         5.80083308      11.43095988      10.35843218         0.00000000       0.00000000       0.00000000          1
H         7.96189960       9.74365386       9.82261809         0.00000000       0.00000000       0.00000000          1
H         8.05948282      11.48940591      12.00140828         0.00000000       0.00000000       0.00000000          1
6
pbc=[F, F, F] list_num_par=6 frozen=false iter=20000 energy=-1.26974174 Lattice="15.00000000 0.00000000 0.00000000 0.00000000 15.00000000 0.00000000 0.00000000 0.00000000 15.00000000" energy_frozen_part=0.00000000 Properties=species:S:1:pos:R:3:velocities:R:3:Z:I:1
H         4.94603717      14.30569596      12.09784285         0.00000000       0.00000000       0.00000000          1
H         5.02602480      13.74873806       9.36147747         0.00000000       0.00000000       0.00000000          1
H         3.54191638      12.11733621      11.07618475         0.00000000       0.00000000       0.00000000          1
H         5.81217955      11.70816939      12.65186242         0.00000000       0.00000000       0.00000000          1
H         5.89216861      11.15120601       9.91549718         0.00000000       0.00000000       0.00000000          1
H         7.29628937      13.33957179      10.93715474         0.00000000       0.00000000       0.00000000          1
6
pbc=[F, F, F] list_num_par=6 frozen=false iter=20000 energy=-1.26974174 Lattice="15.00000000 0.00000000 0.00000000 0.00000000 15.00000000 0.00000000 0.00000000 0.00000000 15.00000000" energy_frozen_part=0.00000000 Properties=species:S:1:pos:R:3:velocities:R:3:Z:I:1
H         4.94605266      14.30575225      12.09781510         0.00000000       0.00000000       0.00000000          1
H         5.02600007      13.74872587       9.36146110         0.00000000       0.00000000       0.00000000          1
H         3.54188839      12.11738002      11.07622230         0.00000000       0.00000000       0.00000000          1
H         5.81217197      11.70822657      12.65188343         0.00000000       0.00000000       0.00000000          1
H         5.89211569      11.15120435       9.91553477         0.00000000       0.00000000       0.00000000          1
H         7.29628270      13.33957289      10.93712013         0.00000000       0.00000000       0.00000000          1
6
pbc=[F, F, F] list_num_par=6 frozen=false iter=20000 energy=-1.26974174 Lattice="15.00000000 0.00000000 0.00000000 0.00000000 15.00000000 0.00000000 0.00000000 0.00000000 15.00000000" energy_frozen_part=0.00000000 Properties=species:S:1:pos:R:3:velocities:R:3:Z:I:1
H         4.94603129      14.30571026      12.09791821         0.00000000       0.00000000       0.00000000          1
H         5.02597067      13.74877455       9.36155250         0.00000000       0.00000000       0.00000000          1
H         3.54191619      12.11733695      11.07627058         0.00000000       0.00000000       0.00000000          1
H         5.81222291      11.70819135      12.65190222         0.00000000       0.00000000       0.00000000          1
H         5.89216111      11.15125161       9.91553083         0.00000000       0.00000000       0.00000000          1
H         7.29627405      13.33962715      10.93717585         0.00000000       0.00000000       0.00000000          1
6
pbc=[F, F, F] list_num_par=6 frozen=false iter=20000 energy=-1.26974174 Lattice="15.00000000 0.00000000 0.00000000 0.00000000 15.00000000 0.00000000 0.00000000 0.00000000 15.00000000" energy_frozen_part=0.00000000 Properties=species:S:1:pos:R:3:velocities:R:3:Z:I:1
H         4.94469346      14.30401286      12.09835786         0.00000000       0.00000000       0.00000000          1
H         5.02926799      13.74868184       9.36180423         0.00000000       0.00000000       0.00000000          1
H         3.54455467      12.11462033      11.07344934         0.00000000       0.00000000       0.00000000          1
H         5.81300918      11.70717175      12.65217057         0.00000000       0.00000000       0.00000000          1
H         5.89758489      11.15183650       9.91561674         0.00000000       0.00000000       0.00000000          1
H         7.29772609      13.34123365      10.94052337         0.00000000       0.00000000       0.00000000          1
6
pbc=[F, F, F] list_num_par=6 frozen=false iter=20000 energy=-1.26974174 Lattice="15.00000000 0.00000000 0.00000000 0.00000000 15.00000000 0.00000000 0.00000000 0.00000000 15.00000000" energy_frozen_part=0.00000000 Properties=species:S:1:pos:R:3:velocities:R:3:Z:I:1
H         7.51126145      13.63906858      10.30356565         0.00000000       0.00000000       0.00000000          1
H         9.67232488      11.95176506       9.76774289         0.00000000       0.00000000       0.00000000          1
H         7.41367678      11.89332397       8.12477055         0.00000000       0.00000000       0.00000000          1
H         5.80083904      11.43096070      10.35843644         0.00000000       0.00000000       0.00000000          1
H         7.96190155       9.74366329       9.82261821         0.00000000       0.00000000       0.00000000          1
H         8.05948724      11.48940449      12.00140814         0.00000000       0.00000000       0.00000000          1
6
pbc=[F, F, F] list_num_par=6 frozen=false iter=20000 energy=-1.26974174 Lattice="15.00000000 0.00000000 0.00000000 0.00000000 15.00000000 0.00000000 0.00000000 0.00000000 15.00000000" energy_frozen_part=0.00000000 Properties=species:S:1:pos:R:3:velocities:R:3:Z:I:1
H         4.94470306      14.30401895      12.09836082         0.00000000       0.00000000       0.00000000          1
H         5.02924963      13.74872726       9.36179357         0.00000000       0.00000000       0.00000000          1
H         3.54456206      12.11463232      11.07343325         0.00000000       0.00000000       0.00000000          1
H         5.81304275      11.70717551      12.65212318         0.00000000       0.00000000       0.00000000          1
H         5.89758694      11.15187970       9.91556207         0.00000000       0.00000000       0.00000000          1
H         7.29773260      13.34126987      10.94048330         0.00000000       0.00000000       0.00000000          1
6
pbc=[F, F, F] list_num_par=6 frozen=false iter=20000 energy=-1.26974174 Lattice="15.00000000 0.00000000 0.00000000 0.00000000 15.00000000 0.00000000 0.00000000 0.00000000 15.00000000" energy_frozen_part=0.00000000 Properties=species:S:1:pos:R:3:velocities:R:3:Z:I:1
H         4.94458467      14.30393546      12.09846450         0.00000000       0.00000000       0.00000000          1
H         5.02910843      13.74871138       9.36188606         0.00000000       0.00000000       0.00000000          1
H         3.54456004      12.11448015      11.07352004         0.00000000       0.00000000       0.00000000          1
H         5.81310123      11.70713355      12.65215515         0.00000000       0.00000000       0.00000000          1
H         5.89762883      11.15190783       9.91557874         0.00000000       0.00000000       0.00000000          1
H         7.29764761      13.34136034      10.94052294         0.00000000       0.00000000       0.00000000          1
6
pbc=[F, F, F] list_num_par=6 frozen=false iter=20000 energy=-1.26974174 Lattice="15.00000000 0.00000000 0.00000000 0.00000000 15.00000000 0.00000000 0.00000000 0.00000000 15.00000000" energy_frozen_part=0.00000000 Properties=species:S:1:pos:R:3:velocities:R:3:Z:I:1
H         4.94457921      14.30393544      12.09846569         0.00000000       0.00000000       0.00000000          1
H         5.02911413      13.74870872       9.36188565         0.00000000       0.00000000       0.00000000          1
H         3.54456002      12.11448131      11.07351628         0.00000000       0.00000000       0.00000000          1
H         5.81309284      11.70712850      12.65215931         0.00000000       0.00000000       0.00000000          1
H         5.89762780      11.15190431       9.91558148         0.00000000       0.00000000       0.00000000          1
H         7.29764495      13.34136197      10.94053742         0.00000000       0.00000000       0.00000000          1
6
pbc=[F, F, F] list_num_par=6 frozen=false iter=20000 energy=-1.26974174 Lattice="15.00000000 0.00000000 0.00000000 0.00000000 15.00000000 0.00000000 0.00000000 0.00000000 15.00000000" energy_frozen_part=0.00000000 Properties=species:S:1:pos:R:3:velocities:R:3:Z:I:1
H         4.94605049      14.30573977      12.09786023         0.00000000       0.00000000       0.00000000          1
H         5.02603105      13.74872287       9.36151003         0.00000000       0.00000000       0.00000000          1
H         3.54192021      12.11735851      11.07624909         0.00000000       0.00000000       0.00000000          1
H         5.81218570      11.70822020      12.65192677         0.00000000       0.00000000       0.00000000          1
H         5.89217039      11.15120814       9.91557651         0.00000000       0.00000000       0.00000000          1
H         7.29629908      13.33959321      10.93719040         0.00000000       0.00000000       0.00000000          1
6
pbc=[F, F, F] list_num_par=6 frozen=false iter=20000 energy=-1.26974174 Lattice="15.00000000 0.00000000 0.00000000 0.00000000 15.00000000 0.00000000 0.00000000 0.00000000 15.00000000" energy_frozen_part=0.00000000 Properties=species:S:1:pos:R:3:velocities:R:3:Z:I:1
H         4.94464666      14.30397091      12.09845890         0.00000000       0.00000000       0.00000000          1
H         5.02913849      13.74874068       9.36188201         0.00000000       0.00000000       0.00000000          1
H         3.54456531      12.11454872      11.07352400         0.00000000       0.00000000       0.00000000          1
H         5.81309936      11.70714323      12.65214273         0.00000000       0.00000000       0.00000000          1
H         5.89759244      11.15191096       9.91556128         0.00000000       0.00000000       0.00000000          1
H         7.29767781      13.34133395      10.94049777         0.00000000       0.00000000       0.00000000          1
6
pbc=[F, F, F] list_num_par=6 frozen=false iter=20000 energy=-1.26974174 Lattice="15.00000000 0.00000000 0.00000000 0.00000000 15.00000000 0.00000000 0.00000000 0.00000000 15.00000000" energy_frozen_part=0.00000000 Properties=species:S:1:pos:R:3:velocities:R:3:Z:I:1
H         4.94603446      14.30570581      12.09784471         0.00000000       0.00000000       0.00000000          1
H         5.02602607      13.74873926       9.36148269         0.00000000       0.00000000       0.00000000          1
H         3.54191221      12.11733950      11.07619471         0.00000000       0.00000000       0.00000000          1
H         5.81218116      11.70818159      12.65187185         0.00000000       0.00000000       0.00000000          1
H         5.89216900      11.15121295       9.91551432         0.00000000       0.00000000       0.00000000          1
H         7.29629426      13.33957721      10.93715912         0.00000000       0.00000000       0.00000000          1
6
pbc=[F, F, F] list_num_par=6 frozen=false iter=20000 energy=-1.26974174 Lattice="15.00000000 0.00000000 0.00000000 0.00000000 15.00000000 0.00000000 0.00000000 0.00000000 15.00000000" energy_frozen_part=0.00000000 Properties=species:S:1:pos:R:3:velocities:R:3:Z:I:1
H         4.94602214      14.30568329      12.09787826         0.00000000       0.00000000       0.00000000          1
H         5.02597654      13.74875333       9.36150849         0.00000000       0.00000000       0.00000000          1
H         3.54193412      12.11730018      11.07622453         0.00000000       0.00000000       0.00000000          1
H         5.81223597      11.70817095      12.65186093         0.00000000       0.00000000       0.00000000          1
H         5.89219013      11.15123988       9.91548794         0.00000000       0.00000000       0.00000000          1
H         7.29628067      13.33962554      10.93714932         0.00000000       0.00000000       0.00000000          1
6
pbc=[F, F, F] list_num_par=6 frozen=false iter=20000 energy=-1.26974174 Lattice="15.00000000 0.00000000 0.00000000 0.00000000 15.00000000 0.00000000 0.00000000 0.00000000 15.00000000" energy_frozen_part=0.00000000 Properties=species:S:1:pos:R:3:velocities:R:3:Z:I:1
H         4.94601240      14.30570267      12.09784624         0.00000000       0.00000000       0.00000000          1
H         5.02600492      13.74874418       9.36148177         0.00000000       0.00000000       0.00000000          1
H         3.54190038      12.11733577      11.07618126         0.00000000       0.00000000       0.00000000          1
H         5.81216319      11.70817957      12.65186082         0.00000000       0.00000000       0.00000000          1
H         5.89216236      11.15121970       9.91549925         0.00000000       0.00000000       0.00000000          1
H         7.29626997      13.33959276      10.93715644         0.00000000       0.00000000       0.00000000          1
6
pbc=[F, F, F] list_num_par=6 frozen=false iter=20000 energy=-1.26974174 Lattice="15.00000000 0.00000000 0.00000000 0.00000000 15.00000000 0.00000000 0.00000000 0.00000000 15.00000000" energy_frozen_part=0.00000000 Properties=species:S:1:pos:R:3:velocities:R:3:Z:I:1
H         7.51151172      13.63912652      10.30325391         0.00000000       0.00000000       0.00000000          1
H         9.67225609      11.95131291       9.76775398         0.00000000       0.00000000       0.00000000          1
H         7.41377647      11.89330412       8.12452973         0.00000000       0.00000000       0.00000000          1
H         5.80058245      11.43141557      10.35803406         0.00000000       0.00000000       0.00000000          1
H         7.96132763       9.74360156       9.82253941         0.00000000       0.00000000       0.00000000          1
H         8.05906501      11.48941961      12.00125866         0.00000000       0.00000000       0.00000000          1
6
pbc=[F, F, F] list_num_par=6 frozen=false iter=20000 energy=-1.26974174 Lattice="15.00000000 0.00000000 0.00000000 0.00000000 15.00000000 0.00000000 0.00000000 0.00000000 15.00000000" energy_frozen_part=0.00000000 Properties=species:S:1:pos:R:3:velocities:R:3:Z:I:1
H         4.94605192      14.30572555      12.09784073         0.00000000       0.00000000       0.00000000          1
H         5.02600068      13.74871877       9.36149283         0.00000000       0.00000000       0.00000000          1
H         3.54192302      12.11733463      11.07625423         0.00000000       0.00000000       0.00000000          1
H         5.81221900      11.70821716      12.65190104         0.00000000       0.00000000       0.00000000          1
H         5.89216633      11.15120757       9.91554956         0.00000000       0.00000000       0.00000000          1
H         7.29629738      13.33959745      10.93714169         0.00000000       0.00000000       0.00000000          1
6
pbc=[F, F, F] list_num_par=6 frozen=false iter=20000 energy=-1.26974174 Lattice="15.00000000 0.00000000 0.00000000 0.00000000 15.00000000 0.00000000 0.00000000 0.00000000 15.00000000" energy_frozen_part=0.00000000 Properties=species:S:1:pos:R:3:velocities:R:3:Z:I:1
H         4.94469331      14.30402158      12.09834373         0.00000000       0.00000000       0.00000000          1
H         5.02925465      13.74866358       9.36179415         0.00000000       0.00000000       0.00000000          1
H         3.54457257      12.11459966      11.07346771         0.00000000       0.00000000       0.00000000          1
H         5.81304573      11.70719984      12.65218571         0.00000000       0.00000000       0.00000000          1
H         5.89761082      11.15183884       9.91563232         0.00000000       0.00000000       0.00000000          1
H         7.29773032      13.34126029      10.94051136         0.00000000       0.00000000       0.00000000          1
6
pbc=[F, F, F] list_num_par=6 frozen=false iter=20000 energy=-1.26974174 Lattice="15.00000000 0.00000000 0.00000000 0.00000000 15.00000000 0.00000000 0.00000000 0.00000000 15.00000000" energy_frozen_part=0.00000000 Properties=species:S:1:pos:R:3:velocities:R:3:Z:I:1
H         4.94600254      14.30570278      12.09785252         0.00000000       0.00000000       0.00000000          1
H         5.02601431      13.74873856       9.36149030         0.00000000       0.00000000       0.00000000          1
H         3.54189080      12.11732913      11.07618692         0.00000000       0.00000000       0.00000000          1
H         5.81214986      11.70818084      12.65188169         0.00000000       0.00000000       0.00000000          1
H         5.89215790      11.15121446       9.91552092         0.00000000       0.00000000       0.00000000          1
H         7.29627226      13.33958675      10.93718796         0.00000000       0.00000000       0.00000000          1
6
pbc=[F, F, F] list_num_par=6 frozen=false iter=20000 energy=-1.26974174 Lattice="15.00000000 0.00000000 0.00000000 0.00000000 15.00000000 0.00000000 0.00000000 0.00000000 15.00000000" energy_frozen_part=0.00000000 Properties=species:S:1:pos:R:3:velocities:R:3:Z:I:1
H         4.94601520      14.30569112      12.09791468         0.00000000       0.00000000       0.00000000          1
H         5.02595898      13.74879892       9.36153460         0.00000000       0.00000000       0.00000000          1
H         3.54191069      12.11732880      11.07623291         0.00000000       0.00000000       0.00000000          1
H         5.81221909      11.70816996      12.65186123         0.00000000       0.00000000       0.00000000          1
H         5.89216046      11.15127556       9.91548561         0.00000000       0.00000000       0.00000000          1
H         7.29626339      13.33964489      10.93716048         0.00000000       0.00000000       0.00000000          1
6
pbc=[F, F, F] list_num_par=6 frozen=false iter=20000 energy=-1.26974174 Lattice="15.00000000 0.00000000 0.00000000 0.00000000 15.00000000 0.00000000 0.00000000 0.00000000 15.00000000" energy_frozen_part=0.00000000 Properties=species:S:1:pos:R:3:velocities:R:3:Z:I:1
H         4.94604070      14.30570383      12.09783934         0.00000000       0.00000000       0.00000000          1
H         5.02602285      13.74873090       9.36148004         0.00000000       0.00000000       0.00000000          1
H         3.54191502      12.11733475      11.07619914         0.00000000       0.00000000       0.00000000          1
H         5.81218420      11.70817662      12.65187047         0.00000000       0.00000000       0.00000000          1
H         5.89216959      11.15120876       9.91550395         0.00000000       0.00000000       0.00000000          1
H         7.29629272      13.33957569      10.93715383         0.00000000       0.00000000       0.00000000          1
6
pbc=[F, F, F] list_num_par=6 frozen=false iter=20000 energy=-1.26974174 Lattice="15.00000000 0.00000000 0.00000000 0.00000000 15.00000000 0.00000000 0.00000000 0.00000000 15.00000000" energy_frozen_part=0.00000000 Properties=species:S:1:pos:R:3:velocities:R:3:Z:I:1
H         7.51150757      13.63913006      10.30324371         0.00000000       0.00000000       0.00000000          1
H         9.67225498      11.95131412       9.76774939         0.00000000       0.00000000       0.00000000          1
H         7.41377273      11.89330211       8.12452359         0.00000000       0.00000000       0.00000000          1
H         5.80058073      11.43141811      10.35803261         0.00000000       0.00000000       0.00000000          1
H         7.96132350       9.74359734       9.82253278         0.00000000       0.00000000       0.00000000          1
H         8.05906184      11.48942260      12.00125498         0.00000000       0.00000000       0.00000000          1
6
pbc=[F, F, F] list_num_par=6 frozen=false iter=20000 energy=-1.26974174 Lattice="15.00000000 0.00000000 0.00000000 0.00000000 15.00000000 0.00000000 0.00000000 0.00000000 15.00000000" energy_frozen_part=0.00000000 Properties=species:S:1:pos:R:3:velocities:R:3:Z:I:1
H         4.94471393      14.30403438      12.09834517         0.00000000       0.00000000       0.00000000          1
H         5.02927497      13.74867579       9.36179613         0.00000000       0.00000000       0.00000000          1
H         3.54456157      12.11463592      11.07346472         0.00000000       0.00000000       0.00000000          1
H         5.81302176      11.70719270      12.65218796         0.00000000       0.00000000       0.00000000          1
H         5.89758326      11.15183343       9.91563435         0.00000000       0.00000000       0.00000000          1
H         7.29773474      13.34123528      10.94051121         0.00000000       0.00000000       0.00000000          1
6
pbc=[F, F, F] list_num_par=6 frozen=false iter=20000 energy=-1.26974174 Lattice="15.00000000 0.00000000 0.00000000 0.00000000 15.00000000 0.00000000 0.00000000 0.00000000 15.00000000" energy_frozen_part=0.00000000 Properties=species:S:1:pos:R:3:velocities:R:3:Z:I:1
H         4.94607512      14.30570684      12.09787110         0.00000000       0.00000000       0.00000000          1
H         5.02602923      13.74873138       9.36151168         0.00000000       0.00000000       0.00000000          1
H         3.54191240      12.11735328      11.07624650         0.00000000       0.00000000       0.00000000          1
H         5.81218976      11.70817564      12.65189793         0.00000000       0.00000000       0.00000000          1
H         5.89214556      11.15119646       9.91553863         0.00000000       0.00000000       0.00000000          1
H         7.29631022      13.33954877      10.93716758         0.00000000       0.00000000       0.00000000          1
6
pbc=[F, F, F] list_num_par=6 frozen=false iter=20000 energy=-1.26974174 Lattice="15.00000000 0.00000000 0.00000000 0.00000000 15.00000000 0.00000000 0.00000000 0.00000000 15.00000000" energy_frozen_part=0.00000000 Properties=species:S:1:pos:R:3:velocities:R:3:Z:I:1
H         4.94604496      14.30569285      12.09784193         0.00000000       0.00000000       0.00000000          1
H         5.02603068      13.74873404       9.36148093         0.00000000       0.00000000       0.00000000          1
H         3.54191689      12.11733109      11.07618609         0.00000000       0.00000000       0.00000000          1
H         5.81219065      11.70816743      12.65185907         0.00000000       0.00000000       0.00000000          1
H         5.89217162      11.15120799       9.91550053         0.00000000       0.00000000       0.00000000          1
H         7.29629704      13.33957631      10.93715206         0.00000000       0.00000000       0.00000000          1
6
pbc=[F, F, F] list_num_par=6 frozen=false iter=20000 energy=-1.26974174 Lattice="15.00000000 0.00000000 0.00000000 0.00000000 15.00000000 0.00000000 0.00000000 0.00000000 15.00000000" energy_frozen_part=0.00000000 Properties=species:S:1:pos:R:3:velocities:R:3:Z:I:1
H         4.94465676      14.30396050      12.09845965         0.00000000       0.00000000       0.00000000          1
H         5.02913844      13.74874136       9.36188154         0.00000000       0.00000000       0.00000000          1
H         3.54456990      12.11454305      11.07352746         0.00000000       0.00000000       0.00000000          1
H         5.81311537      11.70713805      12.65214117         0.00000000       0.00000000       0.00000000          1
H         5.89759903      11.15192037       9.91556075         0.00000000       0.00000000       0.00000000          1
H         7.29768287      13.34133811      10.94049508         0.00000000       0.00000000       0.00000000          1
6
pbc=[F, F, F] list_num_par=6 frozen=false iter=20000 energy=-1.26974174 Lattice="15.00000000 0.00000000 0.00000000 0.00000000 15.00000000 0.00000000 0.00000000 0.00000000 15.00000000" energy_frozen_part=0.00000000 Properties=species:S:1:pos:R:3:velocities:R:3:Z:I:1
H         4.94607666      14.30571055      12.09787475         0.00000000       0.00000000       0.00000000          1
H         5.02602100      13.74872888       9.36151507         0.00000000       0.00000000       0.00000000          1
H         3.54191363      12.11735555      11.07625382         0.00000000       0.00000000       0.00000000          1
H         5.81219693      11.70817416      12.65190136         0.00000000       0.00000000       0.00000000          1
H         5.89214172      11.15120123       9.91554108         0.00000000       0.00000000       0.00000000          1
H         7.29630115      13.33955281      10.93716537         0.00000000       0.00000000       0.00000000          1
6
pbc=[F, F, F] list_num_par=6 frozen=false iter=20000 energy=-1.26974174 Lattice="15.00000000 0.00000000 0.00000000 0.00000000 15.00000000 0.00000000 0.00000000 0.00000000 15.00000000" energy_frozen_part=0.00000000 Properties=species:S:1:pos:R:3:velocities:R:3:Z:I:1
H         4.94468913      14.30401442      12.09835397         0.00000000       0.00000000       0.00000000          1
H         5.02926845      13.74867738       9.36179918         0.00000000       0.00000000       0.00000000          1
H         3.54454892      12.11461414      11.07344886         0.00000000       0.00000000       0.00000000          1
H         5.81301122      11.70717119      12.65217271         0.00000000       0.00000000       0.00000000          1
H         5.89758739      11.15183970       9.91562100         0.00000000       0.00000000       0.00000000          1
H         7.29772289      13.34123997      10.94052527         0.00000000       0.00000000       0.00000000          1
6
pbc=[F, F, F] list_num_par=6 frozen=false iter=20000 energy=-1.26974174 Lattice="15.00000000 0.00000000 0.00000000 0.00000000 15.00000000 0.00000000 0.00000000 0.00000000 15.00000000" energy_frozen_part=0.00000000 Properties=species:S:1:pos:R:3:velocities:R:3:Z:I:1
H         4.94602242      14.30569008      12.09791624         0.00000000       0.00000000       0.00000000          1
H         5.02596303      13.74879829       9.36153843         0.00000000       0.00000000       0.00000000          1
H         3.54191471      12.11732579      11.07623707         0.00000000       0.00000000       0.00000000          1
H         5.81222014      11.70816610      12.65185691         0.00000000       0.00000000       0.00000000          1
H         5.89216134      11.15127115       9.91548059         0.00000000       0.00000000       0.00000000          1
H         7.29626719      13.33962984      10.93715605         0.00000000       0.00000000       0.00000000          1
6
pbc=[F, F, F] list_num_par=6 frozen=false iter=20000 energy=-1.26974174 Lattice="15.00000000 0.00000000 0.00000000 0.00000000 15.00000000 0.00000000 0.00000000 0.00000000 15.00000000" energy_frozen_part=0.00000000 Properties=species:S:1:pos:R:3:velocities:R:3:Z:I:1
H         4.94601084      14.30570147      12.09784888         0.00000000       0.00000000       0.00000000          1
H         5.02600676      13.74874942       9.36148338         0.00000000       0.00000000       0.00000000          1
H         3.54189441      12.11733535      11.07618561         0.00000000       0.00000000       0.00000000          1
H         5.81215878      11.70817777      12.65186181         0.00000000       0.00000000       0.00000000          1
H         5.89215478      11.15122703       9.91549944         0.00000000       0.00000000       0.00000000          1
H         7.29627393      13.33959419      10.93716276         0.00000000       0.00000000       0.00000000          1
6
pbc=[F, F, F] list_num_par=6 frozen=false iter=20000 energy=-1.26974174 Lattice="15.00000000 0.00000000 0.00000000 0.00000000 15.00000000 0.00000000 0.00000000 0.00000000 15.00000000" energy_frozen_part=0.00000000 Properties=species:S:1:pos:R:3:velocities:R:3:Z:I:1
H         4.94606970      14.30573818      12.09781787         0.00000000       0.00000000       0.00000000          1
H         5.02598872      13.74872825       9.36146420         0.00000000       0.00000000       0.00000000          1
H         3.54191393      12.11735973      11.07623044         0.00000000       0.00000000       0.00000000          1
H         5.81221395      11.70821847      12.65186402         0.00000000       0.00000000       0.00000000          1
H         5.89213231      11.15120540       9.91550446         0.00000000       0.00000000       0.00000000          1
H         7.29629296      13.33958032      10.93709345         0.00000000       0.00000000       0.00000000          1
6
pbc=[F, F, F] list_num_par=6 frozen=false iter=20000 energy=-1.26974174 Lattice="15.00000000 0.00000000 0.00000000 0.00000000 15.00000000 0.00000000 0.00000000 0.00000000 15.00000000" energy_frozen_part=0.00000000 Properties=species:S:1:pos:R:3:velocities:R:3:Z:I:1
H         7.51126969      13.63906576      10.30359806         0.00000000       0.00000000       0.00000000          1
H         9.67232618      11.95176651       9.76775703         0.00000000       0.00000000       0.00000000          1
H         7.41367350      11.89333597       8.12478943         0.00000000       0.00000000       0.00000000          1
H         5.80084288      11.43096251      10.35845890         0.00000000       0.00000000       0.00000000          1
H         7.96190592       9.74366095       9.82261710         0.00000000       0.00000000       0.00000000          1
H         8.05949706      11.48938944      12.00142293         0.00000000       0.00000000       0.00000000          1
6
pbc=[F, F, F] list_num_par=6 frozen=false iter=20000 energy=-1.26974174 Lattice="15.00000000 0.00000000 0.00000000 0.00000000 15.00000000 0.00000000 0.00000000 0.00000000 15.00000000" energy_frozen_part=0.00000000 Properties=species:S:1:pos:R:3:velocities:R:3:Z:I:1
H         4.94607333      14.30568295      12.09790913         0.00000000       0.00000000       0.00000000          1
H         5.02603827      13.74871989       9.36154341         0.00000000       0.00000000       0.00000000          1
H         3.54191847      12.11733483      11.07626298         0.00000000       0.00000000       0.00000000          1
H         5.81219139      11.70814601      12.65192429         0.00000000       0.00000000       0.00000000          1
H         5.89215229      11.15118345       9.91556274         0.00000000       0.00000000       0.00000000          1
H         7.29630734      13.33953773      10.93720296         0.00000000       0.00000000       0.00000000          1
6
pbc=[F, F, F] list_num_par=6 frozen=false iter=20000 energy=-1.26974174 Lattice="15.00000000 0.00000000 0.00000000 0.00000000 15.00000000 0.00000000 0.00000000 0.00000000 15.00000000" energy_frozen_part=0.00000000 Properties=species:S:1:pos:R:3:velocities:R:3:Z:I:1
H         4.94603580      14.30570088      12.09784198         0.00000000       0.00000000       0.00000000          1
H         5.02602520      13.74873074       9.36148223         0.00000000       0.00000000       0.00000000          1
H         3.54191421      12.11732857      11.07618938         0.00000000       0.00000000       0.00000000          1
H         5.81218117      11.70817547      12.65186448         0.00000000       0.00000000       0.00000000          1
H         5.89216991      11.15120659       9.91550051         0.00000000       0.00000000       0.00000000          1
H         7.29629225      13.33957207      10.93716036         0.00000000       0.00000000       0.00000000          1
6
pbc=[F, F, F] list_num_par=6 frozen=false iter=20000 energy=-1.26974174 Lattice="15.00000000 0.00000000 0.00000000 0.00000000 15.00000000 0.00000000 0.00000000 0.00000000 15.00000000" energy_frozen_part=0.00000000 Properties=species:S:1:pos:R:3:velocities:R:3:Z:I:1
H         4.94458067      14.30393829      12.09846101         0.00000000       0.00000000       0.00000000          1
H         5.02911771      13.74870760       9.36188572         0.00000000       0.00000000       0.00000000          1
H         3.54456501      12.11447694      11.07351515         0.00000000       0.00000000       0.00000000          1
H         5.81309229      11.70713099      12.65215764         0.00000000       0.00000000       0.00000000          1
H         5.89763333      11.15190107       9.91558227         0.00000000       0.00000000       0.00000000          1
H         7.29764875      13.34135703      10.94052818         0.00000000       0.00000000       0.00000000          1
6
pbc=[F, F, F] list_num_par=6 frozen=false iter=20000 energy=-1.26974174 Lattice="15.00000000 0.00000000 0.00000000 0.00000000 15.00000000 0.00000000 0.00000000 0.00000000 15.00000000" energy_frozen_part=0.00000000 Properties=species:S:1:pos:R:3:velocities:R:3:Z:I:1
H         4.94471314      14.30404967      12.09834988         0.00000000       0.00000000       0.00000000          1
H         5.02927019      13.74868223       9.36179956         0.00000000       0.00000000       0.00000000          1
H         3.54455223      12.11464939      11.07347421         0.00000000       0.00000000       0.00000000          1
H         5.81301252      11.70720809      12.65219589         0.00000000       0.00000000       0.00000000          1
H         5.89757465      11.15183809       9.91564097         0.00000000       0.00000000       0.00000000          1
H         7.29773300      13.34123724      10.94052197         0.00000000       0.00000000       0.00000000          1
6
pbc=[F, F, F] list_num_par=6 frozen=false iter=20000 energy=-1.26974174 Lattice="15.00000000 0.00000000 0.00000000 0.00000000 15.00000000 0.00000000 0.00000000 0.00000000 15.00000000" energy_frozen_part=0.00000000 Properties=species:S:1:pos:R:3:velocities:R:3:Z:I:1
H         4.94611747      14.30569672      12.09789236         0.00000000       0.00000000       0.00000000          1
H         5.02602747      13.74871330       9.36152769         0.00000000       0.00000000       0.00000000          1
H         3.54192036      12.11735677      11.07627997         0.00000000       0.00000000       0.00000000          1
H         5.81221553      11.70815423      12.65190916         0.00000000       0.00000000       0.00000000          1
H         5.89212376      11.15116975       9.91554512         0.00000000       0.00000000       0.00000000          1
H         7.29632334      13.33951186      10.93715019         0.00000000       0.00000000       0.00000000          1
6
pbc=[F, F, F] list_num_par=6 frozen=false iter=20000 energy=-1.26974174 Lattice="15.00000000 0.00000000 0.00000000 0.00000000 15.00000000 0.00000000 0.00000000 0.00000000 15.00000000" energy_frozen_part=0.00000000 Properties=species:S:1:pos:R:3:velocities:R:3:Z:I:1
H         4.94603660      14.30569515      12.09784024         0.00000000       0.00000000       0.00000000          1
H         5.02602582      13.74872482       9.36148027         0.00000000       0.00000000       0.00000000          1
H         3.54192076      12.11732123      11.07618777         0.00000000       0.00000000       0.00000000          1
H         5.81218492      11.70816991      12.65186812         0.00000000       0.00000000       0.00000000          1
H         5.89217717      11.15120045       9.91550314         0.00000000       0.00000000       0.00000000          1
H         7.29629546      13.33956625      10.93715770         0.00000000       0.00000000       0.00000000          1
6
pbc=[F, F, F] list_num_par=6 frozen=false iter=20000 energy=-1.26974174 Lattice="15.00000000 0.00000000 0.00000000 0.00000000 15.00000000 0.00000000 0.00000000 0.00000000 15.00000000" energy_frozen_part=0.00000000 Properties=species:S:1:pos:R:3:velocities:R:3:Z:I:1
H         4.94600866      14.30569726      12.09784006         0.00000000       0.00000000       0.00000000          1
H         5.02600732      13.74874101       9.36147838         0.00000000       0.00000000       0.00000000          1
H         3.54189657      12.11732905      11.07617744         0.00000000       0.00000000       0.00000000          1
H         5.81216116      11.70817248      12.65186582         0.00000000       0.00000000       0.00000000          1
H         5.89216437      11.15122046       9.91550436         0.00000000       0.00000000       0.00000000          1
H         7.29627064      13.33959121      10.93716522         0.00000000       0.00000000       0.00000000          1
6
pbc=[F, F, F] list_num_par=6 frozen=false iter=20000 energy=-1.26974174 Lattice="15.00000000 0.00000000 0.00000000 0.00000000 15.00000000 0.00000000 0.00000000 0.00000000 15.00000000" energy_frozen_part=0.00000000 Properties=species:S:1:pos:R:3:velocities:R:3:Z:I:1
H         4.94468724      14.30401900      12.09837866         0.00000000       0.00000000       0.00000000          1
H         5.02923391      13.74874216       9.36181084         0.00000000       0.00000000       0.00000000          1
H         3.54454615      12.11463206      11.07343889         0.00000000       0.00000000       0.00000000          1
H         5.81301998      11.70716602      12.65213139         0.00000000       0.00000000       0.00000000          1
H         5.89757110      11.15188910       9.91556539         0.00000000       0.00000000       0.00000000          1
H         7.29771255      13.34127511      10.94049953         0.00000000       0.00000000       0.00000000          1
6
pbc=[F, F, F] list_num_par=6 frozen=false iter=20000 energy=-1.26974174 Lattice="15.00000000 0.00000000 0.00000000 0.00000000 15.00000000 0.00000000 0.00000000 0.00000000 15.00000000" energy_frozen_part=0.00000000 Properties=species:S:1:pos:R:3:velocities:R:3:Z:I:1
H         4.94605995      14.30572268      12.09782598         0.00000000       0.00000000       0.00000000          1
H         5.02599888      13.74872909       9.36146828         0.00000000       0.00000000       0.00000000          1
H         3.54191187      12.11735274      11.07622530         0.00000000       0.00000000       0.00000000          1
H         5.81220601      11.70820499      12.65187180         0.00000000       0.00000000       0.00000000          1
H         5.89214096      11.15120234       9.91551317         0.00000000       0.00000000       0.00000000          1
H         7.29628947      13.33957646      10.93711096         0.00000000       0.00000000       0.00000000          1
6
pbc=[F, F, F] list_num_par=6 frozen=false iter=20000 energy=-1.26974174 Lattice="15.00000000 0.00000000 0.00000000 0.00000000 15.00000000 0.00000000 0.00000000 0.00000000 15.00000000" energy_frozen_part=0.00000000 Properties=species:S:1:pos:R:3:velocities:R:3:Z:I:1
H         4.94458165      14.30394029      12.09845941         0.00000000       0.00000000       0.00000000          1
H         5.02911727      13.74871287       9.36188186         0.00000000       0.00000000       0.00000000          1
H         3.54456563      12.11448535      11.07351592         0.00000000       0.00000000       0.00000000          1
H         5.81309495      11.70713257      12.65215436         0.00000000       0.00000000       0.00000000          1
H         5.89762915      11.15190817       9.91557141         0.00000000       0.00000000       0.00000000          1
H         7.29764792      13.34135984      10.94052445         0.00000000       0.00000000       0.00000000          1
6
pbc=[F, F, F] list_num_par=6 frozen=false iter=20000 energy=-1.26974174 Lattice="15.00000000 0.00000000 0.00000000 0.00000000 15.00000000 0.00000000 0.00000000 0.00000000 15.00000000" energy_frozen_part=0.00000000 Properties=species:S:1:pos:R:3:velocities:R:3:Z:I:1
H         4.94602749      14.30573466      12.09786878         0.00000000       0.00000000       0.00000000          1
H         5.02600399      13.74872403       9.36151354         0.00000000       0.00000000       0.00000000          1
H         3.54187610      12.11737111      11.07625648         0.00000000       0.00000000       0.00000000          1
H         5.81213955      11.70820538      12.65193179         0.00000000       0.00000000       0.00000000          1
H         5.89211157      11.15119551       9.91558202         0.00000000       0.00000000       0.00000000          1
H         7.29626612      13.33956120      10.93719047         0.00000000       0.00000000       0.00000000          1
6
pbc=[F, F, F] list_num_par=6 frozen=false iter=20000 energy=-1.26974174 Lattice="15.00000000 0.00000000 0.00000000 0.00000000 15.00000000 0.00000000 0.00000000 0.00000000 15.00000000" energy_frozen_part=0.00000000 Properties=species:S:1:pos:R:3:velocities:R:3:Z:I:1
H         4.94470339      14.30401631      12.09835683         0.00000000       0.00000000       0.00000000          1
H         5.02924289      13.74871660       9.36179210         0.00000000       0.00000000       0.00000000          1
H         3.54456111      12.11462355      11.07343771         0.00000000       0.00000000       0.00000000          1
H         5.81304002      11.70717513      12.65213308         0.00000000       0.00000000       0.00000000          1
H         5.89759031      11.15187477       9.91557151         0.00000000       0.00000000       0.00000000          1
H         7.29772656      13.34127159      10.94048310         0.00000000       0.00000000       0.00000000          1
6
pbc=[F, F, F] list_num_par=6 frozen=false iter=20000 energy=-1.26974174 Lattice="15.00000000 0.00000000 0.00000000 0.00000000 15.00000000 0.00000000 0.00000000 0.00000000 15.00000000" energy_frozen_part=0.00000000 Properties=species:S:1:pos:R:3:velocities:R:3:Z:I:1
H         4.94603053      14.30571758      12.09786114         0.00000000       0.00000000       0.00000000          1
H         5.02603007      13.74872746       9.36150389         0.00000000       0.00000000       0.00000000          1
H         3.54191735      12.11733464      11.07622503         0.00000000       0.00000000       0.00000000          1
H         5.81218475      11.70820355      12.65190674         0.00000000       0.00000000       0.00000000          1
H         5.89218113      11.15121279       9.91555110         0.00000000       0.00000000       0.00000000          1
H         7.29629556      13.33959270      10.93718497         0.00000000       0.00000000       0.00000000          1
6
pbc=[F, F, F] list_num_par=6 frozen=false iter=20000 energy=-1.26974174 Lattice="15.00000000 0.00000000 0.00000000 0.00000000 15.00000000 0.00000000 0.00000000 0.00000000 15.00000000" energy_frozen_part=0.00000000 Properties=species:S:1:pos:R:3:velocities:R:3:Z:I:1
H         7.51157250      13.63917549      10.30330575         0.00000000       0.00000000       0.00000000          1
H         9.67223583      11.95131563       9.76763993         0.00000000       0.00000000       0.00000000          1
H         7.41364028      11.89337851       8.12456929         0.00000000       0.00000000       0.00000000          1
H         5.80059082      11.43150829      10.35818151         0.00000000       0.00000000       0.00000000          1
H         7.96125161       9.74364137       9.82251490         0.00000000       0.00000000       0.00000000          1
H         8.05918143      11.48943431      12.00125379         0.00000000       0.00000000       0.00000000          1
6
pbc=[F, F, F] list_num_par=6 frozen=false iter=20000 energy=-1.26974174 Lattice="15.00000000 0.00000000 0.00000000 0.00000000 15.00000000 0.00000000 0.00000000 0.00000000 15.00000000" energy_frozen_part=0.00000000 Properties=species:S:1:pos:R:3:velocities:R:3:Z:I:1
H         4.94463978      14.30396847      12.09846517         0.00000000       0.00000000       0.00000000          1
H         5.02916167      13.74872974       9.36188841         0.00000000       0.00000000       0.00000000          1
H         3.54456499      12.11454412      11.07352106         0.00000000       0.00000000       0.00000000          1
H         5.81308383      11.70714453      12.65216979         0.00000000       0.00000000       0.00000000          1
H         5.89760870      11.15190470       9.91559774         0.00000000       0.00000000       0.00000000          1
H         7.29767922      13.34133474      10.94053612         0.00000000       0.00000000       0.00000000          1
6
pbc=[F, F, F] list_num_par=6 frozen=false iter=20000 energy=-1.26974174 Lattice="15.00000000 0.00000000 0.00000000 0.00000000 15.00000000 0.00000000 0.00000000 0.00000000 15.00000000" energy_frozen_part=0.00000000 Properties=species:S:1:pos:R:3:velocities:R:3:Z:I:1
H         4.94600797      14.30569921      12.09785244         0.00000000       0.00000000       0.00000000          1
H         5.02602914      13.74874805       9.36148936         0.00000000       0.00000000       0.00000000          1
H         3.54189048      12.11734067      11.07617923         0.00000000       0.00000000       0.00000000          1
H         5.81213968      11.70817201      12.65188002         0.00000000       0.00000000       0.00000000          1
H         5.89215379      11.15121494       9.91551872         0.00000000       0.00000000       0.00000000          1
H         7.29627528      13.33957028      10.93719231         0.00000000       0.00000000       0.00000000          1
6
pbc=[F, F, F] list_num_par=6 frozen=false iter=20000 energy=-1.26974174 Lattice="15.00000000 0.00000000 0.00000000 0.00000000 15.00000000 0.00000000 0.00000000 0.00000000 15.00000000" energy_frozen_part=0.00000000 Properties=species:S:1:pos:R:3:velocities:R:3:Z:I:1
H         4.94605708      14.30572204      12.09787282         0.00000000       0.00000000       0.00000000          1
H         5.02599101      13.74872671       9.36151379         0.00000000       0.00000000       0.00000000          1
H         3.54190884      12.11735295      11.07626943         0.00000000       0.00000000       0.00000000          1
H         5.81220516      11.70820383      12.65191009         0.00000000       0.00000000       0.00000000          1
H         5.89214379      11.15120998       9.91555307         0.00000000       0.00000000       0.00000000          1
H         7.29628897      13.33958151      10.93715717         0.00000000       0.00000000       0.00000000          1
6
pbc=[F, F, F] list_num_par=6 frozen=false iter=20000 energy=-1.26974174 Lattice="15.00000000 0.00000000 0.00000000 0.00000000 15.00000000 0.00000000 0.00000000 0.00000000 15.00000000" energy_frozen_part=0.00000000 Properties=species:S:1:pos:R:3:velocities:R:3:Z:I:1
H         4.94460916      14.30394859      12.09847472         0.00000000       0.00000000       0.00000000          1
H         5.02914230      13.74872532       9.36189280         0.00000000       0.00000000       0.00000000          1
H         3.54455741      12.11451840      11.07352012         0.00000000       0.00000000       0.00000000          1
H         5.81307945      11.70713080      12.65216625         0.00000000       0.00000000       0.00000000          1
H         5.89760499      11.15190542       9.91558826         0.00000000       0.00000000       0.00000000          1
H         7.29766423      13.34133978      10.94054154         0.00000000       0.00000000       0.00000000          1
6
pbc=[F, F, F] list_num_par=6 frozen=false iter=20000 energy=-1.26974174 Lattice="15.00000000 0.00000000 0.00000000 0.00000000 15.00000000 0.00000000 0.00000000 0.00000000 15.00000000" energy_frozen_part=0.00000000 Properties=species:S:1:pos:R:3:velocities:R:3:Z:I:1
H         7.51125116      13.63906371      10.30356287         0.00000000       0.00000000       0.00000000          1
H         9.67231869      11.95177197       9.76773641         0.00000000       0.00000000       0.00000000          1
H         7.41366320      11.89332371       8.12477155         0.00000000       0.00000000       0.00000000          1
H         5.80083533      11.43095638      10.35844298         0.00000000       0.00000000       0.00000000          1
H         7.96189756       9.74365984       9.82261550         0.00000000       0.00000000       0.00000000          1
H         8.05949068      11.48940697      12.00140870         0.00000000       0.00000000       0.00000000          1
6
pbc=[F, F, F] list_num_par=6 frozen=false iter=20000 energy=-1.26974174 Lattice="15.00000000 0.00000000 0.00000000 0.00000000 15.00000000 0.00000000 0.00000000 0.00000000 15.00000000" energy_frozen_part=0.00000000 Properties=species:S:1:pos:R:3:velocities:R:3:Z:I:1
H         4.94602550      14.30571087      12.09791466         0.00000000       0.00000000       0.00000000          1
H         5.02597183      13.74877950       9.36154240         0.00000000       0.00000000       0.00000000          1
H         3.54191540      12.11733669      11.07626439         0.00000000       0.00000000       0.00000000          1
H         5.81222292      11.70819581      12.65189482         0.00000000       0.00000000       0.00000000          1
H         5.89216584      11.15125964       9.91552855         0.00000000       0.00000000       0.00000000          1
H         7.29627477      13.33963803      10.93716944         0.00000000       0.00000000       0.00000000          1
6
pbc=[F, F, F] list_num_par=6 frozen=false iter=20000 energy=-1.26974174 Lattice="15.00000000 0.00000000 0.00000000 0.00000000 15.00000000 0.00000000 0.00000000 0.00000000 15.00000000" energy_frozen_part=0.00000000 Properties=species:S:1:pos:R:3:velocities:R:3:Z:I:1
H         4.94603100      14.30568916      12.09785021         0.00000000       0.00000000       0.00000000          1
H         5.02602119      13.74873121       9.36148547         0.00000000       0.00000000       0.00000000          1
H         3.54192251      12.11731876      11.07619076         0.00000000       0.00000000       0.00000000          1
H         5.81219266      11.70816279      12.65186052         0.00000000       0.00000000       0.00000000          1
H         5.89218423      11.15120952       9.91550147         0.00000000       0.00000000       0.00000000          1
H         7.29629166      13.33958455      10.93715966         0.00000000       0.00000000       0.00000000          1
6
pbc=[F, F, F] list_num_par=6 frozen=false iter=20000 energy=-1.26974174 Lattice="15.00000000 0.00000000 0.00000000 0.00000000 15.00000000 0.00000000 0.00000000 0.00000000 15.00000000" energy_frozen_part=0.00000000 Properties=species:S:1:pos:R:3:velocities:R:3:Z:I:1
H         4.94601354      14.30573754      12.09782949         0.00000000       0.00000000       0.00000000          1
H         5.02602483      13.74875219       9.36147250         0.00000000       0.00000000       0.00000000          1
H         3.54188539      12.11737252      11.07617436         0.00000000       0.00000000       0.00000000          1
H         5.81213797      11.70820983      12.65187241         0.00000000       0.00000000       0.00000000          1
H         5.89215220      11.15122559       9.91551745         0.00000000       0.00000000       0.00000000          1
H         7.29627353      13.33959355      10.93717287         0.00000000       0.00000000       0.00000000          1
6
pbc=[F, F, F] list_num_par=6 frozen=false iter=20000 energy=-1.26974174 Lattice="15.00000000 0.00000000 0.00000000 0.00000000 15.00000000 0.00000000 0.00000000 0.00000000 15.00000000" energy_frozen_part=0.00000000 Properties=species:S:1:pos:R:3:velocities:R:3:Z:I:1
H         4.94606797      14.30573247      12.09786673         0.00000000       0.00000000       0.00000000          1
H         5.02598806      13.74871769       9.36150961         0.00000000       0.00000000       0.00000000          1
H         3.54191314      12.11735489      11.07628725         0.00000000       0.00000000       0.00000000          1
H         5.81221298      11.70821769      12.65192443         0.00000000       0.00000000       0.00000000          1
H         5.89213220      11.15119633       9.91556852         0.00000000       0.00000000       0.00000000          1
H         7.29628938      13.33957551      10.93714299         0.00000000       0.00000000       0.00000000          1
6
pbc=[F, F, F] list_num_par=6 frozen=false iter=20000 energy=-1.26974174 Lattice="15.00000000 0.00000000 0.00000000 0.00000000 15.00000000 0.00000000 0.00000000 0.00000000 15.00000000" energy_frozen_part=0.00000000 Properties=species:S:1:pos:R:3:velocities:R:3:Z:I:1
H         4.94586000      14.30564531      12.09782810         0.00000000       0.00000000       0.00000000          1
H         5.02588537      13.74863115       9.36147698         0.00000000       0.00000000       0.00000000          1
H         3.54183648      12.11719609      11.07620989         0.00000000       0.00000000       0.00000000          1
H         5.81211900      11.70816755      12.65190180         0.00000000       0.00000000       0.00000000          1
H         5.89214106      11.15115127       9.91555134         0.00000000       0.00000000       0.00000000          1
H         7.29616632      13.33960305      10.93717020         0.00000000       0.00000000       0.00000000          1
6
pbc=[F, F, F] list_num_par=6 frozen=false iter=20000 energy=-1.26974174 Lattice="15.00000000 0.00000000 0.00000000 0.00000000 15.00000000 0.00000000 0.00000000 0.00000000 15.00000000" energy_frozen_part=0.00000000 Properties=species:S:1:pos:R:3:velocities:R:3:Z:I:1
H         4.94602975      14.30571554      12.09783968         0.00000000       0.00000000       0.00000000          1
H         5.02602729      13.74874308       9.36148024         0.00000000       0.00000000       0.00000000          1
H         3.54191235      12.11734998      11.07618686         0.00000000       0.00000000       0.00000000          1
H         5.81217362      11.70819144      12.65187739         0.00000000       0.00000000       0.00000000          1
H         5.89217102      11.15121648       9.91551734         0.00000000       0.00000000       0.00000000          1
H         7.29628839      13.33958585      10.93716536         0.00000000       0.00000000       0.00000000          1
6
pbc=[F, F, F] list_num_par=6 frozen=false iter=20000 energy=-1.26974174 Lattice="15.00000000 0.00000000 0.00000000 0.00000000 15.00000000 0.00000000 0.00000000 0.00000000 15.00000000" energy_frozen_part=0.00000000 Properties=species:S:1:pos:R:3:velocities:R:3:Z:I:1
H         4.94459321      14.30394253      12.09846845         0.00000000       0.00000000       0.00000000          1
H         5.02913702      13.74871834       9.36188949         0.00000000       0.00000000       0.00000000          1
H         3.54454978      12.11450613      11.07351033         0.00000000       0.00000000       0.00000000          1
H         5.81306839      11.70712972      12.65216109         0.00000000       0.00000000       0.00000000          1
H         5.89760881      11.15190251       9.91558259         0.00000000       0.00000000       0.00000000          1
H         7.29765588      13.34133857      10.94053959         0.00000000       0.00000000       0.00000000          1
6
pbc=[F, F, F] list_num_par=6 frozen=false iter=20000 energy=-1.26974174 Lattice="15.00000000 0.00000000 0.00000000 0.00000000 15.00000000 0.00000000 0.00000000 0.00000000 15.00000000" energy_frozen_part=0.00000000 Properties=species:S:1:pos:R:3:velocities:R:3:Z:I:1
H         4.94465172      14.30397211      12.09845299         0.00000000       0.00000000       0.00000000          1
H         5.02916731      13.74874047       9.36187895         0.00000000       0.00000000       0.00000000          1
H         3.54456968      12.11454971      11.07351324         0.00000000       0.00000000       0.00000000          1
H         5.81309395      11.70714994      12.65215420         0.00000000       0.00000000       0.00000000          1
H         5.89760972      11.15191410       9.91557511         0.00000000       0.00000000       0.00000000          1
H         7.29769046      13.34133083      10.94051493         0.00000000       0.00000000       0.00000000          1
6
pbc=[F, F, F] list_num_par=6 frozen=false iter=20000 energy=-1.26974174 Lattice="15.00000000 0.00000000 0.00000000 0.00000000 15.00000000 0.00000000 0.00000000 0.00000000 15.00000000" energy_frozen_part=0.00000000 Properties=species:S:1:pos:R:3:velocities:R:3:Z:I:1
H         7.51125510      13.63906175      10.30357358         0.00000000       0.00000000       0.00000000          1
H         9.67231573      11.95176773       9.76773835         0.00000000       0.00000000       0.00000000          1
H         7.41366064      11.89332600       8.12477600         0.00000000       0.00000000       0.00000000          1
H         5.80083810      11.43094813      10.35844684         0.00000000       0.00000000       0.00000000          1
H         7.96190265       9.74365511       9.82261170         0.00000000       0.00000000       0.00000000          1
H         8.05949523      11.48939355      12.00140991         0.00000000       0.00000000       0.00000000          1
6
pbc=[F, F, F] list_num_par=6 frozen=false iter=20000 energy=-1.26974174 Lattice="15.00000000 0.00000000 0.00000000 0.00000000 15.00000000 0.00000000 0.00000000 0.00000000 15.00000000" energy_frozen_part=0.00000000 Properties=species:S:1:pos:R:3:velocities:R:3:Z:I:1
H         4.94606695      14.30573036      12.09782835         0.00000000       0.00000000       0.00000000          1
H         5.02598627      13.74872930       9.36147185         0.00000000       0.00000000       0.00000000          1
H         3.54190924      12.11735628      11.07623719         0.00000000       0.00000000       0.00000000          1
H         5.81221181      11.70821020      12.65186684         0.00000000       0.00000000       0.00000000          1
H         5.89213062      11.15120653       9.91551483         0.00000000       0.00000000       0.00000000          1
H         7.29628677      13.33958082      10.93709751         0.00000000       0.00000000       0.00000000          1
6
pbc=[F, F, F] list_num_par=6 frozen=false iter=20000 energy=-1.26974174 Lattice="15.00000000 0.00000000 0.00000000 0.00000000 15.00000000 0.00000000 0.00000000 0.00000000 15.00000000" energy_frozen_part=0.00000000 Properties=species:S:1:pos:R:3:velocities:R:3:Z:I:1
H         4.94605972      14.30573530      12.09782423         0.00000000       0.00000000       0.00000000          1
H         5.02597381      13.74872618       9.36147039         0.00000000       0.00000000       0.00000000          1
H         3.54189823      12.11735878      11.07624549         0.00000000       0.00000000       0.00000000          1
H         5.81220943      11.70822015      12.65187424         0.00000000       0.00000000       0.00000000          1
H         5.89212060      11.15120594       9.91551989         0.00000000       0.00000000       0.00000000          1
H         7.29627846      13.33958246      10.93709452         0.00000000       0.00000000       0.00000000          1
6
pbc=[F, F, F] list_num_par=6 frozen=false iter=20000 energy=-1.26974174 Lattice="15.00000000 0.00000000 0.00000000 0.00000000 15.00000000 0.00000000 0.00000000 0.00000000 15.00000000" energy_frozen_part=0.00000000 Properties=species:S:1:pos:R:3:velocities:R:3:Z:I:1
H         4.94471504      14.30404556      12.09835673         0.00000000       0.00000000       0.00000000          1
H         5.02926204      13.74868471       9.36180193         0.00000000       0.00000000       0.00000000          1
H         3.54454910      12.11465059      11.07348164         0.00000000       0.00000000       0.00000000          1
H         5.81302140      11.70720516      12.65218877         0.00000000       0.00000000       0.00000000          1
H         5.89756519      11.15183834       9.91563710         0.00000000       0.00000000       0.00000000          1
H         7.29773067      13.34124039      10.94050723         0.00000000       0.00000000       0.00000000          1
6
pbc=[F, F, F] list_num_par=6 frozen=false iter=20000 energy=-1.26974174 Lattice="15.00000000 0.00000000 0.00000000 0.00000000 15.00000000 0.00000000 0.00000000 0.00000000 15.00000000" energy_frozen_part=0.00000000 Properties=species:S:1:pos:R:3:velocities:R:3:Z:I:1
H         4.94471302      14.30404181      12.09834491         0.00000000       0.00000000       0.00000000          1
H         5.02926470      13.74867601       9.36179807         0.00000000       0.00000000       0.00000000          1
H         3.54455417      12.11464054      11.07347115         0.00000000       0.00000000       0.00000000          1
H         5.81301945      11.70720439      12.65218676         0.00000000       0.00000000       0.00000000          1
H         5.89757575      11.15183722       9.91563724         0.00000000       0.00000000       0.00000000          1
H         7.29773163      13.34123869      10.94050668         0.00000000       0.00000000       0.00000000          1
6
pbc=[F, F, F] list_num_par=6 frozen=false iter=20000 energy=-1.26974174 Lattice="15.00000000 0.00000000 0.00000000 0.00000000 15.00000000 0.00000000 0.00000000 0.00000000 15.00000000" energy_frozen_part=0.00000000 Properties=species:S:1:pos:R:3:velocities:R:3:Z:I:1
H         4.94600835      14.30569322      12.09785788         0.00000000       0.00000000       0.00000000          1
H         5.02601939      13.74874145       9.36149251         0.00000000       0.00000000       0.00000000          1
H         3.54189516      12.11733252      11.07618341         0.00000000       0.00000000       0.00000000          1
H         5.81215294      11.70816735      12.65187673         0.00000000       0.00000000       0.00000000          1
H         5.89216031      11.15121210       9.91551431         0.00000000       0.00000000       0.00000000          1
H         7.29627138      13.33957344      10.93718778         0.00000000       0.00000000       0.00000000          1
6
pbc=[F, F, F] list_num_par=6 frozen=false iter=20000 energy=-1.26974174 Lattice="15.00000000 0.00000000 0.00000000 0.00000000 15.00000000 0.00000000 0.00000000 0.00000000 15.00000000" energy_frozen_part=0.00000000 Properties=species:S:1:pos:R:3:velocities:R:3:Z:I:1
H         4.94468685      14.30401597      12.09835036         0.00000000       0.00000000       0.00000000          1
H         5.02924065      13.74865315       9.36179484         0.00000000       0.00000000       0.00000000          1
H         3.54456202      12.11459303      11.07347856         0.00000000       0.00000000       0.00000000          1
H         5.81303899      11.70718781      12.65218485         0.00000000       0.00000000       0.00000000          1
H         5.89759763      11.15182995       9.91563473         0.00000000       0.00000000       0.00000000          1
H         7.29771633      13.34125237      10.94050545         0.00000000       0.00000000       0.00000000          1
6
pbc=[F, F, F] list_num_par=6 frozen=false iter=20000 energy=-1.26974174 Lattice="15.00000000 0.00000000 0.00000000 0.00000000 15.00000000 0.00000000 0.00000000 0.00000000 15.00000000" energy_frozen_part=0.00000000 Properties=species:S:1:pos:R:3:velocities:R:3:Z:I:1
H         4.94469752      14.30402255      12.09835082         0.00000000       0.00000000       0.00000000          1
H         5.02925651      13.74865600       9.36180161         0.00000000       0.00000000       0.00000000          1
H         3.54456814      12.11460364      11.07347568         0.00000000       0.00000000       0.00000000          1
H         5.81303934      11.70718853      12.65218771         0.00000000       0.00000000       0.00000000          1
H         5.89759753      11.15182744       9.91563703         0.00000000       0.00000000       0.00000000          1
H         7.29773135      13.34124520      10.94051093         0.00000000       0.00000000       0.00000000          1
6
pbc=[F, F, F] list_num_par=6 frozen=false iter=20000 energy=-1.26974174 Lattice="15.00000000 0.00000000 0.00000000 0.00000000 15.00000000 0.00000000 0.00000000 0.00000000 15.00000000" energy_frozen_part=0.00000000 Properties=species:S:1:pos:R:3:velocities:R:3:Z:I:1
H         4.94606927      14.30571928      12.09783237         0.00000000       0.00000000       0.00000000          1
H         5.02598722      13.74873086       9.36147447         0.00000000       0.00000000       0.00000000          1
H         3.54190296      12.11735643      11.07623102         0.00000000       0.00000000       0.00000000          1
H         5.81220741      11.70819516      12.65185901         0.00000000       0.00000000       0.00000000          1
H         5.89211991      11.15120230       9.91550227         0.00000000       0.00000000       0.00000000          1
H         7.29629278      13.33956869      10.93709850         0.00000000       0.00000000       0.00000000          1
6
pbc=[F, F, F] list_num_par=6 frozen=false iter=20000 energy=-1.26974174 Lattice="15.00000000 0.00000000 0.00000000 0.00000000 15.00000000 0.00000000 0.00000000 0.00000000 15.00000000" energy_frozen_part=0.00000000 Properties=species:S:1:pos:R:3:velocities:R:3:Z:I:1
H         4.94600589      14.30572858      12.09782799         0.00000000       0.00000000       0.00000000          1
H         5.02601748      13.74875652       9.36146835         0.00000000       0.00000000       0.00000000          1
H         3.54189427      12.11736138      11.07616892         0.00000000       0.00000000       0.00000000          1
H         5.81214847      11.70820454      12.65186897         0.00000000       0.00000000       0.00000000          1
H         5.89215954      11.15123838       9.91550586         0.00000000       0.00000000       0.00000000          1
H         7.29627141      13.33960397      10.93716911         0.00000000       0.00000000       0.00000000          1
6
pbc=[F, F, F] list_num_par=6 frozen=false iter=20000 energy=-1.26974174 Lattice="15.00000000 0.00000000 0.00000000 0.00000000 15.00000000 0.00000000 0.00000000 0.00000000 15.00000000" energy_frozen_part=0.00000000 Properties=species:S:1:pos:R:3:velocities:R:3:Z:I:1
H         4.94470567      14.30402208      12.09835289         0.00000000       0.00000000       0.00000000          1
H         5.02925096      13.74873689       9.36178857         0.00000000       0.00000000       0.00000000          1
H         3.54456883      12.11463194      11.07342937         0.00000000       0.00000000       0.00000000          1
H         5.81304573      11.70717651      12.65211816         0.00000000       0.00000000       0.00000000          1
H         5.89759585      11.15188781       9.91555135         0.00000000       0.00000000       0.00000000          1
H         7.29773279      13.34127507      10.94047454         0.00000000       0.00000000       0.00000000          1
6
pbc=[F, F, F] list_num_par=6 frozen=false iter=20000 energy=-1.26974174 Lattice="15.00000000 0.00000000 0.00000000 0.00000000 15.00000000 0.00000000 0.00000000 0.00000000 15.00000000" energy_frozen_part=0.00000000 Properties=species:S:1:pos:R:3:velocities:R:3:Z:I:1
H         4.94468442      14.30402022      12.09837691         0.00000000       0.00000000       0.00000000          1
H         5.02923152      13.74873993       9.36180866         0.00000000       0.00000000       0.00000000          1
H         3.54454366      12.11463985      11.07344454         0.00000000       0.00000000       0.00000000          1
H         5.81302320      11.70716550      12.65212968         0.00000000       0.00000000       0.00000000          1
H         5.89756689      11.15189048       9.91556105         0.00000000       0.00000000       0.00000000          1
H         7.29770718      13.34127601      10.94049705         0.00000000       0.00000000       0.00000000          1
6
pbc=[F, F, F] list_num_par=6 frozen=false iter=20000 energy=-1.26974174 Lattice="15.00000000 0.00000000 0.00000000 0.00000000 15.00000000 0.00000000 0.00000000 0.00000000 15.00000000" energy_frozen_part=0.00000000 Properties=species:S:1:pos:R:3:velocities:R:3:Z:I:1
H         4.94603175      14.30571711      12.09783732         0.00000000       0.00000000       0.00000000          1
H         5.02601353      13.74874169       9.36147579         0.00000000       0.00000000       0.00000000          1
H         3.54189774      12.11734876      11.07619181         0.00000000       0.00000000       0.00000000          1
H         5.81216553      11.70819381      12.65187309         0.00000000       0.00000000       0.00000000          1
H         5.89215088      11.15121763       9.91551133         0.00000000       0.00000000       0.00000000          1
H         7.29628036      13.33958533      10.93715346         0.00000000       0.00000000       0.00000000          1
6
pbc=[F, F, F] list_num_par=6 frozen=false iter=20000 energy=-1.26974174 Lattice="15.00000000 0.00000000 0.00000000 0.00000000 15.00000000 0.00000000 0.00000000 0.00000000 15.00000000" energy_frozen_part=0.00000000 Properties=species:S:1:pos:R:3:velocities:R:3:Z:I:1
H         4.94470053      14.30401814      12.09836247         0.00000000       0.00000000       0.00000000          1
H         5.02928068      13.74869291       9.36180700         0.00000000       0.00000000       0.00000000          1
H         3.54455384      12.11462774      11.07344695         0.00000000       0.00000000       0.00000000          1
H         5.81300644      11.70717365      12.65217646         0.00000000       0.00000000       0.00000000          1
H         5.89758949      11.15184033       9.91562281         0.00000000       0.00000000       0.00000000          1
H         7.29773295      13.34123301      10.94053387         0.00000000       0.00000000       0.00000000          1
6
pbc=[F, F, F] list_num_par=6 frozen=false iter=20000 energy=-1.26974174 Lattice="15.00000000 0.00000000 0.00000000 0.00000000 15.00000000 0.00000000 0.00000000 0.00000000 15.00000000" energy_frozen_part=0.00000000 Properties=species:S:1:pos:R:3:velocities:R:3:Z:I:1
H         4.94602061      14.30570060      12.09790964         0.00000000       0.00000000       0.00000000          1
H         5.02596095      13.74879060       9.36153563         0.00000000       0.00000000       0.00000000          1
H         3.54190667      12.11733457      11.07623858         0.00000000       0.00000000       0.00000000          1
H         5.81221557      11.70817648      12.65185982         0.00000000       0.00000000       0.00000000          1
H         5.89215405      11.15127145       9.91548405         0.00000000       0.00000000       0.00000000          1
H         7.29626615      13.33963632      10.93715331         0.00000000       0.00000000       0.00000000          1
6
pbc=[F, F, F] list_num_par=6 frozen=false iter=20000 energy=-1.26974174 Lattice="15.00000000 0.00000000 0.00000000 0.00000000 15.00000000 0.00000000 0.00000000 0.00000000 15.00000000" energy_frozen_part=0.00000000 Properties=species:S:1:pos:R:3:velocities:R:3:Z:I:1
H         4.94600702      14.30570457      12.09784703         0.00000000       0.00000000       0.00000000          1
H         5.02600195      13.74874687       9.36148470         0.00000000       0.00000000       0.00000000          1
H         3.54189081      12.11733963      11.07618749         0.00000000       0.00000000       0.00000000          1
H         5.81215564      11.70818512      12.65187251         0.00000000       0.00000000       0.00000000          1
H         5.89214779      11.15122051       9.91550951         0.00000000       0.00000000       0.00000000          1
H         7.29626972      13.33958597      10.93716333         0.00000000       0.00000000       0.00000000          1
6
pbc=[F, F, F] list_num_par=6 frozen=false iter=20000 energy=-1.26974174 Lattice="15.00000000 0.00000000 0.00000000 0.00000000 15.00000000 0.00000000 0.00000000 0.00000000 15.00000000" energy_frozen_part=0.00000000 Properties=species:S:1:pos:R:3:velocities:R:3:Z:I:1
H         4.94605170      14.30572773      12.09786370         0.00000000       0.00000000       0.00000000          1
H         5.02599376      13.74871450       9.36150935         0.00000000       0.00000000       0.00000000          1
H         3.54191151      12.11734575      11.07627324         0.00000000       0.00000000       0.00000000          1
H         5.81220173      11.70820597      12.65191465         0.00000000       0.00000000       0.00000000          1
H         5.89214215      11.15119586       9.91556135         0.00000000       0.00000000       0.00000000          1
H         7.29628555      13.33957753      10.93715699         0.00000000       0.00000000       0.00000000          1
6
pbc=[F, F, F] list_num_par=6 frozen=false iter=20000 energy=-1.26974174 Lattice="15.00000000 0.00000000 0.00000000 0.00000000 15.00000000 0.00000000 0.00000000 0.00000000 15.00000000" energy_frozen_part=0.00000000 Properties=species:S:1:pos:R:3:velocities:R:3:Z:I:1
H         4.94468884      14.30401238      12.09838096         0.00000000       0.00000000       0.00000000          1
H         5.02923956      13.74873476       9.36181187         0.00000000       0.00000000       0.00000000          1
H         3.54455022      12.11462917      11.07344674         0.00000000       0.00000000       0.00000000          1
H         5.81302840      11.70715997      12.65213113         0.00000000       0.00000000       0.00000000          1
H         5.89757455      11.15188796       9.91556322         0.00000000       0.00000000       0.00000000          1
H         7.29771621      13.34127063      10.94050534         0.00000000       0.00000000       0.00000000          1
6
pbc=[F, F, F] list_num_par=6 frozen=false iter=20000 energy=-1.26974174 Lattice="15.00000000 0.00000000 0.00000000 0.00000000 15.00000000 0.00000000 0.00000000 0.00000000 15.00000000" energy_frozen_part=0.00000000 Properties=species:S:1:pos:R:3:velocities:R:3:Z:I:1
H         7.51151537      13.63912985      10.30322920         0.00000000       0.00000000       0.00000000          1
H         9.67225740      11.95131552       9.76773240         0.00000000       0.00000000       0.00000000          1
H         7.41376859      11.89329225       8.12451635         0.00000000       0.00000000       0.00000000          1
H         5.80058661      11.43141526      10.35803227         0.00000000       0.00000000       0.00000000          1
H         7.96132850       9.74359993       9.82254412         0.00000000       0.00000000       0.00000000          1
H         8.05907400      11.48943632      12.00125202         0.00000000       0.00000000       0.00000000          1
6
pbc=[F, F, F] list_num_par=6 frozen=false iter=20000 energy=-1.26974174 Lattice="15.00000000 0.00000000 0.00000000 0.00000000 15.00000000 0.00000000 0.00000000 0.00000000 15.00000000" energy_frozen_part=0.00000000 Properties=species:S:1:pos:R:3:velocities:R:3:Z:I:1
H         4.94585471      14.30563460      12.09783903         0.00000000       0.00000000       0.00000000          1
H         5.02587536      13.74863597       9.36148179         0.00000000       0.00000000       0.00000000          1
H         3.54184113      12.11718962      11.07621156         0.00000000       0.00000000       0.00000000          1
H         5.81212382      11.70816217      12.65189744         0.00000000       0.00000000       0.00000000          1
H         5.89214227      11.15116072       9.91554540         0.00000000       0.00000000       0.00000000          1
H         7.29615825      13.33961196      10.93716842         0.00000000       0.00000000       0.00000000          1
6
pbc=[F, F, F] list_num_par=6 frozen=false iter=20000 energy=-1.26974174 Lattice="15.00000000 0.00000000 0.00000000 0.00000000 15.00000000 0.00000000 0.00000000 0.00000000 15.00000000" energy_frozen_part=0.00000000 Properties=species:S:1:pos:R:3:velocities:R:3:Z:I:1
H         4.94601785      14.30569669      12.09791103         0.00000000       0.00000000       0.00000000          1
H         5.02596586      13.74879251       9.36153655         0.00000000       0.00000000       0.00000000          1
H         3.54190914      12.11733067      11.07623493         0.00000000       0.00000000       0.00000000          1
H         5.81221495      11.70817122      12.65186349         0.00000000       0.00000000       0.00000000          1
H         5.89216059      11.15127067       9.91548541         0.00000000       0.00000000       0.00000000          1
H         7.29626582      13.33963809      10.93716369         0.00000000       0.00000000       0.00000000          1
6
pbc=[F, F, F] list_num_par=6 frozen=false iter=20000 energy=-1.26974174 Lattice="15.00000000 0.00000000 0.00000000 0.00000000 15.00000000 0.00000000 0.00000000 0.00000000 15.00000000" energy_frozen_part=0.00000000 Properties=species:S:1:pos:R:3:velocities:R:3:Z:I:1
H         4.94602829      14.30571567      12.09786209         0.00000000       0.00000000       0.00000000          1
H         5.02603316      13.74872387       9.36150593         0.00000000       0.00000000       0.00000000          1
H         3.54192608      12.11733071      11.07622640         0.00000000       0.00000000       0.00000000          1
H         5.81219309      11.70820928      12.65192121         0.00000000       0.00000000       0.00000000          1
H         5.89219536      11.15121359       9.91556548         0.00000000       0.00000000       0.00000000          1
H         7.29629843      13.33960134      10.93719549         0.00000000       0.00000000       0.00000000          1
6
pbc=[F, F, F] list_num_par=6 frozen=false iter=20000 energy=-1.26974174 Lattice="15.00000000 0.00000000 0.00000000 0.00000000 15.00000000 0.00000000 0.00000000 0.00000000 15.00000000" energy_frozen_part=0.00000000 Properties=species:S:1:pos:R:3:velocities:R:3:Z:I:1
H         4.94602429      14.30567099      12.09789706         0.00000000       0.00000000       0.00000000          1
H         5.02596525      13.74875792       9.36152396         0.00000000       0.00000000       0.00000000          1
H         3.54192794      12.11729172      11.07623755         0.00000000       0.00000000       0.00000000          1
H         5.81223821      11.70815693      12.65185483         0.00000000       0.00000000       0.00000000          1
H         5.89217690      11.15124318       9.91548297         0.00000000       0.00000000       0.00000000          1
H         7.29627323      13.33962170      10.93714232         0.00000000       0.00000000       0.00000000          1
6
pbc=[F, F, F] list_num_par=6 frozen=false iter=20000 energy=-1.26974174 Lattice="15.00000000 0.00000000 0.00000000 0.00000000 15.00000000 0.00000000 0.00000000 0.00000000 15.00000000" energy_frozen_part=0.00000000 Properties=species:S:1:pos:R:3:velocities:R:3:Z:I:1
H         4.94600366      14.30569084      12.09785186         0.00000000       0.00000000       0.00000000          1
H         5.02602262      13.74873483       9.36148989         0.00000000       0.00000000       0.00000000          1
H         3.54189368      12.11732329      11.07617548         0.00000000       0.00000000       0.00000000          1
H         5.81214765      11.70816683      12.65187694         0.00000000       0.00000000       0.00000000          1
H         5.89216741      11.15121287       9.91551221         0.00000000       0.00000000       0.00000000          1
H         7.29627764      13.33957655      10.93719024         0.00000000       0.00000000       0.00000000          1
6
pbc=[F, F, F] list_num_par=6 frozen=false iter=20000 energy=-1.26974174 Lattice="15.00000000 0.00000000 0.00000000 0.00000000 15.00000000 0.00000000 0.00000000 0.00000000 15.00000000" energy_frozen_part=0.00000000 Properties=species:S:1:pos:R:3:velocities:R:3:Z:I:1
H         4.94602931      14.30570563      12.09782874         0.00000000       0.00000000       0.00000000          1
H         5.02601706      13.74871850       9.36147213         0.00000000       0.00000000       0.00000000          1
H         3.54190081      12.11733469      11.07619333         0.00000000       0.00000000       0.00000000          1
H         5.81216969      11.70818022      12.65187049         0.00000000       0.00000000       0.00000000          1
H         5.89215524      11.15119690       9.91551577         0.00000000       0.00000000       0.00000000          1
H         7.29628567      13.33956461      10.93715104         0.00000000       0.00000000       0.00000000          1
6
pbc=[F, F, F] list_num_par=6 frozen=false iter=20000 energy=-1.26974174 Lattice="15.00000000 0.00000000 0.00000000 0.00000000 15.00000000 0.00000000 0.00000000 0.00000000 15.00000000" energy_frozen_part=0.00000000 Properties=species:S:1:pos:R:3:velocities:R:3:Z:I:1
H         4.94603108      14.30572962      12.09788591         0.00000000       0.00000000       0.00000000          1
H         5.02599191      13.74873569       9.36152732         0.00000000       0.00000000       0.00000000          1
H         3.54187760      12.11736826      11.07626258         0.00000000       0.00000000       0.00000000          1
H         5.81215123      11.70820000      12.65192662         0.00000000       0.00000000       0.00000000          1
H         5.89211529      11.15120358       9.91556873         0.00000000       0.00000000       0.00000000          1
H         7.29626674      13.33956951      10.93719227         0.00000000       0.00000000       0.00000000          1
6
pbc=[F, F, F] list_num_par=6 frozen=false iter=20000 energy=-1.26974174 Lattice="15.00000000 0.00000000 0.00000000 0.00000000 15.00000000 0.00000000 0.00000000 0.00000000 15.00000000" energy_frozen_part=0.00000000 Properties=species:S:1:pos:R:3:velocities:R:3:Z:I:1
H         4.94608396      14.30570593      12.09786609         0.00000000       0.00000000       0.00000000          1
H         5.02603771      13.74872569       9.36150692         0.00000000       0.00000000       0.00000000          1
H         3.54192748      12.11734942      11.07624175         0.00000000       0.00000000       0.00000000          1
H         5.81220566      11.70817707      12.65189780         0.00000000       0.00000000       0.00000000          1
H         5.89215969      11.15119616       9.91554161         0.00000000       0.00000000       0.00000000          1
H         7.29631627      13.33955141      10.93716250         0.00000000       0.00000000       0.00000000          1
6
pbc=[F, F, F] list_num_par=6 frozen=false iter=20000 energy=-1.26974174 Lattice="15.00000000 0.00000000 0.00000000 0.00000000 15.00000000 0.00000000 0.00000000 0.00000000 15.00000000" energy_frozen_part=0.00000000 Properties=species:S:1:pos:R:3:velocities:R:3:Z:I:1
H         7.51147942      13.63917276      10.30321924         0.00000000       0.00000000       0.00000000          1
H         9.67221582      11.95132914       9.76777959         0.00000000       0.00000000       0.00000000          1
H         7.41367889      11.89318468       8.12463333         0.00000000       0.00000000       0.00000000          1
H         5.80056949      11.43144991      10.35823274         0.00000000       0.00000000       0.00000000          1
H         7.96130426       9.74360788       9.82278540         0.00000000       0.00000000       0.00000000          1
H         8.05910178      11.48959857      12.00137528         0.00000000       0.00000000       0.00000000          1
6
pbc=[F, F, F] list_num_par=6 frozen=false iter=20000 energy=-1.26974174 Lattice="15.00000000 0.00000000 0.00000000 0.00000000 15.00000000 0.00000000 0.00000000 0.00000000 15.00000000" energy_frozen_part=0.00000000 Properties=species:S:1:pos:R:3:velocities:R:3:Z:I:1
H         4.94599824      14.30572657      12.09783524         0.00000000       0.00000000       0.00000000          1
H         5.02601667      13.74876122       9.36147585         0.00000000       0.00000000       0.00000000          1
H         3.54189027      12.11736170      11.07616615         0.00000000       0.00000000       0.00000000          1
H         5.81213924      11.70819966      12.65186484         0.00000000       0.00000000       0.00000000          1
H         5.89216113      11.15123906       9.91550535         0.00000000       0.00000000       0.00000000          1
H         7.29626929      13.33960858      10.93717323         0.00000000       0.00000000       0.00000000          1
