6
pbc=[F, F, F] list_num_par=6 frozen=false iter=20000 energy=-1.26974174 Lattice="15.00000000 0.00000000 0.00000000 0.00000000 15.00000000 0.00000000 0.00000000 0.00000000 15.00000000" energy_frozen_part=0.00000000 Properties=species:S:1:pos:R:3:velocities:R:3:Z:I:1
H        14.28987034       7.36340657      10.56444565         0.00000000       0.00000000       0.00000000          1
H        14.02078581       9.25730987      12.60037834         0.00000000       0.00000000       0.00000000          1
H        11.95926636       7.43881102      12.10291551         0.00000000       0.00000000       0.00000000          1
H        11.89429465       8.24402966       9.42864750         0.00000000       0.00000000       0.00000000          1
H        11.62521073      10.13792800      11.46458595         0.00000000       0.00000000       0.00000000          1
H        13.95581600      10.06252007       9.92611200         0.00000000       0.00000000       0.00000000          1
6
pbc=[F, F, F] list_num_par=6 frozen=false iter=20000 energy=-1.26974174 Lattice="15.00000000 0.00000000 0.00000000 0.00000000 15.00000000 0.00000000 0.00000000 0.00000000 15.00000000" energy_frozen_part=0.00000000 Properties=species:S:1:pos:R:3:velocities:R:3:Z:I:1
H        10.70969496       7.67282682      14.14430845         0.00000000       0.00000000       0.00000000          1
H        10.94047333       7.01147292      11.43993339         0.00000000       0.00000000       0.00000000          1
H        12.05715251       5.34632729      13.38533407         0.00000000       0.00000000       0.00000000          1
H        12.36838060       9.17811680      12.47483541         0.00000000       0.00000000       0.00000000          1
H        13.71583348       6.85161344      11.71585597         0.00000000       0.00000000       0.00000000          1
H        13.48505466       7.51296873      14.42023410         0.00000000       0.00000000       0.00000000          1
6
pbc=[F, F, F] list_num_par=6 frozen=false iter=20000 energy=-1.26974174 Lattice="15.00000000 0.00000000 0.00000000 0.00000000 15.00000000 0.00000000 0.00000000 0.00000000 15.00000000" energy_frozen_part=0.00000000 Properties=species:S:1:pos:R:3:velocities:R:3:Z:I:1
H        10.70968607       7.67268080      14.14405148         0.00000000       0.00000000       0.00000000          1
H        10.94068805       7.01167103      11.43961011         0.00000000       0.00000000       0.00000000          1
H        12.05684909       5.34606143      13.38491720         0.00000000       0.00000000       0.00000000          1
H        12.36882110       9.17794054      12.47499412         0.00000000       0.00000000       0.00000000          1
H        13.71598173       6.85131999      11.71584828         0.00000000       0.00000000       0.00000000          1
H        13.48497935       7.51232776      14.42028938         0.00000000       0.00000000       0.00000000          1
6
pbc=[F, F, F] list_num_par=6 frozen=false iter=20000 energy=-1.26974174 Lattice="15.00000000 0.00000000 0.00000000 0.00000000 15.00000000 0.00000000 0.00000000 0.00000000 15.00000000" energy_frozen_part=0.00000000 Properties=species:S:1:pos:R:3:velocities:R:3:Z:I:1
H        14.28960959       7.36279111      10.56457732         0.00000000       0.00000000       0.00000000          1
H        14.02094493       9.25724198      12.60005446         0.00000000       0.00000000       0.00000000          1
H        11.95892701       7.43922917      12.10286829         0.00000000       0.00000000       0.00000000          1
H        11.89437544       8.24384400       9.42841376         0.00000000       0.00000000       0.00000000          1
H        11.62571141      10.13829780      11.46389162         0.00000000       0.00000000       0.00000000          1
H        13.95640117      10.06185048       9.92560120         0.00000000       0.00000000       0.00000000          1
6
pbc=[F, F, F] list_num_par=6 frozen=false iter=20000 energy=-1.26974174 Lattice="15.00000000 0.00000000 0.00000000 0.00000000 15.00000000 0.00000000 0.00000000 0.00000000 15.00000000" energy_frozen_part=0.00000000 Properties=species:S:1:pos:R:3:velocities:R:3:Z:I:1
H        10.70967233       7.67266815      14.14403508         0.00000000       0.00000000       0.00000000          1
H        10.94068789       7.01165370      11.43959838         0.00000000       0.00000000       0.00000000          1
H        12.05686025       5.34606236      13.38491187         0.00000000       0.00000000       0.00000000          1
H        12.36880376       9.17793142      12.47497952         0.00000000       0.00000000       0.00000000          1
H        13.71598626       6.85133169      11.71585317         0.00000000       0.00000000       0.00000000          1
H        13.48497185       7.51233455      14.42029563         0.00000000       0.00000000       0.00000000          1
6
pbc=[F, F, F] list_num_par=6 frozen=false iter=20000 energy=-1.26974174 Lattice="15.00000000 0.00000000 0.00000000 0.00000000 15.00000000 0.00000000 0.00000000 0.00000000 15.00000000" energy_frozen_part=0.00000000 Properties=species:S:1:pos:R:3:velocities:R:3:Z:I:1
H        14.28874112       7.36241558      10.56353399         0.00000000       0.00000000       0.00000000          1
H        14.02139207       9.25638842      12.59963693         0.00000000       0.00000000       0.00000000          1
H        11.95805040       7.44006826      12.10175678         0.00000000       0.00000000       0.00000000          1
H        11.89421312       8.24562704       9.42756761         0.00000000       0.00000000       0.00000000          1
H        11.62685464      10.13959312      11.46366280         0.00000000       0.00000000       0.00000000          1
H        13.95755215      10.06194349       9.92545095         0.00000000       0.00000000       0.00000000          1
6
pbc=[F, F, F] list_num_par=6 frozen=false iter=20000 energy=-1.26974174 Lattice="15.00000000 0.00000000 0.00000000 0.00000000 15.00000000 0.00000000 0.00000000 0.00000000 15.00000000" energy_frozen_part=0.00000000 Properties=species:S:1:pos:R:3:velocities:R:3:Z:I:1
H        14.28874442       7.36242256      10.56360325         0.00000000       0.00000000       0.00000000          1
H        14.02147747       9.25642667      12.59967499         0.00000000       0.00000000       0.00000000          1
H        11.95809955       7.44011373      12.10189092         0.00000000       0.00000000       0.00000000          1
H        11.89418797       8.24563336       9.42768435         0.00000000       0.00000000       0.00000000          1
H        11.62691198      10.13963050      11.46376608         0.00000000       0.00000000       0.00000000          1
H        13.95756433      10.06193747       9.92547462         0.00000000       0.00000000       0.00000000          1
6
pbc=[F, F, F] list_num_par=6 frozen=false iter=20000 energy=-1.26974174 Lattice="15.00000000 0.00000000 0.00000000 0.00000000 15.00000000 0.00000000 0.00000000 0.00000000 15.00000000" energy_frozen_part=0.00000000 Properties=species:S:1:pos:R:3:velocities:R:3:Z:I:1
H        10.70971071       7.67281746      14.14431091         0.00000000       0.00000000       0.00000000          1
H        10.94048354       7.01146635      11.43994111         0.00000000       0.00000000       0.00000000          1
H        12.05717053       5.34631421      13.38533846         0.00000000       0.00000000       0.00000000          1
H        12.36837493       9.17812225      12.47482859         0.00000000       0.00000000       0.00000000          1
H        13.71583574       6.85162129      11.71585606         0.00000000       0.00000000       0.00000000          1
H        13.48506497       7.51296812      14.42023140         0.00000000       0.00000000       0.00000000          1
6
pbc=[F, F, F] list_num_par=6 frozen=false iter=20000 energy=-1.26974174 Lattice="15.00000000 0.00000000 0.00000000 0.00000000 15.00000000 0.00000000 0.00000000 0.00000000 15.00000000" energy_frozen_part=0.00000000 Properties=species:S:1:pos:R:3:velocities:R:3:Z:I:1
H        14.28965218       7.36281067      10.56466064         0.00000000       0.00000000       0.00000000          1
H        14.02101263       9.25725443      12.60015359         0.00000000       0.00000000       0.00000000          1
H        11.95903059       7.43918431      12.10305054         0.00000000       0.00000000       0.00000000          1
H        11.89434376       8.24380049       9.42859708         0.00000000       0.00000000       0.00000000          1
H        11.62570601      10.13824067      11.46408281         0.00000000       0.00000000       0.00000000          1
H        13.95633347      10.06186640       9.92569243         0.00000000       0.00000000       0.00000000          1
6
pbc=[F, F, F] list_num_par=6 frozen=false iter=20000 energy=-1.26974174 Lattice="15.00000000 0.00000000 0.00000000 0.00000000 15.00000000 0.00000000 0.00000000 0.00000000 15.00000000" energy_frozen_part=0.00000000 Properties=species:S:1:pos:R:3:velocities:R:3:Z:I:1
H        14.28963724       7.36287178      10.56452032         0.00000000       0.00000000       0.00000000          1
H        14.02103271       9.25729072      12.60003301         0.00000000       0.00000000       0.00000000          1
H        11.95902329       7.43924803      12.10291936         0.00000000       0.00000000       0.00000000          1
H        11.89433214       8.24390161       9.42847675         0.00000000       0.00000000       0.00000000          1
H        11.62572687      10.13831613      11.46400197         0.00000000       0.00000000       0.00000000          1
H        13.95633526      10.06194581       9.92559592         0.00000000       0.00000000       0.00000000          1
6
pbc=[F, F, F] list_num_par=6 frozen=false iter=20000 energy=-1.26974174 Lattice="15.00000000 0.00000000 0.00000000 0.00000000 15.00000000 0.00000000 0.00000000 0.00000000 15.00000000" energy_frozen_part=0.00000000 Properties=species:S:1:pos:R:3:velocities:R:3:Z:I:1
H        14.28986626       7.36340790      10.56445329         0.00000000       0.00000000       0.00000000          1
H        14.02078543       9.25732078      12.60037787         0.00000000       0.00000000       0.00000000          1
H        11.95925616       7.43881885      12.10291773         0.00000000       0.00000000       0.00000000          1
H        11.89429389       8.24402280       9.42865227         0.00000000       0.00000000       0.00000000          1
H        11.62521291      10.13793117      11.46457502         0.00000000       0.00000000       0.00000000          1
H        13.95582193      10.06252247       9.92610421         0.00000000       0.00000000       0.00000000          1
6
pbc=[F, F, F] list_num_par=6 frozen=false iter=20000 energy=-1.26974174 Lattice="15.00000000 0.00000000 0.00000000 0.00000000 15.00000000 0.00000000 0.00000000 0.00000000 15.00000000" energy_frozen_part=0.00000000 Properties=species:S:1:pos:R:3:velocities:R:3:Z:I:1
H        14.28964631       7.36289404      10.56460013         0.00000000       0.00000000       0.00000000          1
H        14.02108132       9.25720968      12.60020959         0.00000000       0.00000000       0.00000000          1
H        11.95905413       7.43919868      12.10304772         0.00000000       0.00000000       0.00000000          1
H        11.89431552       8.24397374       9.42864858         0.00000000       0.00000000       0.00000000          1
H        11.62575556      10.13829334      11.46425374         0.00000000       0.00000000       0.00000000          1
H        13.95634167      10.06199022       9.92581088         0.00000000       0.00000000       0.00000000          1
6
pbc=[F, F, F] list_num_par=6 frozen=false iter=20000 energy=-1.26974174 Lattice="15.00000000 0.00000000 0.00000000 0.00000000 15.00000000 0.00000000 0.00000000 0.00000000 15.00000000" energy_frozen_part=0.00000000 Properties=species:S:1:pos:R:3:velocities:R:3:Z:I:1
H        14.28871847       7.36240123      10.56352384         0.00000000       0.00000000       0.00000000          1
H        14.02141157       9.25637002      12.59961883         0.00000000       0.00000000       0.00000000          1
H        11.95805521       7.44005170      12.10179691         0.00000000       0.00000000       0.00000000          1
H        11.89415727       8.24559914       9.42761057         0.00000000       0.00000000       0.00000000          1
H        11.62684959      10.13957760      11.46369969         0.00000000       0.00000000       0.00000000          1
H        13.95750566      10.06192410       9.92542648         0.00000000       0.00000000       0.00000000          1
6
pbc=[F, F, F] list_num_par=6 frozen=false iter=20000 energy=-1.26974174 Lattice="15.00000000 0.00000000 0.00000000 0.00000000 15.00000000 0.00000000 0.00000000 0.00000000 15.00000000" energy_frozen_part=0.00000000 Properties=species:S:1:pos:R:3:velocities:R:3:Z:I:1
H        10.70969086       7.67280611      14.14432333         0.00000000       0.00000000       0.00000000          1
H        10.94046856       7.01147245      11.43994643         0.00000000       0.00000000       0.00000000          1
H        12.05714070       5.34630942      13.38533546         0.00000000       0.00000000       0.00000000          1
H        12.36837492       9.17811353      12.47486194         0.00000000       0.00000000       0.00000000          1
H        13.71582762       6.85161468      11.71587596         0.00000000       0.00000000       0.00000000          1
H        13.48503912       7.51294795      14.42025114         0.00000000       0.00000000       0.00000000          1
6
pbc=[F, F, F] list_num_par=6 frozen=false iter=20000 energy=-1.26974174 Lattice="15.00000000 0.00000000 0.00000000 0.00000000 15.00000000 0.00000000 0.00000000 0.00000000 15.00000000" energy_frozen_part=0.00000000 Properties=species:S:1:pos:R:3:velocities:R:3:Z:I:1
H        14.28871970       7.36240352      10.56352578         0.00000000       0.00000000       0.00000000          1
H        14.02139661       9.25637436      12.59962751         0.00000000       0.00000000       0.00000000          1
H        11.95805235       7.44005242      12.10178854         0.00000000       0.00000000       0.00000000          1
H        11.89415546       8.24559782       9.42760103         0.00000000       0.00000000       0.00000000          1
H        11.62684359      10.13957847      11.46369760         0.00000000       0.00000000       0.00000000          1
H        13.95751173      10.06192200       9.92543285         0.00000000       0.00000000       0.00000000          1
6
pbc=[F, F, F] list_num_par=6 frozen=false iter=20000 energy=-1.26974174 Lattice="15.00000000 0.00000000 0.00000000 0.00000000 15.00000000 0.00000000 0.00000000 0.00000000 15.00000000" energy_frozen_part=0.00000000 Properties=species:S:1:pos:R:3:velocities:R:3:Z:I:1
H        14.28963180       7.36286828      10.56452668         0.00000000       0.00000000       0.00000000          1
H        14.02103703       9.25726773      12.60006838         0.00000000       0.00000000       0.00000000          1
H        11.95901624       7.43924433      12.10292157         0.00000000       0.00000000       0.00000000          1
H        11.89434272       8.24393404       9.42848663         0.00000000       0.00000000       0.00000000          1
H        11.62574306      10.13832206      11.46403247         0.00000000       0.00000000       0.00000000          1
H        13.95636202      10.06195215       9.92563959         0.00000000       0.00000000       0.00000000          1
6
pbc=[F, F, F] list_num_par=6 frozen=false iter=20000 energy=-1.26974174 Lattice="15.00000000 0.00000000 0.00000000 0.00000000 15.00000000 0.00000000 0.00000000 0.00000000 15.00000000" energy_frozen_part=0.00000000 Properties=species:S:1:pos:R:3:velocities:R:3:Z:I:1
H        14.28988964       7.36340013      10.56447084         0.00000000       0.00000000       0.00000000          1
H        14.02078655       9.25731806      12.60038113         0.00000000       0.00000000       0.00000000          1
H        11.95928165       7.43880103      12.10292808         0.00000000       0.00000000       0.00000000          1
H        11.89431857       8.24399622       9.42865057         0.00000000       0.00000000       0.00000000          1
H        11.62521857      10.13791155      11.46456691         0.00000000       0.00000000       0.00000000          1
H        13.95583458      10.06251075       9.92611349         0.00000000       0.00000000       0.00000000          1
6
pbc=[F, F, F] list_num_par=6 frozen=false iter=20000 energy=-1.26974174 Lattice="15.00000000 0.00000000 0.00000000 0.00000000 15.00000000 0.00000000 0.00000000 0.00000000 15.00000000" energy_frozen_part=0.00000000 Properties=species:S:1:pos:R:3:velocities:R:3:Z:I:1
H        14.28960792       7.36279062      10.56457644         0.00000000       0.00000000       0.00000000          1
H        14.02095129       9.25723433      12.60004833         0.00000000       0.00000000       0.00000000          1
H        11.95891793       7.43923944      12.10286694         0.00000000       0.00000000       0.00000000          1
H        11.89437572       8.24385423       9.42841528         0.00000000       0.00000000       0.00000000          1
H        11.62571719      10.13830501      11.46388650         0.00000000       0.00000000       0.00000000          1
H        13.95640223      10.06186193       9.92559680         0.00000000       0.00000000       0.00000000          1
6
pbc=[F, F, F] list_num_par=6 frozen=false iter=20000 energy=-1.26974174 Lattice="15.00000000 0.00000000 0.00000000 0.00000000 15.00000000 0.00000000 0.00000000 0.00000000 15.00000000" energy_frozen_part=0.00000000 Properties=species:S:1:pos:R:3:velocities:R:3:Z:I:1
H        14.28961817       7.36277878      10.56458103         0.00000000       0.00000000       0.00000000          1
H        14.02093980       9.25723786      12.60004660         0.00000000       0.00000000       0.00000000          1
H        11.95892391       7.43922785      12.10285887         0.00000000       0.00000000       0.00000000          1
H        11.89438845       8.24383222       9.42839940         0.00000000       0.00000000       0.00000000          1
H        11.62571915      10.13829794      11.46386945         0.00000000       0.00000000       0.00000000          1
H        13.95641128      10.06184019       9.92558824         0.00000000       0.00000000       0.00000000          1
6
pbc=[F, F, F] list_num_par=6 frozen=false iter=20000 energy=-1.26974174 Lattice="15.00000000 0.00000000 0.00000000 0.00000000 15.00000000 0.00000000 0.00000000 0.00000000 15.00000000" energy_frozen_part=0.00000000 Properties=species:S:1:pos:R:3:velocities:R:3:Z:I:1
H        14.28969447       7.36288769      10.56460689         0.00000000       0.00000000       0.00000000          1
H        14.02106529       9.25723277      12.60018363         0.00000000       0.00000000       0.00000000          1
H        11.95907904       7.43918036      12.10300581         0.00000000       0.00000000       0.00000000          1
H        11.89437742       8.24391320       9.42859439         0.00000000       0.00000000       0.00000000          1
H        11.62574327      10.13826436      11.46417557         0.00000000       0.00000000       0.00000000          1
H        13.95636204      10.06197242       9.92576628         0.00000000       0.00000000       0.00000000          1
6
pbc=[F, F, F] list_num_par=6 frozen=false iter=20000 energy=-1.26974174 Lattice="15.00000000 0.00000000 0.00000000 0.00000000 15.00000000 0.00000000 0.00000000 0.00000000 15.00000000" energy_frozen_part=0.00000000 Properties=species:S:1:pos:R:3:velocities:R:3:Z:I:1
H        10.70966884       7.67281419      14.14431156         0.00000000       0.00000000       0.00000000          1
H        10.94045005       7.01150133      11.43992887         0.00000000       0.00000000       0.00000000          1
H        12.05708884       5.34630119      13.38531382         0.00000000       0.00000000       0.00000000          1
H        12.36838315       9.17810469      12.47487675         0.00000000       0.00000000       0.00000000          1
H        13.71580272       6.85159395      11.71587357         0.00000000       0.00000000       0.00000000          1
H        13.48502063       7.51290730      14.42025253         0.00000000       0.00000000       0.00000000          1
6
pbc=[F, F, F] list_num_par=6 frozen=false iter=20000 energy=-1.26974174 Lattice="15.00000000 0.00000000 0.00000000 0.00000000 15.00000000 0.00000000 0.00000000 0.00000000 15.00000000" energy_frozen_part=0.00000000 Properties=species:S:1:pos:R:3:velocities:R:3:Z:I:1
H        10.70953247       7.67256193      14.14399247         0.00000000       0.00000000       0.00000000          1
H        10.94077291       7.01170626      11.43952994         0.00000000       0.00000000       0.00000000          1
H        12.05684152       5.34603404      13.38483568         0.00000000       0.00000000       0.00000000          1
H        12.36874105       9.17796909      12.47513544         0.00000000       0.00000000       0.00000000          1
H        13.71605236       6.85143853      11.71599461         0.00000000       0.00000000       0.00000000          1
H        13.48480736       7.51229800      14.42044812         0.00000000       0.00000000       0.00000000          1
6
pbc=[F, F, F] list_num_par=6 frozen=false iter=20000 energy=-1.26974174 Lattice="15.00000000 0.00000000 0.00000000 0.00000000 15.00000000 0.00000000 0.00000000 0.00000000 15.00000000" energy_frozen_part=0.00000000 Properties=species:S:1:pos:R:3:velocities:R:3:Z:I:1
H        14.28965146       7.36287611      10.56451717         0.00000000       0.00000000       0.00000000          1
H        14.02103533       9.25725227      12.60006223         0.00000000       0.00000000       0.00000000          1
H        11.95902255       7.43923056      12.10290734         0.00000000       0.00000000       0.00000000          1
H        11.89435429       8.24393579       9.42848626         0.00000000       0.00000000       0.00000000          1
H        11.62573957      10.13831577      11.46403345         0.00000000       0.00000000       0.00000000          1
H        13.95636646      10.06195686       9.92563626         0.00000000       0.00000000       0.00000000          1
6
pbc=[F, F, F] list_num_par=6 frozen=false iter=20000 energy=-1.26974174 Lattice="15.00000000 0.00000000 0.00000000 0.00000000 15.00000000 0.00000000 0.00000000 0.00000000 15.00000000" energy_frozen_part=0.00000000 Properties=species:S:1:pos:R:3:velocities:R:3:Z:I:1
H        14.28866778       7.36230255      10.56362329         0.00000000       0.00000000       0.00000000          1
H        14.02141999       9.25635235      12.59965730         0.00000000       0.00000000       0.00000000          1
H        11.95799612       7.44009966      12.10186911         0.00000000       0.00000000       0.00000000          1
H        11.89415350       8.24555498       9.42764584         0.00000000       0.00000000       0.00000000          1
H        11.62690069      10.13960789      11.46368040         0.00000000       0.00000000       0.00000000          1
H        13.95756652      10.06181926       9.92543968         0.00000000       0.00000000       0.00000000          1
6
pbc=[F, F, F] list_num_par=6 frozen=false iter=20000 energy=-1.26974174 Lattice="15.00000000 0.00000000 0.00000000 0.00000000 15.00000000 0.00000000 0.00000000 0.00000000 15.00000000" energy_frozen_part=0.00000000 Properties=species:S:1:pos:R:3:velocities:R:3:Z:I:1
H        10.70967081       7.67281706      14.14431335         0.00000000       0.00000000       0.00000000          1
H        10.94045836       7.01149460      11.43993059         0.00000000       0.00000000       0.00000000          1
H        12.05709369       5.34630032      13.38532406         0.00000000       0.00000000       0.00000000          1
H        12.36838675       9.17810745      12.47486113         0.00000000       0.00000000       0.00000000          1
H        13.71580350       6.85158709      11.71587882         0.00000000       0.00000000       0.00000000          1
H        13.48501949       7.51291438      14.42025298         0.00000000       0.00000000       0.00000000          1
6
pbc=[F, F, F] list_num_par=6 frozen=false iter=20000 energy=-1.26974174 Lattice="15.00000000 0.00000000 0.00000000 0.00000000 15.00000000 0.00000000 0.00000000 0.00000000 15.00000000" energy_frozen_part=0.00000000 Properties=species:S:1:pos:R:3:velocities:R:3:Z:I:1
H        14.28864496       7.36233977      10.56360314         0.00000000       0.00000000       0.00000000          1
H        14.02142293       9.25638693      12.59964922         0.00000000       0.00000000       0.00000000          1
H        11.95798526       7.44013606      12.10187245         0.00000000       0.00000000       0.00000000          1
H        11.89412115       8.24561660       9.42765631         0.00000000       0.00000000       0.00000000          1
H        11.62689759      10.13965417      11.46370568         0.00000000       0.00000000       0.00000000          1
H        13.95754986      10.06186079       9.92543767         0.00000000       0.00000000       0.00000000          1
6
pbc=[F, F, F] list_num_par=6 frozen=false iter=20000 energy=-1.26974174 Lattice="15.00000000 0.00000000 0.00000000 0.00000000 15.00000000 0.00000000 0.00000000 0.00000000 15.00000000" energy_frozen_part=0.00000000 Properties=species:S:1:pos:R:3:velocities:R:3:Z:I:1
H        14.28864868       7.36234799      10.56359854         0.00000000       0.00000000       0.00000000          1
H        14.02141779       9.25638370      12.59964949         0.00000000       0.00000000       0.00000000          1
H        11.95799044       7.44013591      12.10186900         0.00000000       0.00000000       0.00000000          1
H        11.89413001       8.24561962       9.42765647         0.00000000       0.00000000       0.00000000          1
H        11.62689538      10.13965608      11.46371161         0.00000000       0.00000000       0.00000000          1
H        13.95755694      10.06187504       9.92544551         0.00000000       0.00000000       0.00000000          1
6
pbc=[F, F, F] list_num_par=6 frozen=false iter=20000 energy=-1.26974174 Lattice="15.00000000 0.00000000 0.00000000 0.00000000 15.00000000 0.00000000 0.00000000 0.00000000 15.00000000" energy_frozen_part=0.00000000 Properties=species:S:1:pos:R:3:velocities:R:3:Z:I:1
H        14.28964550       7.36280945      10.56467053         0.00000000       0.00000000       0.00000000          1
H        14.02102321       9.25725069      12.60016009         0.00000000       0.00000000       0.00000000          1
H        11.95901177       7.43920280      12.10305452         0.00000000       0.00000000       0.00000000          1
H        11.89434466       8.24381645       9.42860214         0.00000000       0.00000000       0.00000000          1
H        11.62573430      10.13826412      11.46408765         0.00000000       0.00000000       0.00000000          1
H        13.95635655      10.06186472       9.92570563         0.00000000       0.00000000       0.00000000          1
6
pbc=[F, F, F] list_num_par=6 frozen=false iter=20000 energy=-1.26974174 Lattice="15.00000000 0.00000000 0.00000000 0.00000000 15.00000000 0.00000000 0.00000000 0.00000000 15.00000000" energy_frozen_part=0.00000000 Properties=species:S:1:pos:R:3:velocities:R:3:Z:I:1
H        10.70968002       7.67282016      14.14430810         0.00000000       0.00000000       0.00000000          1
H        10.94045804       7.01149598      11.43993208         0.00000000       0.00000000       0.00000000          1
H        12.05708455       5.34629316      13.38532375         0.00000000       0.00000000       0.00000000          1
H        12.36841459       9.17809648      12.47486334         0.00000000       0.00000000       0.00000000          1
H        13.71580800       6.85157057      11.71587932         0.00000000       0.00000000       0.00000000          1
H        13.48502603       7.51290045      14.42025793         0.00000000       0.00000000       0.00000000          1
6
pbc=[F, F, F] list_num_par=6 frozen=false iter=20000 energy=-1.26974174 Lattice="15.00000000 0.00000000 0.00000000 0.00000000 15.00000000 0.00000000 0.00000000 0.00000000 15.00000000" energy_frozen_part=0.00000000 Properties=species:S:1:pos:R:3:velocities:R:3:Z:I:1
H        10.70967349       7.67267043      14.14404839         0.00000000       0.00000000       0.00000000          1
H        10.94067500       7.01164641      11.43961373         0.00000000       0.00000000       0.00000000          1
H        12.05684330       5.34605129      13.38492279         0.00000000       0.00000000       0.00000000          1
H        12.36880817       9.17792591      12.47497413         0.00000000       0.00000000       0.00000000          1
H        13.71597142       6.85130529      11.71585636         0.00000000       0.00000000       0.00000000          1
H        13.48496773       7.51232978      14.42029573         0.00000000       0.00000000       0.00000000          1
6
pbc=[F, F, F] list_num_par=6 frozen=false iter=20000 energy=-1.26974174 Lattice="15.00000000 0.00000000 0.00000000 0.00000000 15.00000000 0.00000000 0.00000000 0.00000000 15.00000000" energy_frozen_part=0.00000000 Properties=species:S:1:pos:R:3:velocities:R:3:Z:I:1
H        14.28964412       7.36283408      10.56463569         0.00000000       0.00000000       0.00000000          1
H        14.02098598       9.25733126      12.60006444         0.00000000       0.00000000       0.00000000          1
H        11.95898518       7.43927236      12.10296116         0.00000000       0.00000000       0.00000000          1
H        11.89437935       8.24382704       9.42848733         0.00000000       0.00000000       0.00000000          1
H        11.62571713      10.13832459      11.46391843         0.00000000       0.00000000       0.00000000          1
H        13.95637761      10.06187679       9.92558929         0.00000000       0.00000000       0.00000000          1
6
pbc=[F, F, F] list_num_par=6 frozen=false iter=20000 energy=-1.26974174 Lattice="15.00000000 0.00000000 0.00000000 0.00000000 15.00000000 0.00000000 0.00000000 0.00000000 15.00000000" energy_frozen_part=0.00000000 Properties=species:S:1:pos:R:3:velocities:R:3:Z:I:1
H        14.28968762       7.36287069      10.56464901         0.00000000       0.00000000       0.00000000          1
H        14.02103502       9.25722369      12.60021937         0.00000000       0.00000000       0.00000000          1
H        11.95903666       7.43919996      12.10300978         0.00000000       0.00000000       0.00000000          1
H        11.89439710       8.24392751       9.42859747         0.00000000       0.00000000       0.00000000          1
H        11.62574958      10.13828732      11.46416412         0.00000000       0.00000000       0.00000000          1
H        13.95639299      10.06195706       9.92579733         0.00000000       0.00000000       0.00000000          1
6
pbc=[F, F, F] list_num_par=6 frozen=false iter=20000 energy=-1.26974174 Lattice="15.00000000 0.00000000 0.00000000 0.00000000 15.00000000 0.00000000 0.00000000 0.00000000 15.00000000" energy_frozen_part=0.00000000 Properties=species:S:1:pos:R:3:velocities:R:3:Z:I:1
H        10.70969433       7.67271452      14.14404706         0.00000000       0.00000000       0.00000000          1
H        10.94069852       7.01164730      11.43962662         0.00000000       0.00000000       0.00000000          1
H        12.05686634       5.34608110      13.38496354         0.00000000       0.00000000       0.00000000          1
H        12.36882326       9.17794351      12.47495834         0.00000000       0.00000000       0.00000000          1
H        13.71599319       6.85131722      11.71586836         0.00000000       0.00000000       0.00000000          1
H        13.48498346       7.51237930      14.42029620         0.00000000       0.00000000       0.00000000          1
6
pbc=[F, F, F] list_num_par=6 frozen=false iter=20000 energy=-1.26974174 Lattice="15.00000000 0.00000000 0.00000000 0.00000000 15.00000000 0.00000000 0.00000000 0.00000000 15.00000000" energy_frozen_part=0.00000000 Properties=species:S:1:pos:R:3:velocities:R:3:Z:I:1
H        10.70967870       7.67279832      14.14432809         0.00000000       0.00000000       0.00000000          1
H        10.94047339       7.01148960      11.43993941         0.00000000       0.00000000       0.00000000          1
H        12.05712717       5.34630101      13.38532301         0.00000000       0.00000000       0.00000000          1
H        12.36837391       9.17811375      12.47487628         0.00000000       0.00000000       0.00000000          1
H        13.71582307       6.85161775      11.71588380         0.00000000       0.00000000       0.00000000          1
H        13.48503352       7.51292858      14.42026553         0.00000000       0.00000000       0.00000000          1
6
pbc=[F, F, F] list_num_par=6 frozen=false iter=20000 energy=-1.26974174 Lattice="15.00000000 0.00000000 0.00000000 0.00000000 15.00000000 0.00000000 0.00000000 0.00000000 15.00000000" energy_frozen_part=0.00000000 Properties=species:S:1:pos:R:3:velocities:R:3:Z:I:1
H        14.28872796       7.36243779      10.56353040         0.00000000       0.00000000       0.00000000          1
H        14.02139153       9.25640148      12.59962318         0.00000000       0.00000000       0.00000000          1
H        11.95804966       7.44007198      12.10176640         0.00000000       0.00000000       0.00000000          1
H        11.89417995       8.24563347       9.42757572         0.00000000       0.00000000       0.00000000          1
H        11.62683931      10.13959227      11.46367813         0.00000000       0.00000000       0.00000000          1
H        13.95752274      10.06196125       9.92543560         0.00000000       0.00000000       0.00000000          1
6
pbc=[F, F, F] list_num_par=6 frozen=false iter=20000 energy=-1.26974174 Lattice="15.00000000 0.00000000 0.00000000 0.00000000 15.00000000 0.00000000 0.00000000 0.00000000 15.00000000" energy_frozen_part=0.00000000 Properties=species:S:1:pos:R:3:velocities:R:3:Z:I:1
H        14.28865297       7.36230517      10.56359675         0.00000000       0.00000000       0.00000000          1
H        14.02142521       9.25635179      12.59963722         0.00000000       0.00000000       0.00000000          1
H        11.95800407       7.44009610      12.10187374         0.00000000       0.00000000       0.00000000          1
H        11.89412379       8.24557016       9.42765975         0.00000000       0.00000000       0.00000000          1
H        11.62688908      10.13960735      11.46370142         0.00000000       0.00000000       0.00000000          1
H        13.95754273      10.06182359       9.92542834         0.00000000       0.00000000       0.00000000          1
6
pbc=[F, F, F] list_num_par=6 frozen=false iter=20000 energy=-1.26974174 Lattice="15.00000000 0.00000000 0.00000000 0.00000000 15.00000000 0.00000000 0.00000000 0.00000000 15.00000000" energy_frozen_part=0.00000000 Properties=species:S:1:pos:R:3:velocities:R:3:Z:I:1
H        14.28986801       7.36340555      10.56444837         0.00000000       0.00000000       0.00000000          1
H        14.02078106       9.25731892      12.60037226         0.00000000       0.00000000       0.00000000          1
H        11.95926897       7.43881423      12.10291921         0.00000000       0.00000000       0.00000000          1
H        11.89429300       8.24402197       9.42865475         0.00000000       0.00000000       0.00000000          1
H        11.62521342      10.13792902      11.46457725         0.00000000       0.00000000       0.00000000          1
H        13.95581446      10.06252134       9.92610303         0.00000000       0.00000000       0.00000000          1
6
pbc=[F, F, F] list_num_par=6 frozen=false iter=20000 energy=-1.26974174 Lattice="15.00000000 0.00000000 0.00000000 0.00000000 15.00000000 0.00000000 0.00000000 0.00000000 15.00000000" energy_frozen_part=0.00000000 Properties=species:S:1:pos:R:3:velocities:R:3:Z:I:1
H        14.28964366       7.36289097      10.56460563         0.00000000       0.00000000       0.00000000          1
H        14.02107574       9.25721229      12.60021033         0.00000000       0.00000000       0.00000000          1
H        11.95905803       7.43919515      12.10305093         0.00000000       0.00000000       0.00000000          1
H        11.89431403       8.24396668       9.42865279         0.00000000       0.00000000       0.00000000          1
H        11.62575038      10.13829792      11.46425771         0.00000000       0.00000000       0.00000000          1
H        13.95633209      10.06198544       9.92581047         0.00000000       0.00000000       0.00000000          1
6
pbc=[F, F, F] list_num_par=6 frozen=false iter=20000 energy=-1.26974174 Lattice="15.00000000 0.00000000 0.00000000 0.00000000 15.00000000 0.00000000 0.00000000 0.00000000 15.00000000" energy_frozen_part=0.00000000 Properties=species:S:1:pos:R:3:velocities:R:3:Z:I:1
H        10.70966462       7.67267601      14.14402692         0.00000000       0.00000000       0.00000000          1
H        10.94068010       7.01164907      11.43960060         0.00000000       0.00000000       0.00000000          1
H        12.05684786       5.34606033      13.38491593         0.00000000       0.00000000       0.00000000          1
H        12.36879589       9.17792892      12.47496930         0.00000000       0.00000000       0.00000000          1
H        13.71597876       6.85131880      11.71585328         0.00000000       0.00000000       0.00000000          1
H        13.48496092       7.51233763      14.42028766         0.00000000       0.00000000       0.00000000          1
6
pbc=[F, F, F] list_num_par=6 frozen=false iter=20000 energy=-1.26974174 Lattice="15.00000000 0.00000000 0.00000000 0.00000000 15.00000000 0.00000000 0.00000000 0.00000000 15.00000000" energy_frozen_part=0.00000000 Properties=species:S:1:pos:R:3:velocities:R:3:Z:I:1
H        14.28964598       7.36289397      10.56459055         0.00000000       0.00000000       0.00000000          1
H        14.02106926       9.25721277      12.60020604         0.00000000       0.00000000       0.00000000          1
H        11.95905828       7.43918000      12.10304431         0.00000000       0.00000000       0.00000000          1
H        11.89431452       8.24397264       9.42864782         0.00000000       0.00000000       0.00000000          1
H        11.62574298      10.13828428      11.46425798         0.00000000       0.00000000       0.00000000          1
H        13.95633142      10.06199335       9.92580896         0.00000000       0.00000000       0.00000000          1
6
pbc=[F, F, F] list_num_par=6 frozen=false iter=20000 energy=-1.26974174 Lattice="15.00000000 0.00000000 0.00000000 0.00000000 15.00000000 0.00000000 0.00000000 0.00000000 15.00000000" energy_frozen_part=0.00000000 Properties=species:S:1:pos:R:3:velocities:R:3:Z:I:1
H        14.28960728       7.36278260      10.56457522         0.00000000       0.00000000       0.00000000          1
H        14.02094145       9.25722931      12.60004470         0.00000000       0.00000000       0.00000000          1
H        11.95890961       7.43923108      12.10285413         0.00000000       0.00000000       0.00000000          1
H        11.89437647       8.24385048       9.42839906         0.00000000       0.00000000       0.00000000          1
H        11.62570904      10.13829825      11.46387577         0.00000000       0.00000000       0.00000000          1
H        13.95639811      10.06185017       9.92558777         0.00000000       0.00000000       0.00000000          1
6
pbc=[F, F, F] list_num_par=6 frozen=false iter=20000 energy=-1.26974174 Lattice="15.00000000 0.00000000 0.00000000 0.00000000 15.00000000 0.00000000 0.00000000 0.00000000 15.00000000" energy_frozen_part=0.00000000 Properties=species:S:1:pos:R:3:velocities:R:3:Z:I:1
H        14.28870678       7.36230060      10.56360943         0.00000000       0.00000000       0.00000000          1
H        14.02145464       9.25634715      12.59964219         0.00000000       0.00000000       0.00000000          1
H        11.95804874       7.44005755      12.10188422         0.00000000       0.00000000       0.00000000          1
H        11.89416406       8.24552280       9.42766936         0.00000000       0.00000000       0.00000000          1
H        11.62690218      10.13956434      11.46371054         0.00000000       0.00000000       0.00000000          1
H        13.95755662      10.06181050       9.92543164         0.00000000       0.00000000       0.00000000          1
6
pbc=[F, F, F] list_num_par=6 frozen=false iter=20000 energy=-1.26974174 Lattice="15.00000000 0.00000000 0.00000000 0.00000000 15.00000000 0.00000000 0.00000000 0.00000000 15.00000000" energy_frozen_part=0.00000000 Properties=species:S:1:pos:R:3:velocities:R:3:Z:I:1
H        14.28966672       7.36288989      10.56453295         0.00000000       0.00000000       0.00000000          1
H        14.02101474       9.25729100      12.60005461         0.00000000       0.00000000       0.00000000          1
H        11.95903377       7.43923622      12.10291084         0.00000000       0.00000000       0.00000000          1
H        11.89436015       8.24389952       9.42847271         0.00000000       0.00000000       0.00000000          1
H        11.62571807      10.13830224      11.46398937         0.00000000       0.00000000       0.00000000          1
H        13.95635451      10.06195870       9.92561659         0.00000000       0.00000000       0.00000000          1
6
pbc=[F, F, F] list_num_par=6 frozen=false iter=20000 energy=-1.26974174 Lattice="15.00000000 0.00000000 0.00000000 0.00000000 15.00000000 0.00000000 0.00000000 0.00000000 15.00000000" energy_frozen_part=0.00000000 Properties=species:S:1:pos:R:3:velocities:R:3:Z:I:1
H        14.28865415       7.36236071      10.56360417         0.00000000       0.00000000       0.00000000          1
H        14.02142575       9.25641094      12.59964176         0.00000000       0.00000000       0.00000000          1
H        11.95801963       7.44012567      12.10189814         0.00000000       0.00000000       0.00000000          1
H        11.89410711       8.24558920       9.42767980         0.00000000       0.00000000       0.00000000          1
H        11.62687349      10.13963661      11.46372706         0.00000000       0.00000000       0.00000000          1
H        13.95751570      10.06187067       9.92543115         0.00000000       0.00000000       0.00000000          1
6
pbc=[F, F, F] list_num_par=6 frozen=false iter=20000 energy=-1.26974174 Lattice="15.00000000 0.00000000 0.00000000 0.00000000 15.00000000 0.00000000 0.00000000 0.00000000 15.00000000" energy_frozen_part=0.00000000 Properties=species:S:1:pos:R:3:velocities:R:3:Z:I:1
H        10.70969597       7.67284623      14.14430822         0.00000000       0.00000000       0.00000000          1
H        10.94046487       7.01148567      11.43993838         0.00000000       0.00000000       0.00000000          1
H        12.05712667       5.34632884      13.38533829         0.00000000       0.00000000       0.00000000          1
H        12.36839248       9.17812731      12.47482226         0.00000000       0.00000000       0.00000000          1
H        13.71582047       6.85160719      11.71585949         0.00000000       0.00000000       0.00000000          1
H        13.48504546       7.51297094      14.42023403         0.00000000       0.00000000       0.00000000          1
6
pbc=[F, F, F] list_num_par=6 frozen=false iter=20000 energy=-1.26974174 Lattice="15.00000000 0.00000000 0.00000000 0.00000000 15.00000000 0.00000000 0.00000000 0.00000000 15.00000000" energy_frozen_part=0.00000000 Properties=species:S:1:pos:R:3:velocities:R:3:Z:I:1
H        14.28874798       7.36244081      10.56353110         0.00000000       0.00000000       0.00000000          1
H        14.02139174       9.25640857      12.59962124         0.00000000       0.00000000       0.00000000          1
H        11.95807139       7.44006181      12.10177663         0.00000000       0.00000000       0.00000000          1
H        11.89418101       8.24561680       9.42758689         0.00000000       0.00000000       0.00000000          1
H        11.62682964      10.13958094      11.46368568         0.00000000       0.00000000       0.00000000          1
H        13.95750469      10.06196094       9.92543399         0.00000000       0.00000000       0.00000000          1
6
pbc=[F, F, F] list_num_par=6 frozen=false iter=20000 energy=-1.26974174 Lattice="15.00000000 0.00000000 0.00000000 0.00000000 15.00000000 0.00000000 0.00000000 0.00000000 15.00000000" energy_frozen_part=0.00000000 Properties=species:S:1:pos:R:3:velocities:R:3:Z:I:1
H        14.28967435       7.36290520      10.56453255         0.00000000       0.00000000       0.00000000          1
H        14.02102665       9.25729949      12.60005396         0.00000000       0.00000000       0.00000000          1
H        11.95904172       7.43923153      12.10291110         0.00000000       0.00000000       0.00000000          1
H        11.89436152       8.24390592       9.42848258         0.00000000       0.00000000       0.00000000          1
H        11.62571443      10.13830048      11.46400538         0.00000000       0.00000000       0.00000000          1
H        13.95634185      10.06197492       9.92561788         0.00000000       0.00000000       0.00000000          1
6
pbc=[F, F, F] list_num_par=6 frozen=false iter=20000 energy=-1.26974174 Lattice="15.00000000 0.00000000 0.00000000 0.00000000 15.00000000 0.00000000 0.00000000 0.00000000 15.00000000" energy_frozen_part=0.00000000 Properties=species:S:1:pos:R:3:velocities:R:3:Z:I:1
H        10.70967622       7.67266496      14.14403829         0.00000000       0.00000000       0.00000000          1
H        10.94068420       7.01166476      11.43960225         0.00000000       0.00000000       0.00000000          1
H        12.05685415       5.34605535      13.38490265         0.00000000       0.00000000       0.00000000          1
H        12.36881065       9.17793385      12.47499168         0.00000000       0.00000000       0.00000000          1
H        13.71598015       6.85132372      11.71584132         0.00000000       0.00000000       0.00000000          1
H        13.48497794       7.51231968      14.42028917         0.00000000       0.00000000       0.00000000          1
6
pbc=[F, F, F] list_num_par=6 frozen=false iter=20000 energy=-1.26974174 Lattice="15.00000000 0.00000000 0.00000000 0.00000000 15.00000000 0.00000000 0.00000000 0.00000000 15.00000000" energy_frozen_part=0.00000000 Properties=species:S:1:pos:R:3:velocities:R:3:Z:I:1
H        14.28871539       7.36239878      10.56352038         0.00000000       0.00000000       0.00000000          1
H        14.02139129       9.25637094      12.59962108         0.00000000       0.00000000       0.00000000          1
H        11.95804433       7.44005377      12.10177834         0.00000000       0.00000000       0.00000000          1
H        11.89415690       8.24560229       9.42758300         0.00000000       0.00000000       0.00000000          1
H        11.62684051      10.13957496      11.46367747         0.00000000       0.00000000       0.00000000          1
H        13.95751575      10.06191733       9.92542929         0.00000000       0.00000000       0.00000000          1
6
pbc=[F, F, F] list_num_par=6 frozen=false iter=20000 energy=-1.26974174 Lattice="15.00000000 0.00000000 0.00000000 0.00000000 15.00000000 0.00000000 0.00000000 0.00000000 15.00000000" energy_frozen_part=0.00000000 Properties=species:S:1:pos:R:3:velocities:R:3:Z:I:1
H        10.70968687       7.67268665      14.14402674         0.00000000       0.00000000       0.00000000          1
H        10.94071818       7.01164805      11.43960059         0.00000000       0.00000000       0.00000000          1
H        12.05687334       5.34606584      13.38493804         0.00000000       0.00000000       0.00000000          1
H        12.36882904       9.17793535      12.47496667         0.00000000       0.00000000       0.00000000          1
H        13.71601221       6.85130823      11.71586876         0.00000000       0.00000000       0.00000000          1
H        13.48498430       7.51235901      14.42029889         0.00000000       0.00000000       0.00000000          1
6
pbc=[F, F, F] list_num_par=6 frozen=false iter=20000 energy=-1.26974174 Lattice="15.00000000 0.00000000 0.00000000 0.00000000 15.00000000 0.00000000 0.00000000 0.00000000 15.00000000" energy_frozen_part=0.00000000 Properties=species:S:1:pos:R:3:velocities:R:3:Z:I:1
H        14.28967703       7.36286417      10.56463846         0.00000000       0.00000000       0.00000000          1
H        14.02103793       9.25722617      12.60020515         0.00000000       0.00000000       0.00000000          1
H        11.95904298       7.43919330      12.10301095         0.00000000       0.00000000       0.00000000          1
H        11.89438910       8.24392540       9.42859576         0.00000000       0.00000000       0.00000000          1
H        11.62574770      10.13827939      11.46416155         0.00000000       0.00000000       0.00000000          1
H        13.95639008      10.06195912       9.92579086         0.00000000       0.00000000       0.00000000          1
6
pbc=[F, F, F] list_num_par=6 frozen=false iter=20000 energy=-1.26974174 Lattice="15.00000000 0.00000000 0.00000000 0.00000000 15.00000000 0.00000000 0.00000000 0.00000000 15.00000000" energy_frozen_part=0.00000000 Properties=species:S:1:pos:R:3:velocities:R:3:Z:I:1
H        14.28967728       7.36289946      10.56452677         0.00000000       0.00000000       0.00000000          1
H        14.02101469       9.25728738      12.60005683         0.00000000       0.00000000       0.00000000          1
H        11.95904023       7.43921902      12.10290599         0.00000000       0.00000000       0.00000000          1
H        11.89437262       8.24390243       9.42847701         0.00000000       0.00000000       0.00000000          1
H        11.62570996      10.13829190      11.46400071         0.00000000       0.00000000       0.00000000          1
H        13.95635133      10.06197024       9.92562780         0.00000000       0.00000000       0.00000000          1
6
pbc=[F, F, F] list_num_par=6 frozen=false iter=20000 energy=-1.26974174 Lattice="15.00000000 0.00000000 0.00000000 0.00000000 15.00000000 0.00000000 0.00000000 0.00000000 15.00000000" energy_frozen_part=0.00000000 Properties=species:S:1:pos:R:3:velocities:R:3:Z:I:1
H        14.28986976       7.36340746      10.56444728         0.00000000       0.00000000       0.00000000          1
H        14.02078843       9.25731003      12.60036981         0.00000000       0.00000000       0.00000000          1
H        11.95926011       7.43881596      12.10290928         0.00000000       0.00000000       0.00000000          1
H        11.89430045       8.24401324       9.42864235         0.00000000       0.00000000       0.00000000          1
H        11.62521327      10.13792574      11.46456691         0.00000000       0.00000000       0.00000000          1
H        13.95581626      10.06251916       9.92610550         0.00000000       0.00000000       0.00000000          1
6
pbc=[F, F, F] list_num_par=6 frozen=false iter=20000 energy=-1.26974174 Lattice="15.00000000 0.00000000 0.00000000 0.00000000 15.00000000 0.00000000 0.00000000 0.00000000 15.00000000" energy_frozen_part=0.00000000 Properties=species:S:1:pos:R:3:velocities:R:3:Z:I:1
H        14.28963932       7.36287277      10.56451906         0.00000000       0.00000000       0.00000000          1
H        14.02102627       9.25727333      12.60005447         0.00000000       0.00000000       0.00000000          1
H        11.95901343       7.43924394      12.10291017         0.00000000       0.00000000       0.00000000          1
H        11.89433850       8.24391066       9.42847450         0.00000000       0.00000000       0.00000000          1
H        11.62572900      10.13831150      11.46400107         0.00000000       0.00000000       0.00000000          1
H        13.95635326      10.06194730       9.92561433         0.00000000       0.00000000       0.00000000          1
6
pbc=[F, F, F] list_num_par=6 frozen=false iter=20000 energy=-1.26974174 Lattice="15.00000000 0.00000000 0.00000000 0.00000000 15.00000000 0.00000000 0.00000000 0.00000000 15.00000000" energy_frozen_part=0.00000000 Properties=species:S:1:pos:R:3:velocities:R:3:Z:I:1
H        10.70969939       7.67282918      14.14427700         0.00000000       0.00000000       0.00000000          1
H        10.94048946       7.01146819      11.43990083         0.00000000       0.00000000       0.00000000          1
H        12.05713376       5.34631498      13.38531791         0.00000000       0.00000000       0.00000000          1
H        12.36840394       9.17810537      12.47480564         0.00000000       0.00000000       0.00000000          1
H        13.71583984       6.85158403      11.71584716         0.00000000       0.00000000       0.00000000          1
H        13.48505714       7.51294683      14.42021252         0.00000000       0.00000000       0.00000000          1
6
pbc=[F, F, F] list_num_par=6 frozen=false iter=20000 energy=-1.26974174 Lattice="15.00000000 0.00000000 0.00000000 0.00000000 15.00000000 0.00000000 0.00000000 0.00000000 15.00000000" energy_frozen_part=0.00000000 Properties=species:S:1:pos:R:3:velocities:R:3:Z:I:1
H        10.70970689       7.67269524      14.14404490         0.00000000       0.00000000       0.00000000          1
H        10.94069789       7.01162641      11.43961286         0.00000000       0.00000000       0.00000000          1
H        12.05687352       5.34606667      13.38495048         0.00000000       0.00000000       0.00000000          1
H        12.36883005       9.17792261      12.47494403         0.00000000       0.00000000       0.00000000          1
H        13.71599149       6.85129307      11.71585620         0.00000000       0.00000000       0.00000000          1
H        13.48500302       7.51236048      14.42028236         0.00000000       0.00000000       0.00000000          1
6
pbc=[F, F, F] list_num_par=6 frozen=false iter=20000 energy=-1.26974174 Lattice="15.00000000 0.00000000 0.00000000 0.00000000 15.00000000 0.00000000 0.00000000 0.00000000 15.00000000" energy_frozen_part=0.00000000 Properties=species:S:1:pos:R:3:velocities:R:3:Z:I:1
H        10.70968005       7.67281531      14.14429988         0.00000000       0.00000000       0.00000000          1
H        10.94047026       7.01147401      11.43992602         0.00000000       0.00000000       0.00000000          1
H        12.05711848       5.34630828      13.38532965         0.00000000       0.00000000       0.00000000          1
H        12.36837933       9.17810572      12.47483395         0.00000000       0.00000000       0.00000000          1
H        13.71582132       6.85160053      11.71586436         0.00000000       0.00000000       0.00000000          1
H        13.48503079       7.51294386      14.42024244         0.00000000       0.00000000       0.00000000          1
6
pbc=[F, F, F] list_num_par=6 frozen=false iter=20000 energy=-1.26974174 Lattice="15.00000000 0.00000000 0.00000000 0.00000000 15.00000000 0.00000000 0.00000000 0.00000000 15.00000000" energy_frozen_part=0.00000000 Properties=species:S:1:pos:R:3:velocities:R:3:Z:I:1
H        10.70968359       7.67279145      14.14429136         0.00000000       0.00000000       0.00000000          1
H        10.94047589       7.01146627      11.43991368         0.00000000       0.00000000       0.00000000          1
H        12.05714528       5.34629869      13.38530865         0.00000000       0.00000000       0.00000000          1
H        12.36837343       9.17810457      12.47484051         0.00000000       0.00000000       0.00000000          1
H        13.71583578       6.85161097      11.71585279         0.00000000       0.00000000       0.00000000          1
H        13.48503389       7.51294176      14.42023187         0.00000000       0.00000000       0.00000000          1
6
pbc=[F, F, F] list_num_par=6 frozen=false iter=20000 energy=-1.26974174 Lattice="15.00000000 0.00000000 0.00000000 0.00000000 15.00000000 0.00000000 0.00000000 0.00000000 15.00000000" energy_frozen_part=0.00000000 Properties=species:S:1:pos:R:3:velocities:R:3:Z:I:1
H        10.70969238       7.67269672      14.14402263         0.00000000       0.00000000       0.00000000          1
H        10.94071611       7.01165658      11.43959644         0.00000000       0.00000000       0.00000000          1
H        12.05686308       5.34606681      13.38492423         0.00000000       0.00000000       0.00000000          1
H        12.36883694       9.17793269      12.47495982         0.00000000       0.00000000       0.00000000          1
H        13.71600955       6.85130490      11.71585407         0.00000000       0.00000000       0.00000000          1
H        13.48498817       7.51234569      14.42028353         0.00000000       0.00000000       0.00000000          1
6
pbc=[F, F, F] list_num_par=6 frozen=false iter=20000 energy=-1.26974174 Lattice="15.00000000 0.00000000 0.00000000 0.00000000 15.00000000 0.00000000 0.00000000 0.00000000 15.00000000" energy_frozen_part=0.00000000 Properties=species:S:1:pos:R:3:velocities:R:3:Z:I:1
H        14.28874533       7.36243934      10.56352526         0.00000000       0.00000000       0.00000000          1
H        14.02140449       9.25641257      12.59962087         0.00000000       0.00000000       0.00000000          1
H        11.95806080       7.44009321      12.10176278         0.00000000       0.00000000       0.00000000          1
H        11.89419956       8.24563700       9.42757261         0.00000000       0.00000000       0.00000000          1
H        11.62685345      10.13961722      11.46366718         0.00000000       0.00000000       0.00000000          1
H        13.95753555      10.06196212       9.92543418         0.00000000       0.00000000       0.00000000          1
6
pbc=[F, F, F] list_num_par=6 frozen=false iter=20000 energy=-1.26974174 Lattice="15.00000000 0.00000000 0.00000000 0.00000000 15.00000000 0.00000000 0.00000000 0.00000000 15.00000000" energy_frozen_part=0.00000000 Properties=species:S:1:pos:R:3:velocities:R:3:Z:I:1
H        14.28967089       7.36289999      10.56453501         0.00000000       0.00000000       0.00000000          1
H        14.02101965       9.25730488      12.60005320         0.00000000       0.00000000       0.00000000          1
H        11.95903939       7.43923137      12.10291909         0.00000000       0.00000000       0.00000000          1
H        11.89436154       8.24390422       9.42847954         0.00000000       0.00000000       0.00000000          1
H        11.62571352      10.13830069      11.46399640         0.00000000       0.00000000       0.00000000          1
H        13.95634556      10.06196961       9.92561687         0.00000000       0.00000000       0.00000000          1
6
pbc=[F, F, F] list_num_par=6 frozen=false iter=20000 energy=-1.26974174 Lattice="15.00000000 0.00000000 0.00000000 0.00000000 15.00000000 0.00000000 0.00000000 0.00000000 15.00000000" energy_frozen_part=0.00000000 Properties=species:S:1:pos:R:3:velocities:R:3:Z:I:1
H        14.28875381       7.36243692      10.56355472         0.00000000       0.00000000       0.00000000          1
H        14.02138008       9.25641332      12.59964200         0.00000000       0.00000000       0.00000000          1
H        11.95805193       7.44008115      12.10175334         0.00000000       0.00000000       0.00000000          1
H        11.89422108       8.24562415       9.42756388         0.00000000       0.00000000       0.00000000          1
H        11.62684500      10.13960249      11.46365231         0.00000000       0.00000000       0.00000000          1
H        13.95754489      10.06195846       9.92544300         0.00000000       0.00000000       0.00000000          1
6
pbc=[F, F, F] list_num_par=6 frozen=false iter=20000 energy=-1.26974174 Lattice="15.00000000 0.00000000 0.00000000 0.00000000 15.00000000 0.00000000 0.00000000 0.00000000 15.00000000" energy_frozen_part=0.00000000 Properties=species:S:1:pos:R:3:velocities:R:3:Z:I:1
H        14.28964298       7.36289944      10.56458995         0.00000000       0.00000000       0.00000000          1
H        14.02107808       9.25721802      12.60021103         0.00000000       0.00000000       0.00000000          1
H        11.95905619       7.43920203      12.10303902         0.00000000       0.00000000       0.00000000          1
H        11.89431817       8.24398987       9.42863717         0.00000000       0.00000000       0.00000000          1
H        11.62575078      10.13830421      11.46425022         0.00000000       0.00000000       0.00000000          1
H        13.95634139      10.06200560       9.92581012         0.00000000       0.00000000       0.00000000          1
6
pbc=[F, F, F] list_num_par=6 frozen=false iter=20000 energy=-1.26974174 Lattice="15.00000000 0.00000000 0.00000000 0.00000000 15.00000000 0.00000000 0.00000000 0.00000000 15.00000000" energy_frozen_part=0.00000000 Properties=species:S:1:pos:R:3:velocities:R:3:Z:I:1
H        14.28964230       7.36287115      10.56452100         0.00000000       0.00000000       0.00000000          1
H        14.02103926       9.25725608      12.60006089         0.00000000       0.00000000       0.00000000          1
H        11.95901573       7.43923377      12.10290340         0.00000000       0.00000000       0.00000000          1
H        11.89435120       8.24392533       9.42847129         0.00000000       0.00000000       0.00000000          1
H        11.62573991      10.13830665      11.46401930         0.00000000       0.00000000       0.00000000          1
H        13.95636666      10.06195246       9.92563297         0.00000000       0.00000000       0.00000000          1
6
pbc=[F, F, F] list_num_par=6 frozen=false iter=20000 energy=-1.26974174 Lattice="15.00000000 0.00000000 0.00000000 0.00000000 15.00000000 0.00000000 0.00000000 0.00000000 15.00000000" energy_frozen_part=0.00000000 Properties=species:S:1:pos:R:3:velocities:R:3:Z:I:1
H        14.28962339       7.36278732      10.56457919         0.00000000       0.00000000       0.00000000          1
H        14.02094518       9.25724212      12.60004932         0.00000000       0.00000000       0.00000000          1
H        11.95892764       7.43923880      12.10285505         0.00000000       0.00000000       0.00000000          1
H        11.89439623       8.24383611       9.42839587         0.00000000       0.00000000       0.00000000          1
H        11.62572081      10.13829598      11.46386404         0.00000000       0.00000000       0.00000000          1
H        13.95641313      10.06185163       9.92558815         0.00000000       0.00000000       0.00000000          1
6
pbc=[F, F, F] list_num_par=6 frozen=false iter=20000 energy=-1.26974174 Lattice="15.00000000 0.00000000 0.00000000 0.00000000 15.00000000 0.00000000 0.00000000 0.00000000 15.00000000" energy_frozen_part=0.00000000 Properties=species:S:1:pos:R:3:velocities:R:3:Z:I:1
H        14.28868356       7.36229213      10.56361780         0.00000000       0.00000000       0.00000000          1
H        14.02144242       9.25634330      12.59964710         0.00000000       0.00000000       0.00000000          1
H        11.95802942       7.44007574      12.10188180         0.00000000       0.00000000       0.00000000          1
H        11.89415731       8.24553234       9.42766367         0.00000000       0.00000000       0.00000000          1
H        11.62690849      10.13958589      11.46369817         0.00000000       0.00000000       0.00000000          1
H        13.95756370      10.06180152       9.92542732         0.00000000       0.00000000       0.00000000          1
6
pbc=[F, F, F] list_num_par=6 frozen=false iter=20000 energy=-1.26974174 Lattice="15.00000000 0.00000000 0.00000000 0.00000000 15.00000000 0.00000000 0.00000000 0.00000000 15.00000000" energy_frozen_part=0.00000000 Properties=species:S:1:pos:R:3:velocities:R:3:Z:I:1
H        14.28965565       7.36288679      10.56453782         0.00000000       0.00000000       0.00000000          1
H        14.02101317       9.25729423      12.60005932         0.00000000       0.00000000       0.00000000          1
H        11.95901761       7.43924512      12.10291419         0.00000000       0.00000000       0.00000000          1
H        11.89435426       8.24390859       9.42847892         0.00000000       0.00000000       0.00000000          1
H        11.62572216      10.13832146      11.46399496         0.00000000       0.00000000       0.00000000          1
H        13.95635374      10.06195703       9.92562513         0.00000000       0.00000000       0.00000000          1
6
pbc=[F, F, F] list_num_par=6 frozen=false iter=20000 energy=-1.26974174 Lattice="15.00000000 0.00000000 0.00000000 0.00000000 15.00000000 0.00000000 0.00000000 0.00000000 15.00000000" energy_frozen_part=0.00000000 Properties=species:S:1:pos:R:3:velocities:R:3:Z:I:1
H        10.70969796       7.67281069      14.14428752         0.00000000       0.00000000       0.00000000          1
H        10.94047095       7.01144393      11.43991336         0.00000000       0.00000000       0.00000000          1
H        12.05713995       5.34629813      13.38532486         0.00000000       0.00000000       0.00000000          1
H        12.36837603       9.17809241      12.47481256         0.00000000       0.00000000       0.00000000          1
H        13.71582800       6.85158407      11.71584499         0.00000000       0.00000000       0.00000000          1
H        13.48505187       7.51294199      14.42021670         0.00000000       0.00000000       0.00000000          1
6
pbc=[F, F, F] list_num_par=6 frozen=false iter=20000 energy=-1.26974174 Lattice="15.00000000 0.00000000 0.00000000 0.00000000 15.00000000 0.00000000 0.00000000 0.00000000 15.00000000" energy_frozen_part=0.00000000 Properties=species:S:1:pos:R:3:velocities:R:3:Z:I:1
H        14.28966659       7.36288813      10.56452195         0.00000000       0.00000000       0.00000000          1
H        14.02102419       9.25727859      12.60005396         0.00000000       0.00000000       0.00000000          1
H        11.95902979       7.43922422      12.10290823         0.00000000       0.00000000       0.00000000          1
H        11.89436039       8.24389703       9.42847358         0.00000000       0.00000000       0.00000000          1
H        11.62571788      10.13829496      11.46399690         0.00000000       0.00000000       0.00000000          1
H        13.95635060      10.06195955       9.92562004         0.00000000       0.00000000       0.00000000          1
6
pbc=[F, F, F] list_num_par=6 frozen=false iter=20000 energy=-1.26974174 Lattice="15.00000000 0.00000000 0.00000000 0.00000000 15.00000000 0.00000000 0.00000000 0.00000000 15.00000000" energy_frozen_part=0.00000000 Properties=species:S:1:pos:R:3:velocities:R:3:Z:I:1
H        14.28867207       7.36231105      10.56362459         0.00000000       0.00000000       0.00000000          1
H        14.02140946       9.25636999      12.59965204         0.00000000       0.00000000       0.00000000          1
H        11.95799621       7.44011044      12.10186404         0.00000000       0.00000000       0.00000000          1
H        11.89416868       8.24556907       9.42764214         0.00000000       0.00000000       0.00000000          1
H        11.62689720      10.13962437      11.46366412         0.00000000       0.00000000       0.00000000          1
H        13.95758028      10.06182893       9.92543415         0.00000000       0.00000000       0.00000000          1
6
pbc=[F, F, F] list_num_par=6 frozen=false iter=20000 energy=-1.26974174 Lattice="15.00000000 0.00000000 0.00000000 0.00000000 15.00000000 0.00000000 0.00000000 0.00000000 15.00000000" energy_frozen_part=0.00000000 Properties=species:S:1:pos:R:3:velocities:R:3:Z:I:1
H        14.28962005       7.36277770      10.56458929         0.00000000       0.00000000       0.00000000          1
H        14.02093563       9.25724111      12.60004772         0.00000000       0.00000000       0.00000000          1
H        11.95891627       7.43922851      12.10284281         0.00000000       0.00000000       0.00000000          1
H        11.89440142       8.24383335       9.42838318         0.00000000       0.00000000       0.00000000          1
H        11.62571359      10.13829061      11.46384564         0.00000000       0.00000000       0.00000000          1
H        13.95641929      10.06184289       9.92559183         0.00000000       0.00000000       0.00000000          1
6
pbc=[F, F, F] list_num_par=6 frozen=false iter=20000 energy=-1.26974174 Lattice="15.00000000 0.00000000 0.00000000 0.00000000 15.00000000 0.00000000 0.00000000 0.00000000 15.00000000" energy_frozen_part=0.00000000 Properties=species:S:1:pos:R:3:velocities:R:3:Z:I:1
H        14.28966005       7.36280152      10.56459797         0.00000000       0.00000000       0.00000000          1
H        14.02097915       9.25727961      12.60003965         0.00000000       0.00000000       0.00000000          1
H        11.95897142       7.43925006      12.10288063         0.00000000       0.00000000       0.00000000          1
H        11.89442798       8.24382194       9.42840602         0.00000000       0.00000000       0.00000000          1
H        11.62573973      10.13830587      11.46384830         0.00000000       0.00000000       0.00000000          1
H        13.95643465      10.06185536       9.92557094         0.00000000       0.00000000       0.00000000          1
6
pbc=[F, F, F] list_num_par=6 frozen=false iter=20000 energy=-1.26974174 Lattice="15.00000000 0.00000000 0.00000000 0.00000000 15.00000000 0.00000000 0.00000000 0.00000000 15.00000000" energy_frozen_part=0.00000000 Properties=species:S:1:pos:R:3:velocities:R:3:Z:I:1
H        14.28863622       7.36233372      10.56360776         0.00000000       0.00000000       0.00000000          1
H        14.02141598       9.25637570      12.59965491         0.00000000       0.00000000       0.00000000          1
H        11.95798208       7.44013606      12.10188104         0.00000000       0.00000000       0.00000000          1
H        11.89411494       8.24561105       9.42767454         0.00000000       0.00000000       0.00000000          1
H        11.62689344      10.13965498      11.46372024         0.00000000       0.00000000       0.00000000          1
H        13.95754923      10.06185833       9.92544429         0.00000000       0.00000000       0.00000000          1
6
pbc=[F, F, F] list_num_par=6 frozen=false iter=20000 energy=-1.26974174 Lattice="15.00000000 0.00000000 0.00000000 0.00000000 15.00000000 0.00000000 0.00000000 0.00000000 15.00000000" energy_frozen_part=0.00000000 Properties=species:S:1:pos:R:3:velocities:R:3:Z:I:1
H        10.70953070       7.67256651      14.14399470         0.00000000       0.00000000       0.00000000          1
H        10.94077465       7.01171580      11.43953866         0.00000000       0.00000000       0.00000000          1
H        12.05683601       5.34604132      13.38484235         0.00000000       0.00000000       0.00000000          1
H        12.36874467       9.17798182      12.47515548         0.00000000       0.00000000       0.00000000          1
H        13.71604551       6.85145089      11.71599995         0.00000000       0.00000000       0.00000000          1
H        13.48481099       7.51230221      14.42045399         0.00000000       0.00000000       0.00000000          1
6
pbc=[F, F, F] list_num_par=6 frozen=false iter=20000 energy=-1.26974174 Lattice="15.00000000 0.00000000 0.00000000 0.00000000 15.00000000 0.00000000 0.00000000 0.00000000 15.00000000" energy_frozen_part=0.00000000 Properties=species:S:1:pos:R:3:velocities:R:3:Z:I:1
H        10.70952688       7.67255875      14.14398938         0.00000000       0.00000000       0.00000000          1
H        10.94076459       7.01170406      11.43953236         0.00000000       0.00000000       0.00000000          1
H        12.05683805       5.34603058      13.38483736         0.00000000       0.00000000       0.00000000          1
H        12.36873612       9.17796962      12.47514187         0.00000000       0.00000000       0.00000000          1
H        13.71604022       6.85143654      11.71599051         0.00000000       0.00000000       0.00000000          1
H        13.48480089       7.51229549      14.42044383         0.00000000       0.00000000       0.00000000          1
6
pbc=[F, F, F] list_num_par=6 frozen=false iter=20000 energy=-1.26974174 Lattice="15.00000000 0.00000000 0.00000000 0.00000000 15.00000000 0.00000000 0.00000000 0.00000000 15.00000000" energy_frozen_part=0.00000000 Properties=species:S:1:pos:R:3:velocities:R:3:Z:I:1
H        14.28865293       7.36230687      10.56360076         0.00000000       0.00000000       0.00000000          1
H        14.02141907       9.25634588      12.59963822         0.00000000       0.00000000       0.00000000          1
H        11.95799113       7.44009110      12.10185823         0.00000000       0.00000000       0.00000000          1
H        11.89412881       8.24556912       9.42764735         0.00000000       0.00000000       0.00000000          1
H        11.62688961      10.13961064      11.46369420         0.00000000       0.00000000       0.00000000          1
H        13.95755218      10.06182714       9.92542508         0.00000000       0.00000000       0.00000000          1
6
pbc=[F, F, F] list_num_par=6 frozen=false iter=20000 energy=-1.26974174 Lattice="15.00000000 0.00000000 0.00000000 0.00000000 15.00000000 0.00000000 0.00000000 0.00000000 15.00000000" energy_frozen_part=0.00000000 Properties=species:S:1:pos:R:3:velocities:R:3:Z:I:1
H        14.28960851       7.36277874      10.56458094         0.00000000       0.00000000       0.00000000          1
H        14.02094395       9.25723998      12.60004187         0.00000000       0.00000000       0.00000000          1
H        11.95891654       7.43923640      12.10285967         0.00000000       0.00000000       0.00000000          1
H        11.89438300       8.24384006       9.42840131         0.00000000       0.00000000       0.00000000          1
H        11.62571134      10.13829891      11.46387593         0.00000000       0.00000000       0.00000000          1
H        13.95640151      10.06184509       9.92558481         0.00000000       0.00000000       0.00000000          1
6
pbc=[F, F, F] list_num_par=6 frozen=false iter=20000 energy=-1.26974174 Lattice="15.00000000 0.00000000 0.00000000 0.00000000 15.00000000 0.00000000 0.00000000 0.00000000 15.00000000" energy_frozen_part=0.00000000 Properties=species:S:1:pos:R:3:velocities:R:3:Z:I:1
H        14.28871649       7.36239336      10.56350096         0.00000000       0.00000000       0.00000000          1
H        14.02141378       9.25635972      12.59960627         0.00000000       0.00000000       0.00000000          1
H        11.95805528       7.44004954      12.10177870         0.00000000       0.00000000       0.00000000          1
H        11.89415768       8.24560556       9.42759021         0.00000000       0.00000000       0.00000000          1
H        11.62685016      10.13957294      11.46369507         0.00000000       0.00000000       0.00000000          1
H        13.95751416      10.06191616       9.92542214         0.00000000       0.00000000       0.00000000          1
6
pbc=[F, F, F] list_num_par=6 frozen=false iter=20000 energy=-1.26974174 Lattice="15.00000000 0.00000000 0.00000000 0.00000000 15.00000000 0.00000000 0.00000000 0.00000000 15.00000000" energy_frozen_part=0.00000000 Properties=species:S:1:pos:R:3:velocities:R:3:Z:I:1
H        14.28964680       7.36280776      10.56465625         0.00000000       0.00000000       0.00000000          1
H        14.02101943       9.25724941      12.60015150         0.00000000       0.00000000       0.00000000          1
H        11.95903048       7.43918819      12.10304980         0.00000000       0.00000000       0.00000000          1
H        11.89433615       8.24380481       9.42859672         0.00000000       0.00000000       0.00000000          1
H        11.62571237      10.13824158      11.46408968         0.00000000       0.00000000       0.00000000          1
H        13.95633391      10.06186479       9.92570165         0.00000000       0.00000000       0.00000000          1
6
pbc=[F, F, F] list_num_par=6 frozen=false iter=20000 energy=-1.26974174 Lattice="15.00000000 0.00000000 0.00000000 0.00000000 15.00000000 0.00000000 0.00000000 0.00000000 15.00000000" energy_frozen_part=0.00000000 Properties=species:S:1:pos:R:3:velocities:R:3:Z:I:1
H        14.28966073       7.36279097      10.56459981         0.00000000       0.00000000       0.00000000          1
H        14.02097823       9.25729110      12.60003339         0.00000000       0.00000000       0.00000000          1
H        11.95896305       7.43927012      12.10287951         0.00000000       0.00000000       0.00000000          1
H        11.89442554       8.24382376       9.42840897         0.00000000       0.00000000       0.00000000          1
H        11.62575346      10.13832506      11.46383780         0.00000000       0.00000000       0.00000000          1
H        13.95644265      10.06184177       9.92555691         0.00000000       0.00000000       0.00000000          1
6
pbc=[F, F, F] list_num_par=6 frozen=false iter=20000 energy=-1.26974174 Lattice="15.00000000 0.00000000 0.00000000 0.00000000 15.00000000 0.00000000 0.00000000 0.00000000 15.00000000" energy_frozen_part=0.00000000 Properties=species:S:1:pos:R:3:velocities:R:3:Z:I:1
H        10.70966338       7.67277376      14.14429922         0.00000000       0.00000000       0.00000000          1
H        10.94048074       7.01147848      11.43991603         0.00000000       0.00000000       0.00000000          1
H        12.05713589       5.34629288      13.38529642         0.00000000       0.00000000       0.00000000          1
H        12.36836122       9.17810953      12.47487044         0.00000000       0.00000000       0.00000000          1
H        13.71582896       6.85162333      11.71586565         0.00000000       0.00000000       0.00000000          1
H        13.48501729       7.51291894      14.42025177         0.00000000       0.00000000       0.00000000          1
6
pbc=[F, F, F] list_num_par=6 frozen=false iter=20000 energy=-1.26974174 Lattice="15.00000000 0.00000000 0.00000000 0.00000000 15.00000000 0.00000000 0.00000000 0.00000000 15.00000000" energy_frozen_part=0.00000000 Properties=species:S:1:pos:R:3:velocities:R:3:Z:I:1
H        14.28969579       7.36288393      10.56459466         0.00000000       0.00000000       0.00000000          1
H        14.02107753       9.25722821      12.60016958         0.00000000       0.00000000       0.00000000          1
H        11.95908193       7.43917794      12.10300831         0.00000000       0.00000000       0.00000000          1
H        11.89437178       8.24391618       9.42859230         0.00000000       0.00000000       0.00000000          1
H        11.62575847      10.13826284      11.46417305         0.00000000       0.00000000       0.00000000          1
H        13.95636291      10.06196173       9.92575413         0.00000000       0.00000000       0.00000000          1
6
pbc=[F, F, F] list_num_par=6 frozen=false iter=20000 energy=-1.26974174 Lattice="15.00000000 0.00000000 0.00000000 0.00000000 15.00000000 0.00000000 0.00000000 0.00000000 15.00000000" energy_frozen_part=0.00000000 Properties=species:S:1:pos:R:3:velocities:R:3:Z:I:1
H        10.70967536       7.67267588      14.14404774         0.00000000       0.00000000       0.00000000          1
H        10.94068297       7.01164493      11.43961807         0.00000000       0.00000000       0.00000000          1
H        12.05685676       5.34605576      13.38493793         0.00000000       0.00000000       0.00000000          1
H        12.36880804       9.17792407      12.47498223         0.00000000       0.00000000       0.00000000          1
H        13.71597640       6.85130622      11.71586473         0.00000000       0.00000000       0.00000000          1
H        13.48497364       7.51233661      14.42030405         0.00000000       0.00000000       0.00000000          1
6
pbc=[F, F, F] list_num_par=6 frozen=false iter=20000 energy=-1.26974174 Lattice="15.00000000 0.00000000 0.00000000 0.00000000 15.00000000 0.00000000 0.00000000 0.00000000 15.00000000" energy_frozen_part=0.00000000 Properties=species:S:1:pos:R:3:velocities:R:3:Z:I:1
H        10.70970859       7.67282943      14.14429111         0.00000000       0.00000000       0.00000000          1
H        10.94048134       7.01145719      11.43992009         0.00000000       0.00000000       0.00000000          1
H        12.05713945       5.34630798      13.38532787         0.00000000       0.00000000       0.00000000          1
H        12.36840889       9.17809892      12.47480401         0.00000000       0.00000000       0.00000000          1
H        13.71583373       6.85157495      11.71585005         0.00000000       0.00000000       0.00000000          1
H        13.48506122       7.51294494      14.42021661         0.00000000       0.00000000       0.00000000          1
6
pbc=[F, F, F] list_num_par=6 frozen=false iter=20000 energy=-1.26974174 Lattice="15.00000000 0.00000000 0.00000000 0.00000000 15.00000000 0.00000000 0.00000000 0.00000000 15.00000000" energy_frozen_part=0.00000000 Properties=species:S:1:pos:R:3:velocities:R:3:Z:I:1
H        14.28963772       7.36279363      10.56458203         0.00000000       0.00000000       0.00000000          1
H        14.02095475       9.25726144      12.60004635         0.00000000       0.00000000       0.00000000          1
H        11.95894747       7.43923567      12.10287233         0.00000000       0.00000000       0.00000000          1
H        11.89439551       8.24382415       9.42840862         0.00000000       0.00000000       0.00000000          1
H        11.62571863      10.13829243      11.46386605         0.00000000       0.00000000       0.00000000          1
H        13.95640479      10.06185211       9.92558695         0.00000000       0.00000000       0.00000000          1
6
pbc=[F, F, F] list_num_par=6 frozen=false iter=20000 energy=-1.26974174 Lattice="15.00000000 0.00000000 0.00000000 0.00000000 15.00000000 0.00000000 0.00000000 0.00000000 15.00000000" energy_frozen_part=0.00000000 Properties=species:S:1:pos:R:3:velocities:R:3:Z:I:1
H        14.28963854       7.36287725      10.56451389         0.00000000       0.00000000       0.00000000          1
H        14.02102700       9.25728567      12.60004164         0.00000000       0.00000000       0.00000000          1
H        11.95902162       7.43923616      12.10291321         0.00000000       0.00000000       0.00000000          1
H        11.89432917       8.24390189       9.42847747         0.00000000       0.00000000       0.00000000          1
H        11.62571097      10.13830616      11.46401124         0.00000000       0.00000000       0.00000000          1
H        13.95632890      10.06195042       9.92560628         0.00000000       0.00000000       0.00000000          1
6
pbc=[F, F, F] list_num_par=6 frozen=false iter=20000 energy=-1.26974174 Lattice="15.00000000 0.00000000 0.00000000 0.00000000 15.00000000 0.00000000 0.00000000 0.00000000 15.00000000" energy_frozen_part=0.00000000 Properties=species:S:1:pos:R:3:velocities:R:3:Z:I:1
H        14.28871788       7.36241505      10.56352271         0.00000000       0.00000000       0.00000000          1
H        14.02139853       9.25638867      12.59961115         0.00000000       0.00000000       0.00000000          1
H        11.95804600       7.44006874      12.10178069         0.00000000       0.00000000       0.00000000          1
H        11.89415654       8.24560333       9.42758735         0.00000000       0.00000000       0.00000000          1
H        11.62683512      10.13958626      11.46367976         0.00000000       0.00000000       0.00000000          1
H        13.95750182      10.06193082       9.92541774         0.00000000       0.00000000       0.00000000          1
6
pbc=[F, F, F] list_num_par=6 frozen=false iter=20000 energy=-1.26974174 Lattice="15.00000000 0.00000000 0.00000000 0.00000000 15.00000000 0.00000000 0.00000000 0.00000000 15.00000000" energy_frozen_part=0.00000000 Properties=species:S:1:pos:R:3:velocities:R:3:Z:I:1
H        14.28865171       7.36236364      10.56360154         0.00000000       0.00000000       0.00000000          1
H        14.02142880       9.25641405      12.59964290         0.00000000       0.00000000       0.00000000          1
H        11.95801390       7.44013993      12.10190463         0.00000000       0.00000000       0.00000000          1
H        11.89409973       8.24559194       9.42768230         0.00000000       0.00000000       0.00000000          1
H        11.62687291      10.13964645      11.46372151         0.00000000       0.00000000       0.00000000          1
H        13.95751265      10.06186983       9.92542412         0.00000000       0.00000000       0.00000000          1
6
pbc=[F, F, F] list_num_par=6 frozen=false iter=20000 energy=-1.26974174 Lattice="15.00000000 0.00000000 0.00000000 0.00000000 15.00000000 0.00000000 0.00000000 0.00000000 15.00000000" energy_frozen_part=0.00000000 Properties=species:S:1:pos:R:3:velocities:R:3:Z:I:1
H        14.28960716       7.36278287      10.56458254         0.00000000       0.00000000       0.00000000          1
H        14.02094323       9.25723983      12.60005138         0.00000000       0.00000000       0.00000000          1
H        11.95891650       7.43923168      12.10286111         0.00000000       0.00000000       0.00000000          1
H        11.89437841       8.24383237       9.42840374         0.00000000       0.00000000       0.00000000          1
H        11.62570683      10.13829460      11.46387163         0.00000000       0.00000000       0.00000000          1
H        13.95639928      10.06184563       9.92558917         0.00000000       0.00000000       0.00000000          1
6
pbc=[F, F, F] list_num_par=6 frozen=false iter=20000 energy=-1.26974174 Lattice="15.00000000 0.00000000 0.00000000 0.00000000 15.00000000 0.00000000 0.00000000 0.00000000 15.00000000" energy_frozen_part=0.00000000 Properties=species:S:1:pos:R:3:velocities:R:3:Z:I:1
H        10.70969318       7.67268476      14.14402981         0.00000000       0.00000000       0.00000000          1
H        10.94072125       7.01163457      11.43960187         0.00000000       0.00000000       0.00000000          1
H        12.05687766       5.34606385      13.38494254         0.00000000       0.00000000       0.00000000          1
H        12.36882671       9.17793404      12.47495434         0.00000000       0.00000000       0.00000000          1
H        13.71600824       6.85130650      11.71586788         0.00000000       0.00000000       0.00000000          1
H        13.48498795       7.51235799      14.42029359         0.00000000       0.00000000       0.00000000          1
6
pbc=[F, F, F] list_num_par=6 frozen=false iter=20000 energy=-1.26974174 Lattice="15.00000000 0.00000000 0.00000000 0.00000000 15.00000000 0.00000000 0.00000000 0.00000000 15.00000000" energy_frozen_part=0.00000000 Properties=species:S:1:pos:R:3:velocities:R:3:Z:I:1
H        10.70968114       7.67280498      14.14430240         0.00000000       0.00000000       0.00000000          1
H        10.94046580       7.01147004      11.43992821         0.00000000       0.00000000       0.00000000          1
H        12.05713161       5.34630423      13.38532041         0.00000000       0.00000000       0.00000000          1
H        12.36837202       9.17811028      12.47483318         0.00000000       0.00000000       0.00000000          1
H        13.71582116       6.85160628      11.71585733         0.00000000       0.00000000       0.00000000          1
H        13.48503453       7.51294270      14.42023062         0.00000000       0.00000000       0.00000000          1
6
pbc=[F, F, F] list_num_par=6 frozen=false iter=20000 energy=-1.26974174 Lattice="15.00000000 0.00000000 0.00000000 0.00000000 15.00000000 0.00000000 0.00000000 0.00000000 15.00000000" energy_frozen_part=0.00000000 Properties=species:S:1:pos:R:3:velocities:R:3:Z:I:1
H        14.28871434       7.36241334      10.56354469         0.00000000       0.00000000       0.00000000          1
H        14.02136007       9.25639535      12.59963683         0.00000000       0.00000000       0.00000000          1
H        11.95803086       7.44005847      12.10177507         0.00000000       0.00000000       0.00000000          1
H        11.89416959       8.24560014       9.42757890         0.00000000       0.00000000       0.00000000          1
H        11.62681901      10.13957871      11.46366433         0.00000000       0.00000000       0.00000000          1
H        13.95750914      10.06193483       9.92543830         0.00000000       0.00000000       0.00000000          1
6
pbc=[F, F, F] list_num_par=6 frozen=false iter=20000 energy=-1.26974174 Lattice="15.00000000 0.00000000 0.00000000 0.00000000 15.00000000 0.00000000 0.00000000 0.00000000 15.00000000" energy_frozen_part=0.00000000 Properties=species:S:1:pos:R:3:velocities:R:3:Z:I:1
H        14.28876171       7.36243394      10.56360151         0.00000000       0.00000000       0.00000000          1
H        14.02147693       9.25644450      12.59966345         0.00000000       0.00000000       0.00000000          1
H        11.95810951       7.44012532      12.10188725         0.00000000       0.00000000       0.00000000          1
H        11.89418997       8.24562037       9.42768186         0.00000000       0.00000000       0.00000000          1
H        11.62690396      10.13963405      11.46374233         0.00000000       0.00000000       0.00000000          1
H        13.95755053      10.06194488       9.92546004         0.00000000       0.00000000       0.00000000          1
6
pbc=[F, F, F] list_num_par=6 frozen=false iter=20000 energy=-1.26974174 Lattice="15.00000000 0.00000000 0.00000000 0.00000000 15.00000000 0.00000000 0.00000000 0.00000000 15.00000000" energy_frozen_part=0.00000000 Properties=species:S:1:pos:R:3:velocities:R:3:Z:I:1
H        14.28871761       7.36240361      10.56351063         0.00000000       0.00000000       0.00000000          1
H        14.02140755       9.25636883      12.59961073         0.00000000       0.00000000       0.00000000          1
H        11.95805294       7.44005118      12.10177549         0.00000000       0.00000000       0.00000000          1
H        11.89415956       8.24561387       9.42759092         0.00000000       0.00000000       0.00000000          1
H        11.62685057      10.13957766      11.46369828         0.00000000       0.00000000       0.00000000          1
H        13.95750926      10.06193587       9.92542427         0.00000000       0.00000000       0.00000000          1
6
pbc=[F, F, F] list_num_par=6 frozen=false iter=20000 energy=-1.26974174 Lattice="15.00000000 0.00000000 0.00000000 0.00000000 15.00000000 0.00000000 0.00000000 0.00000000 15.00000000" energy_frozen_part=0.00000000 Properties=species:S:1:pos:R:3:velocities:R:3:Z:I:1
H        10.70968654       7.67280595      14.14427201         0.00000000       0.00000000       0.00000000          1
H        10.94048962       7.01146693      11.43989466         0.00000000       0.00000000       0.00000000          1
H        12.05714258       5.34630628      13.38529828         0.00000000       0.00000000       0.00000000          1
H        12.36837982       9.17810798      12.47482693         0.00000000       0.00000000       0.00000000          1
H        13.71584188       6.85161337      11.71584967         0.00000000       0.00000000       0.00000000          1
H        13.48503362       7.51294471      14.42023022         0.00000000       0.00000000       0.00000000          1
6
pbc=[F, F, F] list_num_par=6 frozen=false iter=20000 energy=-1.26974174 Lattice="15.00000000 0.00000000 0.00000000 0.00000000 15.00000000 0.00000000 0.00000000 0.00000000 15.00000000" energy_frozen_part=0.00000000 Properties=species:S:1:pos:R:3:velocities:R:3:Z:I:1
H        14.28963816       7.36287621      10.56454211         0.00000000       0.00000000       0.00000000          1
H        14.02101655       9.25728853      12.60005801         0.00000000       0.00000000       0.00000000          1
H        11.95900304       7.43925752      12.10291701         0.00000000       0.00000000       0.00000000          1
H        11.89434550       8.24391286       9.42847665         0.00000000       0.00000000       0.00000000          1
H        11.62572666      10.13833020      11.46399822         0.00000000       0.00000000       0.00000000          1
H        13.95635328      10.06194940       9.92561305         0.00000000       0.00000000       0.00000000          1
6
pbc=[F, F, F] list_num_par=6 frozen=false iter=20000 energy=-1.26974174 Lattice="15.00000000 0.00000000 0.00000000 0.00000000 15.00000000 0.00000000 0.00000000 0.00000000 15.00000000" energy_frozen_part=0.00000000 Properties=species:S:1:pos:R:3:velocities:R:3:Z:I:1
H        10.70967803       7.67267442      14.14404771         0.00000000       0.00000000       0.00000000          1
H        10.94068661       7.01165229      11.43960878         0.00000000       0.00000000       0.00000000          1
H        12.05684857       5.34605675      13.38492197         0.00000000       0.00000000       0.00000000          1
H        12.36880297       9.17793612      12.47498130         0.00000000       0.00000000       0.00000000          1
H        13.71598087       6.85131538      11.71586510         0.00000000       0.00000000       0.00000000          1
H        13.48497206       7.51233789      14.42029620         0.00000000       0.00000000       0.00000000          1
6
pbc=[F, F, F] list_num_par=6 frozen=false iter=20000 energy=-1.26974174 Lattice="15.00000000 0.00000000 0.00000000 0.00000000 15.00000000 0.00000000 0.00000000 0.00000000 15.00000000" energy_frozen_part=0.00000000 Properties=species:S:1:pos:R:3:velocities:R:3:Z:I:1
H        14.28964389       7.36283807      10.56463502         0.00000000       0.00000000       0.00000000          1
H        14.02097804       9.25733498      12.60006871         0.00000000       0.00000000       0.00000000          1
H        11.95897492       7.43928253      12.10295923         0.00000000       0.00000000       0.00000000          1
H        11.89437366       8.24382816       9.42848373         0.00000000       0.00000000       0.00000000          1
H        11.62571655      10.13832459      11.46392008         0.00000000       0.00000000       0.00000000          1
H        13.95637991      10.06188050       9.92559450         0.00000000       0.00000000       0.00000000          1
6
pbc=[F, F, F] list_num_par=6 frozen=false iter=20000 energy=-1.26974174 Lattice="15.00000000 0.00000000 0.00000000 0.00000000 15.00000000 0.00000000 0.00000000 0.00000000 15.00000000" energy_frozen_part=0.00000000 Properties=species:S:1:pos:R:3:velocities:R:3:Z:I:1
H        14.28863798       7.36233991      10.56359770         0.00000000       0.00000000       0.00000000          1
H        14.02141758       9.25637650      12.59964359         0.00000000       0.00000000       0.00000000          1
H        11.95798360       7.44013130      12.10185811         0.00000000       0.00000000       0.00000000          1
H        11.89411441       8.24561326       9.42765100         0.00000000       0.00000000       0.00000000          1
H        11.62689403      10.13965082      11.46370219         0.00000000       0.00000000       0.00000000          1
H        13.95754752      10.06186027       9.92543302         0.00000000       0.00000000       0.00000000          1
6
pbc=[F, F, F] list_num_par=6 frozen=false iter=20000 energy=-1.26974174 Lattice="15.00000000 0.00000000 0.00000000 0.00000000 15.00000000 0.00000000 0.00000000 0.00000000 15.00000000" energy_frozen_part=0.00000000 Properties=species:S:1:pos:R:3:velocities:R:3:Z:I:1
H        14.28868337       7.36231331      10.56361923         0.00000000       0.00000000       0.00000000          1
H        14.02141965       9.25635778      12.59965403         0.00000000       0.00000000       0.00000000          1
H        11.95800677       7.44009105      12.10186349         0.00000000       0.00000000       0.00000000          1
H        11.89416469       8.24556499       9.42764544         0.00000000       0.00000000       0.00000000          1
H        11.62689918      10.13960570      11.46368419         0.00000000       0.00000000       0.00000000          1
H        13.95757590      10.06182523       9.92544507         0.00000000       0.00000000       0.00000000          1
6
pbc=[F, F, F] list_num_par=6 frozen=false iter=20000 energy=-1.26974174 Lattice="15.00000000 0.00000000 0.00000000 0.00000000 15.00000000 0.00000000 0.00000000 0.00000000 15.00000000" energy_frozen_part=0.00000000 Properties=species:S:1:pos:R:3:velocities:R:3:Z:I:1
H        14.28874611       7.36244083      10.56352348         0.00000000       0.00000000       0.00000000          1
H        14.02140032       9.25640819      12.59962088         0.00000000       0.00000000       0.00000000          1
H        11.95806171       7.44008165      12.10175456         0.00000000       0.00000000       0.00000000          1
H        11.89419530       8.24563496       9.42757202         0.00000000       0.00000000       0.00000000          1
H        11.62685709      10.13960677      11.46366658         0.00000000       0.00000000       0.00000000          1
H        13.95753624      10.06196164       9.92543353         0.00000000       0.00000000       0.00000000          1
6
pbc=[F, F, F] list_num_par=6 frozen=false iter=20000 energy=-1.26974174 Lattice="15.00000000 0.00000000 0.00000000 0.00000000 15.00000000 0.00000000 0.00000000 0.00000000 15.00000000" energy_frozen_part=0.00000000 Properties=species:S:1:pos:R:3:velocities:R:3:Z:I:1
H        10.70969922       7.67283006      14.14427949         0.00000000       0.00000000       0.00000000          1
H        10.94049235       7.01148499      11.43990172         0.00000000       0.00000000       0.00000000          1
H        12.05713546       5.34631926      13.38531403         0.00000000       0.00000000       0.00000000          1
H        12.36840239       9.17811736      12.47481531         0.00000000       0.00000000       0.00000000          1
H        13.71584306       6.85159977      11.71584920         0.00000000       0.00000000       0.00000000          1
H        13.48505074       7.51295488      14.42022632         0.00000000       0.00000000       0.00000000          1
6
pbc=[F, F, F] list_num_par=6 frozen=false iter=20000 energy=-1.26974174 Lattice="15.00000000 0.00000000 0.00000000 0.00000000 15.00000000 0.00000000 0.00000000 0.00000000 15.00000000" energy_frozen_part=0.00000000 Properties=species:S:1:pos:R:3:velocities:R:3:Z:I:1
H        14.28872258       7.36240630      10.56352058         0.00000000       0.00000000       0.00000000          1
H        14.02140789       9.25637181      12.59962495         0.00000000       0.00000000       0.00000000          1
H        11.95805613       7.44004675      12.10178305         0.00000000       0.00000000       0.00000000          1
H        11.89416317       8.24560792       9.42759053         0.00000000       0.00000000       0.00000000          1
H        11.62684275      10.13956997      11.46369952         0.00000000       0.00000000       0.00000000          1
H        13.95750791      10.06193367       9.92543567         0.00000000       0.00000000       0.00000000          1
6
pbc=[F, F, F] list_num_par=6 frozen=false iter=20000 energy=-1.26974174 Lattice="15.00000000 0.00000000 0.00000000 0.00000000 15.00000000 0.00000000 0.00000000 0.00000000 15.00000000" energy_frozen_part=0.00000000 Properties=species:S:1:pos:R:3:velocities:R:3:Z:I:1
H        10.70968688       7.67267585      14.14401705         0.00000000       0.00000000       0.00000000          1
H        10.94072092       7.01163053      11.43959712         0.00000000       0.00000000       0.00000000          1
H        12.05688162       5.34606129      13.38494012         0.00000000       0.00000000       0.00000000          1
H        12.36881792       9.17793124      12.47495611         0.00000000       0.00000000       0.00000000          1
H        13.71601569       6.85131522      11.71587667         0.00000000       0.00000000       0.00000000          1
H        13.48497881       7.51236051      14.42030069         0.00000000       0.00000000       0.00000000          1
6
pbc=[F, F, F] list_num_par=6 frozen=false iter=20000 energy=-1.26974174 Lattice="15.00000000 0.00000000 0.00000000 0.00000000 15.00000000 0.00000000 0.00000000 0.00000000 15.00000000" energy_frozen_part=0.00000000 Properties=species:S:1:pos:R:3:velocities:R:3:Z:I:1
H        10.70969645       7.67278620      14.14430520         0.00000000       0.00000000       0.00000000          1
H        10.94047723       7.01146083      11.43992347         0.00000000       0.00000000       0.00000000          1
H        12.05716240       5.34629468      13.38530623         0.00000000       0.00000000       0.00000000          1
H        12.36837180       9.17810756      12.47484355         0.00000000       0.00000000       0.00000000          1
H        13.71583266       6.85161355      11.71584482         0.00000000       0.00000000       0.00000000          1
H        13.48505094       7.51294178      14.42022321         0.00000000       0.00000000       0.00000000          1
6
pbc=[F, F, F] list_num_par=6 frozen=false iter=20000 energy=-1.26974174 Lattice="15.00000000 0.00000000 0.00000000 0.00000000 15.00000000 0.00000000 0.00000000 0.00000000 15.00000000" energy_frozen_part=0.00000000 Properties=species:S:1:pos:R:3:velocities:R:3:Z:I:1
H        14.28867676       7.36231042      10.56361390         0.00000000       0.00000000       0.00000000          1
H        14.02141227       9.25636717      12.59964042         0.00000000       0.00000000       0.00000000          1
H        11.95800048       7.44009059      12.10185007         0.00000000       0.00000000       0.00000000          1
H        11.89415936       8.24555022       9.42763076         0.00000000       0.00000000       0.00000000          1
H        11.62688986      10.13959931      11.46366535         0.00000000       0.00000000       0.00000000          1
H        13.95756441      10.06181935       9.92542195         0.00000000       0.00000000       0.00000000          1
6
pbc=[F, F, F] list_num_par=6 frozen=false iter=20000 energy=-1.26974174 Lattice="15.00000000 0.00000000 0.00000000 0.00000000 15.00000000 0.00000000 0.00000000 0.00000000 15.00000000" energy_frozen_part=0.00000000 Properties=species:S:1:pos:R:3:velocities:R:3:Z:I:1
H        14.28870884       7.36230042      10.56360875         0.00000000       0.00000000       0.00000000          1
H        14.02144571       9.25634686      12.59964908         0.00000000       0.00000000       0.00000000          1
H        11.95804798       7.44006539      12.10187898         0.00000000       0.00000000       0.00000000          1
H        11.89416621       8.24552442       9.42766444         0.00000000       0.00000000       0.00000000          1
H        11.62690963      10.13957243      11.46370246         0.00000000       0.00000000       0.00000000          1
H        13.95756470      10.06180990       9.92542948         0.00000000       0.00000000       0.00000000          1
6
pbc=[F, F, F] list_num_par=6 frozen=false iter=20000 energy=-1.26974174 Lattice="15.00000000 0.00000000 0.00000000 0.00000000 15.00000000 0.00000000 0.00000000 0.00000000 15.00000000" energy_frozen_part=0.00000000 Properties=species:S:1:pos:R:3:velocities:R:3:Z:I:1
H        14.28865118       7.36235637      10.56360949         0.00000000       0.00000000       0.00000000          1
H        14.02142112       9.25641620      12.59963659         0.00000000       0.00000000       0.00000000          1
H        11.95800927       7.44013605      12.10190220         0.00000000       0.00000000       0.00000000          1
H        11.89410004       8.24558811       9.42767865         0.00000000       0.00000000       0.00000000          1
H        11.62687263      10.13964821      11.46371263         0.00000000       0.00000000       0.00000000          1
H        13.95751600      10.06186410       9.92541856         0.00000000       0.00000000       0.00000000          1
6
pbc=[F, F, F] list_num_par=6 frozen=false iter=20000 energy=-1.26974174 Lattice="15.00000000 0.00000000 0.00000000 0.00000000 15.00000000 0.00000000 0.00000000 0.00000000 15.00000000" energy_frozen_part=0.00000000 Properties=species:S:1:pos:R:3:velocities:R:3:Z:I:1
H        14.28963703       7.36280849      10.56467758         0.00000000       0.00000000       0.00000000          1
H        14.02102174       9.25725429      12.60016944         0.00000000       0.00000000       0.00000000          1
H        11.95901187       7.43920542      12.10306501         0.00000000       0.00000000       0.00000000          1
H        11.89434549       8.24382843       9.42861208         0.00000000       0.00000000       0.00000000          1
H        11.62572620      10.13826576      11.46410277         0.00000000       0.00000000       0.00000000          1
H        13.95635164      10.06186960       9.92571897         0.00000000       0.00000000       0.00000000          1
6
pbc=[F, F, F] list_num_par=6 frozen=false iter=20000 energy=-1.26974174 Lattice="15.00000000 0.00000000 0.00000000 0.00000000 15.00000000 0.00000000 0.00000000 0.00000000 15.00000000" energy_frozen_part=0.00000000 Properties=species:S:1:pos:R:3:velocities:R:3:Z:I:1
H        14.28864640       7.36230707      10.56360197         0.00000000       0.00000000       0.00000000          1
H        14.02142086       9.25635516      12.59964114         0.00000000       0.00000000       0.00000000          1
H        11.95799840       7.44009836      12.10187322         0.00000000       0.00000000       0.00000000          1
H        11.89412085       8.24556738       9.42765848         0.00000000       0.00000000       0.00000000          1
H        11.62689040      10.13961048      11.46369728         0.00000000       0.00000000       0.00000000          1
H        13.95754489      10.06182592       9.92542413         0.00000000       0.00000000       0.00000000          1
6
pbc=[F, F, F] list_num_par=6 frozen=false iter=20000 energy=-1.26974174 Lattice="15.00000000 0.00000000 0.00000000 0.00000000 15.00000000 0.00000000 0.00000000 0.00000000 15.00000000" energy_frozen_part=0.00000000 Properties=species:S:1:pos:R:3:velocities:R:3:Z:I:1
H        10.70970424       7.67283167      14.14430982         0.00000000       0.00000000       0.00000000          1
H        10.94047619       7.01148026      11.43993246         0.00000000       0.00000000       0.00000000          1
H        12.05714469       5.34632798      13.38533383         0.00000000       0.00000000       0.00000000          1
H        12.36838594       9.17812120      12.47483471         0.00000000       0.00000000       0.00000000          1
H        13.71582932       6.85161821      11.71585902         0.00000000       0.00000000       0.00000000          1
H        13.48506267       7.51296294      14.42023374         0.00000000       0.00000000       0.00000000          1
6
pbc=[F, F, F] list_num_par=6 frozen=false iter=20000 energy=-1.26974174 Lattice="15.00000000 0.00000000 0.00000000 0.00000000 15.00000000 0.00000000 0.00000000 0.00000000 15.00000000" energy_frozen_part=0.00000000 Properties=species:S:1:pos:R:3:velocities:R:3:Z:I:1
H        10.70969869       7.67279558      14.14434628         0.00000000       0.00000000       0.00000000          1
H        10.94044319       7.01148732      11.43995202         0.00000000       0.00000000       0.00000000          1
H        12.05712883       5.34629707      13.38532005         0.00000000       0.00000000       0.00000000          1
H        12.36836958       9.17810969      12.47487798         0.00000000       0.00000000       0.00000000          1
H        13.71580299       6.85160926      11.71585539         0.00000000       0.00000000       0.00000000          1
H        13.48505455       7.51291833      14.42024047         0.00000000       0.00000000       0.00000000          1
6
pbc=[F, F, F] list_num_par=6 frozen=false iter=20000 energy=-1.26974174 Lattice="15.00000000 0.00000000 0.00000000 0.00000000 15.00000000 0.00000000 0.00000000 0.00000000 15.00000000" energy_frozen_part=0.00000000 Properties=species:S:1:pos:R:3:velocities:R:3:Z:I:1
H        14.28965207       7.36278082      10.56459719         0.00000000       0.00000000       0.00000000          1
H        14.02098157       9.25727010      12.60003015         0.00000000       0.00000000       0.00000000          1
H        11.95895874       7.43926117      12.10287535         0.00000000       0.00000000       0.00000000          1
H        11.89442254       8.24381654       9.42840100         0.00000000       0.00000000       0.00000000          1
H        11.62574967      10.13831345      11.46383300         0.00000000       0.00000000       0.00000000          1
H        13.95644525      10.06183134       9.92555735         0.00000000       0.00000000       0.00000000          1
6
pbc=[F, F, F] list_num_par=6 frozen=false iter=20000 energy=-1.26974174 Lattice="15.00000000 0.00000000 0.00000000 0.00000000 15.00000000 0.00000000 0.00000000 0.00000000 15.00000000" energy_frozen_part=0.00000000 Properties=species:S:1:pos:R:3:velocities:R:3:Z:I:1
H        10.70968956       7.67270552      14.14404149         0.00000000       0.00000000       0.00000000          1
H        10.94070013       7.01166485      11.43960917         0.00000000       0.00000000       0.00000000          1
H        12.05685252       5.34607499      13.38494054         0.00000000       0.00000000       0.00000000          1
H        12.36883324       9.17794591      12.47497396         0.00000000       0.00000000       0.00000000          1
H        13.71599217       6.85131606      11.71586909         0.00000000       0.00000000       0.00000000          1
H        13.48498153       7.51235077      14.42030459         0.00000000       0.00000000       0.00000000          1
6
pbc=[F, F, F] list_num_par=6 frozen=false iter=20000 energy=-1.26974174 Lattice="15.00000000 0.00000000 0.00000000 0.00000000 15.00000000 0.00000000 0.00000000 0.00000000 15.00000000" energy_frozen_part=0.00000000 Properties=species:S:1:pos:R:3:velocities:R:3:Z:I:1
H        14.28875638       7.36244388      10.56354691         0.00000000       0.00000000       0.00000000          1
H        14.02137978       9.25641602      12.59963554         0.00000000       0.00000000       0.00000000          1
H        11.95805472       7.44008482      12.10175122         0.00000000       0.00000000       0.00000000          1
H        11.89421554       8.24563047       9.42756260         0.00000000       0.00000000       0.00000000          1
H        11.62684382      10.13960557      11.46365293         0.00000000       0.00000000       0.00000000          1
H        13.95754490      10.06196009       9.92544494         0.00000000       0.00000000       0.00000000          1
6
pbc=[F, F, F] list_num_par=6 frozen=false iter=20000 energy=-1.26974174 Lattice="15.00000000 0.00000000 0.00000000 0.00000000 15.00000000 0.00000000 0.00000000 0.00000000 15.00000000" energy_frozen_part=0.00000000 Properties=species:S:1:pos:R:3:velocities:R:3:Z:I:1
H        10.70965890       7.67276860      14.14429614         0.00000000       0.00000000       0.00000000          1
H        10.94046558       7.01147183      11.43991054         0.00000000       0.00000000       0.00000000          1
H        12.05712608       5.34628387      13.38528847         0.00000000       0.00000000       0.00000000          1
H        12.36835839       9.17810341      12.47486405         0.00000000       0.00000000       0.00000000          1
H        13.71581899       6.85161894      11.71586002         0.00000000       0.00000000       0.00000000          1
H        13.48501412       7.51291141      14.42024489         0.00000000       0.00000000       0.00000000          1
6
pbc=[F, F, F] list_num_par=6 frozen=false iter=20000 energy=-1.26974174 Lattice="15.00000000 0.00000000 0.00000000 0.00000000 15.00000000 0.00000000 0.00000000 0.00000000 15.00000000" energy_frozen_part=0.00000000 Properties=species:S:1:pos:R:3:velocities:R:3:Z:I:1
H        10.70970221       7.67269709      14.14403778         0.00000000       0.00000000       0.00000000          1
H        10.94071258       7.01163776      11.43961000         0.00000000       0.00000000       0.00000000          1
H        12.05687681       5.34606703      13.38494697         0.00000000       0.00000000       0.00000000          1
H        12.36883158       9.17793007      12.47495942         0.00000000       0.00000000       0.00000000          1
H        13.71600925       6.85130989      11.71587109         0.00000000       0.00000000       0.00000000          1
H        13.48499589       7.51235656      14.42029662         0.00000000       0.00000000       0.00000000          1
6
pbc=[F, F, F] list_num_par=6 frozen=false iter=20000 energy=-1.26974174 Lattice="15.00000000 0.00000000 0.00000000 0.00000000 15.00000000 0.00000000 0.00000000 0.00000000 15.00000000" energy_frozen_part=0.00000000 Properties=species:S:1:pos:R:3:velocities:R:3:Z:I:1
H        14.28964573       7.36283998      10.56463688         0.00000000       0.00000000       0.00000000          1
H        14.02098538       9.25733843      12.60006639         0.00000000       0.00000000       0.00000000          1
H        11.95898512       7.43928009      12.10296414         0.00000000       0.00000000       0.00000000          1
H        11.89437480       8.24382933       9.42849146         0.00000000       0.00000000       0.00000000          1
H        11.62571666      10.13832678      11.46392692         0.00000000       0.00000000       0.00000000          1
H        13.95637632      10.06188025       9.92559470         0.00000000       0.00000000       0.00000000          1
6
pbc=[F, F, F] list_num_par=6 frozen=false iter=20000 energy=-1.26974174 Lattice="15.00000000 0.00000000 0.00000000 0.00000000 15.00000000 0.00000000 0.00000000 0.00000000 15.00000000" energy_frozen_part=0.00000000 Properties=species:S:1:pos:R:3:velocities:R:3:Z:I:1
H        10.70967951       7.67280405      14.14428709         0.00000000       0.00000000       0.00000000          1
H        10.94048532       7.01147525      11.43990818         0.00000000       0.00000000       0.00000000          1
H        12.05714064       5.34630496      13.38530325         0.00000000       0.00000000       0.00000000          1
H        12.36837918       9.17811118      12.47483981         0.00000000       0.00000000       0.00000000          1
H        13.71584037       6.85161236      11.71586092         0.00000000       0.00000000       0.00000000          1
H        13.48503542       7.51294039      14.42023553         0.00000000       0.00000000       0.00000000          1
6
pbc=[F, F, F] list_num_par=6 frozen=false iter=20000 energy=-1.26974174 Lattice="15.00000000 0.00000000 0.00000000 0.00000000 15.00000000 0.00000000 0.00000000 0.00000000 15.00000000" energy_frozen_part=0.00000000 Properties=species:S:1:pos:R:3:velocities:R:3:Z:I:1
H        14.28876444       7.36244528      10.56359858         0.00000000       0.00000000       0.00000000          1
H        14.02147403       9.25645623      12.59966490         0.00000000       0.00000000       0.00000000          1
H        11.95812407       7.44011619      12.10189796         0.00000000       0.00000000       0.00000000          1
H        11.89418805       8.24561317       9.42768820         0.00000000       0.00000000       0.00000000          1
H        11.62690171      10.13963202      11.46374857         0.00000000       0.00000000       0.00000000          1
H        13.95754613      10.06195498       9.92545895         0.00000000       0.00000000       0.00000000          1
