6
iter=20000 frozen=false energy=-1.26974174 energy_frozen_part=0.00000000 Lattice="15.00000000 0.00000000 0.00000000 0.00000000 15.00000000 0.00000000 0.00000000 0.00000000 15.00000000" pbc=[F, F, F] list_num_par=6 Properties=species:S:1:pos:R:3:Z:I:1:velocities:R:3
H         8.83966180       4.28327984       3.38619909          1         0.00000000       0.00000000       0.00000000
H        11.17986719       3.62720204       2.00878306          1         0.00000000       0.00000000       0.00000000
H        11.59220782       6.32744293       1.42316530          1         0.00000000       0.00000000       0.00000000
H         9.17726118       5.10224072       0.73673563          1         0.00000000       0.00000000       0.00000000
H        11.25461955       5.50849200       4.07261960          1         0.00000000       0.00000000       0.00000000
H         9.25199728       6.98352063       2.80058231          1         0.00000000       0.00000000       0.00000000
6
iter=20000 frozen=false energy=-1.26974174 energy_frozen_part=0.00000000 Lattice="15.00000000 0.00000000 0.00000000 0.00000000 15.00000000 0.00000000 0.00000000 0.00000000 15.00000000" pbc=[F, F, F] list_num_par=6 Properties=species:S:1:pos:R:3:Z:I:1:velocities:R:3
H         8.83950681       4.28351635       3.38610254          1         0.00000000       0.00000000       0.00000000
H        11.17946095       3.62713140       2.00840929          1         0.00000000       0.00000000       0.00000000
H        11.59218572       6.32733588       1.42291528          1         0.00000000       0.00000000       0.00000000
H         9.17696467       5.10258565       0.73666148          1         0.00000000       0.00000000       0.00000000
H        11.25472379       5.50828386       4.07236021          1         0.00000000       0.00000000       0.00000000
H         9.25222019       6.98372908       2.80060998          1         0.00000000       0.00000000       0.00000000
6
iter=20000 frozen=false energy=-1.26974174 energy_frozen_part=0.00000000 Lattice="15.00000000 0.00000000 0.00000000 0.00000000 15.00000000 0.00000000 0.00000000 0.00000000 15.00000000" pbc=[F, F, F] list_num_par=6 Properties=species:S:1:pos:R:3:Z:I:1:velocities:R:3
H         8.83962824       4.28325787       3.38611803          1         0.00000000       0.00000000       0.00000000
H        11.17986653       3.62717603       2.00875480          1         0.00000000       0.00000000       0.00000000
H        11.59220963       6.32742764       1.42317229          1         0.00000000       0.00000000       0.00000000
H         9.17728084       5.10222590       0.73667231          1         0.00000000       0.00000000       0.00000000
H        11.25456198       5.50845167       4.07261934          1         0.00000000       0.00000000       0.00000000
H         9.25197328       6.98350171       2.80054330          1         0.00000000       0.00000000       0.00000000
6
iter=20000 frozen=false energy=-1.26974174 energy_frozen_part=0.00000000 Lattice="15.00000000 0.00000000 0.00000000 0.00000000 15.00000000 0.00000000 0.00000000 0.00000000 15.00000000" pbc=[F, F, F] list_num_par=6 Properties=species:S:1:pos:R:3:Z:I:1:velocities:R:3
H         8.83967440       4.28328475       3.38618830          1         0.00000000       0.00000000       0.00000000
H        11.17986547       3.62723501       2.00873750          1         0.00000000       0.00000000       0.00000000
H        11.59216656       6.32748502       1.42312792          1         0.00000000       0.00000000       0.00000000
H         9.17722303       5.10226010       0.73672296          1         0.00000000       0.00000000       0.00000000
H        11.25460804       5.50851692       4.07259273          1         0.00000000       0.00000000       0.00000000
H         9.25196971       6.98353124       2.80057833          1         0.00000000       0.00000000       0.00000000
6
iter=20000 frozen=false energy=-1.26974174 energy_frozen_part=0.00000000 Lattice="15.00000000 0.00000000 0.00000000 0.00000000 15.00000000 0.00000000 0.00000000 0.00000000 15.00000000" pbc=[F, F, F] list_num_par=6 Properties=species:S:1:pos:R:3:Z:I:1:velocities:R:3
H         8.83952689       4.28360348       3.38627304          1         0.00000000       0.00000000       0.00000000
H        11.17942835       3.62704047       2.00856251          1         0.00000000       0.00000000       0.00000000
H        11.59222606       6.32720577       1.42287810          1         0.00000000       0.00000000       0.00000000
H         9.17695604       5.10247878       0.73677150          1         0.00000000       0.00000000       0.00000000
H        11.25480931       5.50833285       4.07237853          1         0.00000000       0.00000000       0.00000000
H         9.25232123       6.98376284       2.80059032          1         0.00000000       0.00000000       0.00000000
6
iter=20000 frozen=false energy=-1.26974174 energy_frozen_part=0.00000000 Lattice="15.00000000 0.00000000 0.00000000 0.00000000 15.00000000 0.00000000 0.00000000 0.00000000 15.00000000" pbc=[F, F, F] list_num_par=6 Properties=species:S:1:pos:R:3:Z:I:1:velocities:R:3
H         8.83947962       4.28361693       3.38623825          1         0.00000000       0.00000000       0.00000000
H        11.17936931       3.62703777       2.00850025          1         0.00000000       0.00000000       0.00000000
H        11.59221474       6.32720247       1.42286374          1         0.00000000       0.00000000       0.00000000
H         9.17690777       5.10252827       0.73674468          1         0.00000000       0.00000000       0.00000000
H        11.25479383       5.50828701       4.07235187          1         0.00000000       0.00000000       0.00000000
H         9.25233284       6.98377122       2.80059659          1         0.00000000       0.00000000       0.00000000
6
iter=20000 frozen=false energy=-1.26974174 energy_frozen_part=0.00000000 Lattice="15.00000000 0.00000000 0.00000000 0.00000000 15.00000000 0.00000000 0.00000000 0.00000000 15.00000000" pbc=[F, F, F] list_num_par=6 Properties=species:S:1:pos:R:3:Z:I:1:velocities:R:3
H         8.83948526       4.28354897       3.38627215          1         0.00000000       0.00000000       0.00000000
H        11.17936555       3.62706039       2.00849682          1         0.00000000       0.00000000       0.00000000
H        11.59209204       6.32723469       1.42281988          1         0.00000000       0.00000000       0.00000000
H         9.17682493       5.10244667       0.73675774          1         0.00000000       0.00000000       0.00000000
H        11.25474952       5.50833993       4.07232129          1         0.00000000       0.00000000       0.00000000
H         9.25219694       6.98372624       2.80058602          1         0.00000000       0.00000000       0.00000000
6
iter=20000 frozen=false energy=-1.26974174 energy_frozen_part=0.00000000 Lattice="15.00000000 0.00000000 0.00000000 0.00000000 15.00000000 0.00000000 0.00000000 0.00000000 15.00000000" pbc=[F, F, F] list_num_par=6 Properties=species:S:1:pos:R:3:Z:I:1:velocities:R:3
H         8.83954555       4.28314291       3.38604415          1         0.00000000       0.00000000       0.00000000
H        11.17980814       3.62731827       2.00860307          1         0.00000000       0.00000000       0.00000000
H        11.59205275       6.32764474       1.42332430          1         0.00000000       0.00000000       0.00000000
H         9.17716902       5.10242367       0.73669637          1         0.00000000       0.00000000       0.00000000
H        11.25443007       5.50834973       4.07268103          1         0.00000000       0.00000000       0.00000000
H         9.25179534       6.98347523       2.80077131          1         0.00000000       0.00000000       0.00000000
6
iter=20000 frozen=false energy=-1.26974174 energy_frozen_part=0.00000000 Lattice="15.00000000 0.00000000 0.00000000 0.00000000 15.00000000 0.00000000 0.00000000 0.00000000 15.00000000" pbc=[F, F, F] list_num_par=6 Properties=species:S:1:pos:R:3:Z:I:1:velocities:R:3
H         8.83947898       4.28357686       3.38617960          1         0.00000000       0.00000000       0.00000000
H        11.17937431       3.62696299       2.00849088          1         0.00000000       0.00000000       0.00000000
H        11.59226789       6.32711865       1.42286950          1         0.00000000       0.00000000       0.00000000
H         9.17695596       5.10248601       0.73670113          1         0.00000000       0.00000000       0.00000000
H        11.25477951       5.50821714       4.07234839          1         0.00000000       0.00000000       0.00000000
H         9.25237068       6.98373718       2.80055087          1         0.00000000       0.00000000       0.00000000
6
iter=20000 frozen=false energy=-1.26974174 energy_frozen_part=0.00000000 Lattice="15.00000000 0.00000000 0.00000000 0.00000000 15.00000000 0.00000000 0.00000000 0.00000000 15.00000000" pbc=[F, F, F] list_num_par=6 Properties=species:S:1:pos:R:3:Z:I:1:velocities:R:3
H         8.83944438       4.28339190       3.38611346          1         0.00000000       0.00000000       0.00000000
H        11.17948261       3.62717616       2.00846739          1         0.00000000       0.00000000       0.00000000
H        11.59211570       6.32743478       1.42312680          1         0.00000000       0.00000000       0.00000000
H         9.17696742       5.10260038       0.73671839          1         0.00000000       0.00000000       0.00000000
H        11.25458386       5.50823533       4.07251603          1         0.00000000       0.00000000       0.00000000
H         9.25206513       6.98365155       2.80075733          1         0.00000000       0.00000000       0.00000000
6
iter=20000 frozen=false energy=-1.26974174 energy_frozen_part=0.00000000 Lattice="15.00000000 0.00000000 0.00000000 0.00000000 15.00000000 0.00000000 0.00000000 0.00000000 15.00000000" pbc=[F, F, F] list_num_par=6 Properties=species:S:1:pos:R:3:Z:I:1:velocities:R:3
H         8.83945255       4.28336935       3.38607911          1         0.00000000       0.00000000       0.00000000
H        11.17951451       3.62721179       2.00845753          1         0.00000000       0.00000000       0.00000000
H        11.59211072       6.32747559       1.42314618          1         0.00000000       0.00000000       0.00000000
H         9.17699103       5.10260574       0.73669883          1         0.00000000       0.00000000       0.00000000
H        11.25457314       5.50824071       4.07252500          1         0.00000000       0.00000000       0.00000000
H         9.25204872       6.98363529       2.80075800          1         0.00000000       0.00000000       0.00000000
6
iter=20000 frozen=false energy=-1.26974174 energy_frozen_part=0.00000000 Lattice="15.00000000 0.00000000 0.00000000 0.00000000 15.00000000 0.00000000 0.00000000 0.00000000 15.00000000" pbc=[F, F, F] list_num_par=6 Properties=species:S:1:pos:R:3:Z:I:1:velocities:R:3
H         8.83966267       4.28328071       3.38622823          1         0.00000000       0.00000000       0.00000000
H        11.17986278       3.62722150       2.00878338          1         0.00000000       0.00000000       0.00000000
H        11.59216148       6.32747514       1.42317391          1         0.00000000       0.00000000       0.00000000
H         9.17722389       5.10224700       0.73677011          1         0.00000000       0.00000000       0.00000000
H        11.25461191       5.50850514       4.07262936          1         0.00000000       0.00000000       0.00000000
H         9.25196827       6.98352963       2.80060836          1         0.00000000       0.00000000       0.00000000
6
iter=20000 frozen=false energy=-1.26974174 energy_frozen_part=0.00000000 Lattice="15.00000000 0.00000000 0.00000000 0.00000000 15.00000000 0.00000000 0.00000000 0.00000000 15.00000000" pbc=[F, F, F] list_num_par=6 Properties=species:S:1:pos:R:3:Z:I:1:velocities:R:3
H         8.83968698       4.28325585       3.38613493          1         0.00000000       0.00000000       0.00000000
H        11.17990606       3.62718250       2.00872564          1         0.00000000       0.00000000       0.00000000
H        11.59222741       6.32742911       1.42312567          1         0.00000000       0.00000000       0.00000000
H         9.17728997       5.10221262       0.73668162          1         0.00000000       0.00000000       0.00000000
H        11.25462663       5.50845658       4.07258081          1         0.00000000       0.00000000       0.00000000
H         9.25201354       6.98350594       2.80053367          1         0.00000000       0.00000000       0.00000000
6
iter=20000 frozen=false energy=-1.26974174 energy_frozen_part=0.00000000 Lattice="15.00000000 0.00000000 0.00000000 0.00000000 15.00000000 0.00000000 0.00000000 0.00000000 15.00000000" pbc=[F, F, F] list_num_par=6 Properties=species:S:1:pos:R:3:Z:I:1:velocities:R:3
H         8.83943665       4.28339883       3.38607942          1         0.00000000       0.00000000       0.00000000
H        11.17948451       3.62719452       2.00845166          1         0.00000000       0.00000000       0.00000000
H        11.59211665       6.32744885       1.42312565          1         0.00000000       0.00000000       0.00000000
H         9.17697432       5.10262797       0.73670021          1         0.00000000       0.00000000       0.00000000
H        11.25457127       5.50823620       4.07251050          1         0.00000000       0.00000000       0.00000000
H         9.25206266       6.98365756       2.80075921          1         0.00000000       0.00000000       0.00000000
6
iter=20000 frozen=false energy=-1.26974174 energy_frozen_part=0.00000000 Lattice="15.00000000 0.00000000 0.00000000 0.00000000 15.00000000 0.00000000 0.00000000 0.00000000 15.00000000" pbc=[F, F, F] list_num_par=6 Properties=species:S:1:pos:R:3:Z:I:1:velocities:R:3
H         8.83950755       4.28349761       3.38610309          1         0.00000000       0.00000000       0.00000000
H        11.17946392       3.62711463       2.00840517          1         0.00000000       0.00000000       0.00000000
H        11.59217030       6.32732513       1.42291324          1         0.00000000       0.00000000       0.00000000
H         9.17695282       5.10255665       0.73666639          1         0.00000000       0.00000000       0.00000000
H        11.25472944       5.50826918       4.07235980          1         0.00000000       0.00000000       0.00000000
H         9.25221776       6.98370972       2.80060873          1         0.00000000       0.00000000       0.00000000
6
iter=20000 frozen=false energy=-1.26974174 energy_frozen_part=0.00000000 Lattice="15.00000000 0.00000000 0.00000000 0.00000000 15.00000000 0.00000000 0.00000000 0.00000000 15.00000000" pbc=[F, F, F] list_num_par=6 Properties=species:S:1:pos:R:3:Z:I:1:velocities:R:3
H         8.83964324       4.28323312       3.38615986          1         0.00000000       0.00000000       0.00000000
H        11.17988113       3.62724358       2.00874517          1         0.00000000       0.00000000       0.00000000
H        11.59214437       6.32751175       1.42319745          1         0.00000000       0.00000000       0.00000000
H         9.17723242       5.10225998       0.73671872          1         0.00000000       0.00000000       0.00000000
H        11.25454519       5.50848219       4.07263286          1         0.00000000       0.00000000       0.00000000
H         9.25190768       6.98350555       2.80060861          1         0.00000000       0.00000000       0.00000000
6
iter=20000 frozen=false energy=-1.26974174 energy_frozen_part=0.00000000 Lattice="15.00000000 0.00000000 0.00000000 0.00000000 15.00000000 0.00000000 0.00000000 0.00000000 15.00000000" pbc=[F, F, F] list_num_par=6 Properties=species:S:1:pos:R:3:Z:I:1:velocities:R:3
H         8.83951013       4.28355141       3.38628579          1         0.00000000       0.00000000       0.00000000
H        11.17941520       3.62702826       2.00855657          1         0.00000000       0.00000000       0.00000000
H        11.59216039       6.32719872       1.42286459          1         0.00000000       0.00000000       0.00000000
H         9.17690448       5.10242007       0.73678015          1         0.00000000       0.00000000       0.00000000
H        11.25477169       5.50832218       4.07237704          1         0.00000000       0.00000000       0.00000000
H         9.25225720       6.98371486       2.80058678          1         0.00000000       0.00000000       0.00000000
6
iter=20000 frozen=false energy=-1.26974174 energy_frozen_part=0.00000000 Lattice="15.00000000 0.00000000 0.00000000 0.00000000 15.00000000 0.00000000 0.00000000 0.00000000 15.00000000" pbc=[F, F, F] list_num_par=6 Properties=species:S:1:pos:R:3:Z:I:1:velocities:R:3
H         8.83951212       4.28354945       3.38628419          1         0.00000000       0.00000000       0.00000000
H        11.17939192       3.62707853       2.00848922          1         0.00000000       0.00000000       0.00000000
H        11.59207517       6.32726166       1.42281961          1         0.00000000       0.00000000       0.00000000
H         9.17682620       5.10245822       0.73677443          1         0.00000000       0.00000000       0.00000000
H        11.25478068       5.50834629       4.07233184          1         0.00000000       0.00000000       0.00000000
H         9.25220585       6.98372599       2.80062122          1         0.00000000       0.00000000       0.00000000
6
iter=20000 frozen=false energy=-1.26974174 energy_frozen_part=0.00000000 Lattice="15.00000000 0.00000000 0.00000000 0.00000000 15.00000000 0.00000000 0.00000000 0.00000000 15.00000000" pbc=[F, F, F] list_num_par=6 Properties=species:S:1:pos:R:3:Z:I:1:velocities:R:3
H         8.83965193       4.28327946       3.38620794          1         0.00000000       0.00000000       0.00000000
H        11.17985484       3.62722827       2.00876149          1         0.00000000       0.00000000       0.00000000
H        11.59215419       6.32747477       1.42314045          1         0.00000000       0.00000000       0.00000000
H         9.17721235       5.10223799       0.73674715          1         0.00000000       0.00000000       0.00000000
H        11.25459817       5.50852401       4.07260396          1         0.00000000       0.00000000       0.00000000
H         9.25194882       6.98352537       2.80058749          1         0.00000000       0.00000000       0.00000000
6
iter=20000 frozen=false energy=-1.26974174 energy_frozen_part=0.00000000 Lattice="15.00000000 0.00000000 0.00000000 0.00000000 15.00000000 0.00000000 0.00000000 0.00000000 15.00000000" pbc=[F, F, F] list_num_par=6 Properties=species:S:1:pos:R:3:Z:I:1:velocities:R:3
H         8.83953812       4.28313907       3.38604086          1         0.00000000       0.00000000       0.00000000
H        11.17978460       3.62730189       2.00858006          1         0.00000000       0.00000000       0.00000000
H        11.59200947       6.32763551       1.42328982          1         0.00000000       0.00000000       0.00000000
H         9.17712785       5.10240647       0.73668287          1         0.00000000       0.00000000       0.00000000
H        11.25442652       5.50835211       4.07264442          1         0.00000000       0.00000000       0.00000000
H         9.25176176       6.98346294       2.80074902          1         0.00000000       0.00000000       0.00000000
6
iter=20000 frozen=false energy=-1.26974174 energy_frozen_part=0.00000000 Lattice="15.00000000 0.00000000 0.00000000 0.00000000 15.00000000 0.00000000 0.00000000 0.00000000 15.00000000" pbc=[F, F, F] list_num_par=6 Properties=species:S:1:pos:R:3:Z:I:1:velocities:R:3
H         8.83950965       4.28357326       3.38622244          1         0.00000000       0.00000000       0.00000000
H        11.17938581       3.62699244       2.00849500          1         0.00000000       0.00000000       0.00000000
H        11.59226073       6.32714421       1.42285920          1         0.00000000       0.00000000       0.00000000
H         9.17694555       5.10249909       0.73673355          1         0.00000000       0.00000000       0.00000000
H        11.25482178       5.50823283       4.07235319          1         0.00000000       0.00000000       0.00000000
H         9.25238018       6.98373482       2.80059997          1         0.00000000       0.00000000       0.00000000
6
iter=20000 frozen=false energy=-1.26974174 energy_frozen_part=0.00000000 Lattice="15.00000000 0.00000000 0.00000000 0.00000000 15.00000000 0.00000000 0.00000000 0.00000000 15.00000000" pbc=[F, F, F] list_num_par=6 Properties=species:S:1:pos:R:3:Z:I:1:velocities:R:3
H         8.83954795       4.28359504       3.38635452          1         0.00000000       0.00000000       0.00000000
H        11.17939095       3.62705433       2.00854986          1         0.00000000       0.00000000       0.00000000
H        11.59208418       6.32719878       1.42272054          1         0.00000000       0.00000000       0.00000000
H         9.17680234       5.10235875       0.73678937          1         0.00000000       0.00000000       0.00000000
H        11.25483137       5.50843112       4.07228524          1         0.00000000       0.00000000       0.00000000
H         9.25223435       6.98374248       2.80052207          1         0.00000000       0.00000000       0.00000000
6
iter=20000 frozen=false energy=-1.26974174 energy_frozen_part=0.00000000 Lattice="15.00000000 0.00000000 0.00000000 0.00000000 15.00000000 0.00000000 0.00000000 0.00000000 15.00000000" pbc=[F, F, F] list_num_par=6 Properties=species:S:1:pos:R:3:Z:I:1:velocities:R:3
H         8.83953281       4.28354777       3.38628457          1         0.00000000       0.00000000       0.00000000
H        11.17939891       3.62707224       2.00848589          1         0.00000000       0.00000000       0.00000000
H        11.59208238       6.32725534       1.42280312          1         0.00000000       0.00000000       0.00000000
H         9.17682208       5.10244835       0.73677974          1         0.00000000       0.00000000       0.00000000
H        11.25478974       5.50835690       4.07231747          1         0.00000000       0.00000000       0.00000000
H         9.25220670       6.98372669       2.80060640          1         0.00000000       0.00000000       0.00000000
6
iter=20000 frozen=false energy=-1.26974174 energy_frozen_part=0.00000000 Lattice="15.00000000 0.00000000 0.00000000 0.00000000 15.00000000 0.00000000 0.00000000 0.00000000 15.00000000" pbc=[F, F, F] list_num_par=6 Properties=species:S:1:pos:R:3:Z:I:1:velocities:R:3
H         8.83948860       4.28356130       3.38626019          1         0.00000000       0.00000000       0.00000000
H        11.17937606       3.62705744       2.00850170          1         0.00000000       0.00000000       0.00000000
H        11.59209682       6.32722485       1.42282256          1         0.00000000       0.00000000       0.00000000
H         9.17682878       5.10245515       0.73675716          1         0.00000000       0.00000000       0.00000000
H        11.25475731       5.50833051       4.07232600          1         0.00000000       0.00000000       0.00000000
H         9.25221553       6.98373146       2.80059138          1         0.00000000       0.00000000       0.00000000
6
iter=20000 frozen=false energy=-1.26974174 energy_frozen_part=0.00000000 Lattice="15.00000000 0.00000000 0.00000000 0.00000000 15.00000000 0.00000000 0.00000000 0.00000000 15.00000000" pbc=[F, F, F] list_num_par=6 Properties=species:S:1:pos:R:3:Z:I:1:velocities:R:3
H         8.83950722       4.28355014       3.38626588          1         0.00000000       0.00000000       0.00000000
H        11.17939135       3.62708286       2.00848962          1         0.00000000       0.00000000       0.00000000
H        11.59208946       6.32726728       1.42283134          1         0.00000000       0.00000000       0.00000000
H         9.17683661       5.10246085       0.73676353          1         0.00000000       0.00000000       0.00000000
H        11.25476753       5.50834785       4.07232821          1         0.00000000       0.00000000       0.00000000
H         9.25219662       6.98372070       2.80060797          1         0.00000000       0.00000000       0.00000000
6
iter=20000 frozen=false energy=-1.26974174 energy_frozen_part=0.00000000 Lattice="15.00000000 0.00000000 0.00000000 0.00000000 15.00000000 0.00000000 0.00000000 0.00000000 15.00000000" pbc=[F, F, F] list_num_par=6 Properties=species:S:1:pos:R:3:Z:I:1:velocities:R:3
H         8.83950720       4.28358320       3.38625018          1         0.00000000       0.00000000       0.00000000
H        11.17940233       3.62705696       2.00852159          1         0.00000000       0.00000000       0.00000000
H        11.59218844       6.32722190       1.42287043          1         0.00000000       0.00000000       0.00000000
H         9.17691345       5.10248450       0.73675424          1         0.00000000       0.00000000       0.00000000
H        11.25478963       5.50830425       4.07237142          1         0.00000000       0.00000000       0.00000000
H         9.25229749       6.98375072       2.80060125          1         0.00000000       0.00000000       0.00000000
6
iter=20000 frozen=false energy=-1.26974174 energy_frozen_part=0.00000000 Lattice="15.00000000 0.00000000 0.00000000 0.00000000 15.00000000 0.00000000 0.00000000 0.00000000 15.00000000" pbc=[F, F, F] list_num_par=6 Properties=species:S:1:pos:R:3:Z:I:1:velocities:R:3
H         8.83951301       4.28355263       3.38627807          1         0.00000000       0.00000000       0.00000000
H        11.17938807       3.62708896       2.00848200          1         0.00000000       0.00000000       0.00000000
H        11.59208163       6.32726908       1.42283180          1         0.00000000       0.00000000       0.00000000
H         9.17681892       5.10246393       0.73677597          1         0.00000000       0.00000000       0.00000000
H        11.25477755       5.50833725       4.07233595          1         0.00000000       0.00000000       0.00000000
H         9.25220818       6.98372481       2.80062345          1         0.00000000       0.00000000       0.00000000
6
iter=20000 frozen=false energy=-1.26974174 energy_frozen_part=0.00000000 Lattice="15.00000000 0.00000000 0.00000000 0.00000000 15.00000000 0.00000000 0.00000000 0.00000000 15.00000000" pbc=[F, F, F] list_num_par=6 Properties=species:S:1:pos:R:3:Z:I:1:velocities:R:3
H         8.83950947       4.28354819       3.38628235          1         0.00000000       0.00000000       0.00000000
H        11.17938276       3.62706471       2.00848640          1         0.00000000       0.00000000       0.00000000
H        11.59209668       6.32723397       1.42280828          1         0.00000000       0.00000000       0.00000000
H         9.17682240       5.10244603       0.73676613          1         0.00000000       0.00000000       0.00000000
H        11.25477668       5.50832959       4.07232942          1         0.00000000       0.00000000       0.00000000
H         9.25222446       6.98371924       2.80059688          1         0.00000000       0.00000000       0.00000000
6
iter=20000 frozen=false energy=-1.26974174 energy_frozen_part=0.00000000 Lattice="15.00000000 0.00000000 0.00000000 0.00000000 15.00000000 0.00000000 0.00000000 0.00000000 15.00000000" pbc=[F, F, F] list_num_par=6 Properties=species:S:1:pos:R:3:Z:I:1:velocities:R:3
H         8.83945850       4.28335677       3.38606869          1         0.00000000       0.00000000       0.00000000
H        11.17953377       3.62720200       2.00845413          1         0.00000000       0.00000000       0.00000000
H        11.59210989       6.32747743       1.42314544          1         0.00000000       0.00000000       0.00000000
H         9.17699463       5.10260258       0.73670177          1         0.00000000       0.00000000       0.00000000
H        11.25457120       5.50823455       4.07252155          1         0.00000000       0.00000000       0.00000000
H         9.25204840       6.98363502       2.80076732          1         0.00000000       0.00000000       0.00000000
6
iter=20000 frozen=false energy=-1.26974174 energy_frozen_part=0.00000000 Lattice="15.00000000 0.00000000 0.00000000 0.00000000 15.00000000 0.00000000 0.00000000 0.00000000 15.00000000" pbc=[F, F, F] list_num_par=6 Properties=species:S:1:pos:R:3:Z:I:1:velocities:R:3
H         8.83946998       4.28358275       3.38618441          1         0.00000000       0.00000000       0.00000000
H        11.17938221       3.62705886       2.00846693          1         0.00000000       0.00000000       0.00000000
H        11.59218317       6.32723090       1.42285696          1         0.00000000       0.00000000       0.00000000
H         9.17691540       5.10252365       0.73669653          1         0.00000000       0.00000000       0.00000000
H        11.25475231       5.50829060       4.07233323          1         0.00000000       0.00000000       0.00000000
H         9.25227424       6.98375316       2.80057011          1         0.00000000       0.00000000       0.00000000
6
iter=20000 frozen=false energy=-1.26974174 energy_frozen_part=0.00000000 Lattice="15.00000000 0.00000000 0.00000000 0.00000000 15.00000000 0.00000000 0.00000000 0.00000000 15.00000000" pbc=[F, F, F] list_num_par=6 Properties=species:S:1:pos:R:3:Z:I:1:velocities:R:3
H         8.83948920       4.28361361       3.38620381          1         0.00000000       0.00000000       0.00000000
H        11.17938123       3.62701375       2.00850081          1         0.00000000       0.00000000       0.00000000
H        11.59228152       6.32716893       1.42289856          1         0.00000000       0.00000000       0.00000000
H         9.17696870       5.10254399       0.73671760          1         0.00000000       0.00000000       0.00000000
H        11.25479462       5.50824913       4.07238177          1         0.00000000       0.00000000       0.00000000
H         9.25237564       6.98377274       2.80058763          1         0.00000000       0.00000000       0.00000000
6
iter=20000 frozen=false energy=-1.26974174 energy_frozen_part=0.00000000 Lattice="15.00000000 0.00000000 0.00000000 0.00000000 15.00000000 0.00000000 0.00000000 0.00000000 15.00000000" pbc=[F, F, F] list_num_par=6 Properties=species:S:1:pos:R:3:Z:I:1:velocities:R:3
H         8.83951688       4.28355345       3.38621037          1         0.00000000       0.00000000       0.00000000
H        11.17940183       3.62699251       2.00848859          1         0.00000000       0.00000000       0.00000000
H        11.59225063       6.32715747       1.42287566          1         0.00000000       0.00000000       0.00000000
H         9.17694574       5.10249989       0.73673329          1         0.00000000       0.00000000       0.00000000
H        11.25482414       5.50822603       4.07235826          1         0.00000000       0.00000000       0.00000000
H         9.25236906       6.98372895       2.80060864          1         0.00000000       0.00000000       0.00000000
6
iter=20000 frozen=false energy=-1.26974174 energy_frozen_part=0.00000000 Lattice="15.00000000 0.00000000 0.00000000 0.00000000 15.00000000 0.00000000 0.00000000 0.00000000 15.00000000" pbc=[F, F, F] list_num_par=6 Properties=species:S:1:pos:R:3:Z:I:1:velocities:R:3
H         8.83946060       4.28336226       3.38607026          1         0.00000000       0.00000000       0.00000000
H        11.17951346       3.62719237       2.00844339          1         0.00000000       0.00000000       0.00000000
H        11.59210634       6.32746128       1.42313908          1         0.00000000       0.00000000       0.00000000
H         9.17699408       5.10259642       0.73669306          1         0.00000000       0.00000000       0.00000000
H        11.25457382       5.50823180       4.07251746          1         0.00000000       0.00000000       0.00000000
H         9.25204416       6.98363407       2.80075668          1         0.00000000       0.00000000       0.00000000
6
iter=20000 frozen=false energy=-1.26974174 energy_frozen_part=0.00000000 Lattice="15.00000000 0.00000000 0.00000000 0.00000000 15.00000000 0.00000000 0.00000000 0.00000000 15.00000000" pbc=[F, F, F] list_num_par=6 Properties=species:S:1:pos:R:3:Z:I:1:velocities:R:3
H         8.83966884       4.28327723       3.38614415          1         0.00000000       0.00000000       0.00000000
H        11.17989906       3.62720830       2.00875477          1         0.00000000       0.00000000       0.00000000
H        11.59223038       6.32746278       1.42316293          1         0.00000000       0.00000000       0.00000000
H         9.17729855       5.10224876       0.73669990          1         0.00000000       0.00000000       0.00000000
H        11.25459734       5.50849503       4.07261134          1         0.00000000       0.00000000       0.00000000
H         9.25199413       6.98352978       2.80055661          1         0.00000000       0.00000000       0.00000000
6
iter=20000 frozen=false energy=-1.26974174 energy_frozen_part=0.00000000 Lattice="15.00000000 0.00000000 0.00000000 0.00000000 15.00000000 0.00000000 0.00000000 0.00000000 15.00000000" pbc=[F, F, F] list_num_par=6 Properties=species:S:1:pos:R:3:Z:I:1:velocities:R:3
H         8.83966044       4.28325185       3.38612855          1         0.00000000       0.00000000       0.00000000
H        11.17989243       3.62723589       2.00873730          1         0.00000000       0.00000000       0.00000000
H        11.59218190       6.32749709       1.42316377          1         0.00000000       0.00000000       0.00000000
H         9.17726767       5.10225046       0.73668307          1         0.00000000       0.00000000       0.00000000
H        11.25458079       5.50849115       4.07260953          1         0.00000000       0.00000000       0.00000000
H         9.25195507       6.98351459       2.80056165          1         0.00000000       0.00000000       0.00000000
6
iter=20000 frozen=false energy=-1.26974174 energy_frozen_part=0.00000000 Lattice="15.00000000 0.00000000 0.00000000 0.00000000 15.00000000 0.00000000 0.00000000 0.00000000 15.00000000" pbc=[F, F, F] list_num_par=6 Properties=species:S:1:pos:R:3:Z:I:1:velocities:R:3
H         8.83945343       4.28337777       3.38607203          1         0.00000000       0.00000000       0.00000000
H        11.17951781       3.62721284       2.00845363          1         0.00000000       0.00000000       0.00000000
H        11.59211343       6.32748202       1.42315030          1         0.00000000       0.00000000       0.00000000
H         9.17699019       5.10262347       0.73669631          1         0.00000000       0.00000000       0.00000000
H        11.25456749       5.50823622       4.07253002          1         0.00000000       0.00000000       0.00000000
H         9.25205744       6.98364501       2.80076605          1         0.00000000       0.00000000       0.00000000
6
iter=20000 frozen=false energy=-1.26974174 energy_frozen_part=0.00000000 Lattice="15.00000000 0.00000000 0.00000000 0.00000000 15.00000000 0.00000000 0.00000000 0.00000000 15.00000000" pbc=[F, F, F] list_num_par=6 Properties=species:S:1:pos:R:3:Z:I:1:velocities:R:3
H         8.83955771       4.28358620       3.38635266          1         0.00000000       0.00000000       0.00000000
H        11.17940752       3.62705853       2.00854756          1         0.00000000       0.00000000       0.00000000
H        11.59206880       6.32720574       1.42272147          1         0.00000000       0.00000000       0.00000000
H         9.17680148       5.10236298       0.73679788          1         0.00000000       0.00000000       0.00000000
H        11.25482209       5.50843601       4.07228679          1         0.00000000       0.00000000       0.00000000
H         9.25222075       6.98374309       2.80052775          1         0.00000000       0.00000000       0.00000000
6
iter=20000 frozen=false energy=-1.26974174 energy_frozen_part=0.00000000 Lattice="15.00000000 0.00000000 0.00000000 0.00000000 15.00000000 0.00000000 0.00000000 0.00000000 15.00000000" pbc=[F, F, F] list_num_par=6 Properties=species:S:1:pos:R:3:Z:I:1:velocities:R:3
H         8.83948714       4.28355567       3.38625901          1         0.00000000       0.00000000       0.00000000
H        11.17940030       3.62707304       2.00851976          1         0.00000000       0.00000000       0.00000000
H        11.59209255       6.32724591       1.42283306          1         0.00000000       0.00000000       0.00000000
H         9.17684796       5.10242997       0.73675301          1         0.00000000       0.00000000       0.00000000
H        11.25474246       5.50835972       4.07233680          1         0.00000000       0.00000000       0.00000000
H         9.25219346       6.98372395       2.80057292          1         0.00000000       0.00000000       0.00000000
6
iter=20000 frozen=false energy=-1.26974174 energy_frozen_part=0.00000000 Lattice="15.00000000 0.00000000 0.00000000 0.00000000 15.00000000 0.00000000 0.00000000 0.00000000 15.00000000" pbc=[F, F, F] list_num_par=6 Properties=species:S:1:pos:R:3:Z:I:1:velocities:R:3
H         8.83947313       4.28337004       3.38608726          1         0.00000000       0.00000000       0.00000000
H        11.17952974       3.62720185       2.00845686          1         0.00000000       0.00000000       0.00000000
H        11.59211328       6.32746599       1.42313947          1         0.00000000       0.00000000       0.00000000
H         9.17699604       5.10260068       0.73670920          1         0.00000000       0.00000000       0.00000000
H        11.25458487       5.50822962       4.07251816          1         0.00000000       0.00000000       0.00000000
H         9.25205910       6.98363599       2.80076685          1         0.00000000       0.00000000       0.00000000
6
iter=20000 frozen=false energy=-1.26974174 energy_frozen_part=0.00000000 Lattice="15.00000000 0.00000000 0.00000000 0.00000000 15.00000000 0.00000000 0.00000000 0.00000000 15.00000000" pbc=[F, F, F] list_num_par=6 Properties=species:S:1:pos:R:3:Z:I:1:velocities:R:3
H         8.83935563       4.28329594       3.38592327          1         0.00000000       0.00000000       0.00000000
H        11.17949236       3.62710323       2.00844860          1         0.00000000       0.00000000       0.00000000
H        11.59219760       6.32737554       1.42324509          1         0.00000000       0.00000000       0.00000000
H         9.17709069       5.10261026       0.73660208          1         0.00000000       0.00000000       0.00000000
H        11.25446484       5.50806980       4.07257789          1         0.00000000       0.00000000       0.00000000
H         9.25206977       6.98357017       2.80073737          1         0.00000000       0.00000000       0.00000000
6
iter=20000 frozen=false energy=-1.26974174 energy_frozen_part=0.00000000 Lattice="15.00000000 0.00000000 0.00000000 0.00000000 15.00000000 0.00000000 0.00000000 0.00000000 15.00000000" pbc=[F, F, F] list_num_par=6 Properties=species:S:1:pos:R:3:Z:I:1:velocities:R:3
H         8.83949870       4.28356514       3.38622247          1         0.00000000       0.00000000       0.00000000
H        11.17939409       3.62705747       2.00847444          1         0.00000000       0.00000000       0.00000000
H        11.59215222       6.32723753       1.42285714          1         0.00000000       0.00000000       0.00000000
H         9.17687698       5.10250088       0.73673319          1         0.00000000       0.00000000       0.00000000
H        11.25477348       5.50829733       4.07234260          1         0.00000000       0.00000000       0.00000000
H         9.25225705       6.98373586       2.80059966          1         0.00000000       0.00000000       0.00000000
6
iter=20000 frozen=false energy=-1.26974174 energy_frozen_part=0.00000000 Lattice="15.00000000 0.00000000 0.00000000 0.00000000 15.00000000 0.00000000 0.00000000 0.00000000 15.00000000" pbc=[F, F, F] list_num_par=6 Properties=species:S:1:pos:R:3:Z:I:1:velocities:R:3
H         8.83951518       4.28352784       3.38620411          1         0.00000000       0.00000000       0.00000000
H        11.17941171       3.62707552       2.00843073          1         0.00000000       0.00000000       0.00000000
H        11.59211492       6.32726343       1.42280891          1         0.00000000       0.00000000       0.00000000
H         9.17685218       5.10248243       0.73672188          1         0.00000000       0.00000000       0.00000000
H        11.25477364       5.50830358       4.07230650          1         0.00000000       0.00000000       0.00000000
H         9.25223378       6.98371568       2.80059257          1         0.00000000       0.00000000       0.00000000
6
iter=20000 frozen=false energy=-1.26974174 energy_frozen_part=0.00000000 Lattice="15.00000000 0.00000000 0.00000000 0.00000000 15.00000000 0.00000000 0.00000000 0.00000000 15.00000000" pbc=[F, F, F] list_num_par=6 Properties=species:S:1:pos:R:3:Z:I:1:velocities:R:3
H         8.83954501       4.28348199       3.38612305          1         0.00000000       0.00000000       0.00000000
H        11.17950798       3.62713697       2.00840748          1         0.00000000       0.00000000       0.00000000
H        11.59218200       6.32735530       1.42292060          1         0.00000000       0.00000000       0.00000000
H         9.17697459       5.10256333       0.73668342          1         0.00000000       0.00000000       0.00000000
H        11.25475950       5.50827825       4.07237008          1         0.00000000       0.00000000       0.00000000
H         9.25222806       6.98369671       2.80064720          1         0.00000000       0.00000000       0.00000000
6
iter=20000 frozen=false energy=-1.26974174 energy_frozen_part=0.00000000 Lattice="15.00000000 0.00000000 0.00000000 0.00000000 15.00000000 0.00000000 0.00000000 0.00000000 15.00000000" pbc=[F, F, F] list_num_par=6 Properties=species:S:1:pos:R:3:Z:I:1:velocities:R:3
H         8.83949719       4.28360908       3.38620981          1         0.00000000       0.00000000       0.00000000
H        11.17938319       3.62700091       2.00851213          1         0.00000000       0.00000000       0.00000000
H        11.59228405       6.32715484       1.42288887          1         0.00000000       0.00000000       0.00000000
H         9.17696800       5.10253199       0.73672433          1         0.00000000       0.00000000       0.00000000
H        11.25481549       5.50824292       4.07237659          1         0.00000000       0.00000000       0.00000000
H         9.25239923       6.98376486       2.80058313          1         0.00000000       0.00000000       0.00000000
6
iter=20000 frozen=false energy=-1.26974174 energy_frozen_part=0.00000000 Lattice="15.00000000 0.00000000 0.00000000 0.00000000 15.00000000 0.00000000 0.00000000 0.00000000 15.00000000" pbc=[F, F, F] list_num_par=6 Properties=species:S:1:pos:R:3:Z:I:1:velocities:R:3
H         8.83950103       4.28359615       3.38626951          1         0.00000000       0.00000000       0.00000000
H        11.17935265       3.62698657       2.00849703          1         0.00000000       0.00000000       0.00000000
H        11.59225489       6.32714160       1.42289285          1         0.00000000       0.00000000       0.00000000
H         9.17690480       5.10253687       0.73677770          1         0.00000000       0.00000000       0.00000000
H        11.25483602       5.50821029       4.07237644          1         0.00000000       0.00000000       0.00000000
H         9.25240226       6.98375921       2.80065265          1         0.00000000       0.00000000       0.00000000
6
iter=20000 frozen=false energy=-1.26974174 energy_frozen_part=0.00000000 Lattice="15.00000000 0.00000000 0.00000000 0.00000000 15.00000000 0.00000000 0.00000000 0.00000000 15.00000000" pbc=[F, F, F] list_num_par=6 Properties=species:S:1:pos:R:3:Z:I:1:velocities:R:3
H         8.83954283       4.28356007       3.38629178          1         0.00000000       0.00000000       0.00000000
H        11.17939261       3.62705073       2.00846802          1         0.00000000       0.00000000       0.00000000
H        11.59212539       6.32721753       1.42278194          1         0.00000000       0.00000000       0.00000000
H         9.17683183       5.10245131       0.73677672          1         0.00000000       0.00000000       0.00000000
H        11.25483270       5.50832598       4.07230434          1         0.00000000       0.00000000       0.00000000
H         9.25227707       6.98372219       2.80059956          1         0.00000000       0.00000000       0.00000000
6
iter=20000 frozen=false energy=-1.26974174 energy_frozen_part=0.00000000 Lattice="15.00000000 0.00000000 0.00000000 0.00000000 15.00000000 0.00000000 0.00000000 0.00000000 15.00000000" pbc=[F, F, F] list_num_par=6 Properties=species:S:1:pos:R:3:Z:I:1:velocities:R:3
H         8.83952843       4.28361482       3.38624546          1         0.00000000       0.00000000       0.00000000
H        11.17939649       3.62705952       2.00847561          1         0.00000000       0.00000000       0.00000000
H        11.59217824       6.32722837       1.42279615          1         0.00000000       0.00000000       0.00000000
H         9.17688056       5.10249457       0.73674239          1         0.00000000       0.00000000       0.00000000
H        11.25482012       5.50834448       4.07229965          1         0.00000000       0.00000000       0.00000000
H         9.25231150       6.98378081       2.80056011          1         0.00000000       0.00000000       0.00000000
6
iter=20000 frozen=false energy=-1.26974174 energy_frozen_part=0.00000000 Lattice="15.00000000 0.00000000 0.00000000 0.00000000 15.00000000 0.00000000 0.00000000 0.00000000 15.00000000" pbc=[F, F, F] list_num_par=6 Properties=species:S:1:pos:R:3:Z:I:1:velocities:R:3
H         8.83936796       4.28326295       3.38594764          1         0.00000000       0.00000000       0.00000000
H        11.17950233       3.62712235       2.00844963          1         0.00000000       0.00000000       0.00000000
H        11.59217955       6.32742047       1.42328349          1         0.00000000       0.00000000       0.00000000
H         9.17709105       5.10261273       0.73662796          1         0.00000000       0.00000000       0.00000000
H        11.25445721       5.50806476       4.07259801          1         0.00000000       0.00000000       0.00000000
H         9.25203193       6.98355809       2.80078087          1         0.00000000       0.00000000       0.00000000
6
iter=20000 frozen=false energy=-1.26974174 energy_frozen_part=0.00000000 Lattice="15.00000000 0.00000000 0.00000000 0.00000000 15.00000000 0.00000000 0.00000000 0.00000000 15.00000000" pbc=[F, F, F] list_num_par=6 Properties=species:S:1:pos:R:3:Z:I:1:velocities:R:3
H         8.83937510       4.28327969       3.38595283          1         0.00000000       0.00000000       0.00000000
H        11.17950482       3.62712080       2.00844424          1         0.00000000       0.00000000       0.00000000
H        11.59217652       6.32740220       1.42325719          1         0.00000000       0.00000000       0.00000000
H         9.17708248       5.10260631       0.73662347          1         0.00000000       0.00000000       0.00000000
H        11.25446981       5.50806488       4.07259348          1         0.00000000       0.00000000       0.00000000
H         9.25205360       6.98356323       2.80076889          1         0.00000000       0.00000000       0.00000000
6
iter=20000 frozen=false energy=-1.26974174 energy_frozen_part=0.00000000 Lattice="15.00000000 0.00000000 0.00000000 0.00000000 15.00000000 0.00000000 0.00000000 0.00000000 15.00000000" pbc=[F, F, F] list_num_par=6 Properties=species:S:1:pos:R:3:Z:I:1:velocities:R:3
H         8.83968579       4.28324081       3.38611549          1         0.00000000       0.00000000       0.00000000
H        11.17990306       3.62718052       2.00872424          1         0.00000000       0.00000000       0.00000000
H        11.59223380       6.32743218       1.42313159          1         0.00000000       0.00000000       0.00000000
H         9.17730077       5.10221523       0.73667581          1         0.00000000       0.00000000       0.00000000
H        11.25461890       5.50845572       4.07258305          1         0.00000000       0.00000000       0.00000000
H         9.25201224       6.98349575       2.80053123          1         0.00000000       0.00000000       0.00000000
6
iter=20000 frozen=false energy=-1.26974174 energy_frozen_part=0.00000000 Lattice="15.00000000 0.00000000 0.00000000 0.00000000 15.00000000 0.00000000 0.00000000 0.00000000 15.00000000" pbc=[F, F, F] list_num_par=6 Properties=species:S:1:pos:R:3:Z:I:1:velocities:R:3
H         8.83952915       4.28355177       3.38627935          1         0.00000000       0.00000000       0.00000000
H        11.17939248       3.62708191       2.00847453          1         0.00000000       0.00000000       0.00000000
H        11.59207733       6.32726028       1.42279625          1         0.00000000       0.00000000       0.00000000
H         9.17681578       5.10246140       0.73676652          1         0.00000000       0.00000000       0.00000000
H        11.25479013       5.50835629       4.07231549          1         0.00000000       0.00000000       0.00000000
H         9.25220601       6.98372821       2.80059963          1         0.00000000       0.00000000       0.00000000
6
iter=20000 frozen=false energy=-1.26974174 energy_frozen_part=0.00000000 Lattice="15.00000000 0.00000000 0.00000000 0.00000000 15.00000000 0.00000000 0.00000000 0.00000000 15.00000000" pbc=[F, F, F] list_num_par=6 Properties=species:S:1:pos:R:3:Z:I:1:velocities:R:3
H         8.83937157       4.28327509       3.38592935          1         0.00000000       0.00000000       0.00000000
H        11.17950823       3.62710853       2.00843817          1         0.00000000       0.00000000       0.00000000
H        11.59219408       6.32740081       1.42324848          1         0.00000000       0.00000000       0.00000000
H         9.17710333       5.10260963       0.73660390          1         0.00000000       0.00000000       0.00000000
H        11.25446771       5.50807192       4.07257539          1         0.00000000       0.00000000       0.00000000
H         9.25205395       6.98355971       2.80073747          1         0.00000000       0.00000000       0.00000000
6
iter=20000 frozen=false energy=-1.26974174 energy_frozen_part=0.00000000 Lattice="15.00000000 0.00000000 0.00000000 0.00000000 15.00000000 0.00000000 0.00000000 0.00000000 15.00000000" pbc=[F, F, F] list_num_par=6 Properties=species:S:1:pos:R:3:Z:I:1:velocities:R:3
H         8.83954359       4.28359838       3.38634029          1         0.00000000       0.00000000       0.00000000
H        11.17939168       3.62704771       2.00854835          1         0.00000000       0.00000000       0.00000000
H        11.59208171       6.32717917       1.42270600          1         0.00000000       0.00000000       0.00000000
H         9.17680320       5.10235725       0.73677794          1         0.00000000       0.00000000       0.00000000
H        11.25482433       5.50842859       4.07227712          1         0.00000000       0.00000000       0.00000000
H         9.25224234       6.98374127       2.80051072          1         0.00000000       0.00000000       0.00000000
6
iter=20000 frozen=false energy=-1.26974174 energy_frozen_part=0.00000000 Lattice="15.00000000 0.00000000 0.00000000 0.00000000 15.00000000 0.00000000 0.00000000 0.00000000 15.00000000" pbc=[F, F, F] list_num_par=6 Properties=species:S:1:pos:R:3:Z:I:1:velocities:R:3
H         8.83937735       4.28325915       3.38594791          1         0.00000000       0.00000000       0.00000000
H        11.17951059       3.62711428       2.00843901          1         0.00000000       0.00000000       0.00000000
H        11.59217813       6.32740281       1.42326656          1         0.00000000       0.00000000       0.00000000
H         9.17708115       5.10259292       0.73662072          1         0.00000000       0.00000000       0.00000000
H        11.25446878       5.50806635       4.07258974          1         0.00000000       0.00000000       0.00000000
H         9.25203231       6.98354152       2.80076651          1         0.00000000       0.00000000       0.00000000
6
iter=20000 frozen=false energy=-1.26974174 energy_frozen_part=0.00000000 Lattice="15.00000000 0.00000000 0.00000000 0.00000000 15.00000000 0.00000000 0.00000000 0.00000000 15.00000000" pbc=[F, F, F] list_num_par=6 Properties=species:S:1:pos:R:3:Z:I:1:velocities:R:3
H         8.83951176       4.28360388       3.38623957          1         0.00000000       0.00000000       0.00000000
H        11.17940619       3.62706715       2.00851456          1         0.00000000       0.00000000       0.00000000
H        11.59219678       6.32723278       1.42287354          1         0.00000000       0.00000000       0.00000000
H         9.17691925       5.10251187       0.73674652          1         0.00000000       0.00000000       0.00000000
H        11.25478185       5.50832632       4.07236701          1         0.00000000       0.00000000       0.00000000
H         9.25230708       6.98377877       2.80059223          1         0.00000000       0.00000000       0.00000000
6
iter=20000 frozen=false energy=-1.26974174 energy_frozen_part=0.00000000 Lattice="15.00000000 0.00000000 0.00000000 0.00000000 15.00000000 0.00000000 0.00000000 0.00000000 15.00000000" pbc=[F, F, F] list_num_par=6 Properties=species:S:1:pos:R:3:Z:I:1:velocities:R:3
H         8.83272183       4.24819960       3.32804719          1         0.00000000       0.00000000       0.00000000
H        11.13483361       3.64306309       1.86573042          1         0.00000000       0.00000000       0.00000000
H        11.59149839       6.36859935       1.45676948          1         0.00000000       0.00000000       0.00000000
H         9.14065610       5.23912538       0.73430737          1         0.00000000       0.00000000       0.00000000
H        11.28356734       5.37766755       4.05052037          1         0.00000000       0.00000000       0.00000000
H         9.28939056       6.97372842       2.91909511          1         0.00000000       0.00000000       0.00000000
6
iter=20000 frozen=false energy=-1.26974174 energy_frozen_part=0.00000000 Lattice="15.00000000 0.00000000 0.00000000 0.00000000 15.00000000 0.00000000 0.00000000 0.00000000 15.00000000" pbc=[F, F, F] list_num_par=6 Properties=species:S:1:pos:R:3:Z:I:1:velocities:R:3
H         8.83949805       4.28355647       3.38619620          1         0.00000000       0.00000000       0.00000000
H        11.17939297       3.62698041       2.00848252          1         0.00000000       0.00000000       0.00000000
H        11.59225487       6.32714659       1.42284885          1         0.00000000       0.00000000       0.00000000
H         9.17695126       5.10247643       0.73670401          1         0.00000000       0.00000000       0.00000000
H        11.25479171       5.50822677       4.07234179          1         0.00000000       0.00000000       0.00000000
H         9.25235522       6.98372129       2.80056101          1         0.00000000       0.00000000       0.00000000
6
iter=20000 frozen=false energy=-1.26974174 energy_frozen_part=0.00000000 Lattice="15.00000000 0.00000000 0.00000000 0.00000000 15.00000000 0.00000000 0.00000000 0.00000000 15.00000000" pbc=[F, F, F] list_num_par=6 Properties=species:S:1:pos:R:3:Z:I:1:velocities:R:3
H         8.83947261       4.28356012       3.38618094          1         0.00000000       0.00000000       0.00000000
H        11.17937359       3.62698317       2.00848216          1         0.00000000       0.00000000       0.00000000
H        11.59225760       6.32714290       1.42287476          1         0.00000000       0.00000000       0.00000000
H         9.17695883       5.10250119       0.73670115          1         0.00000000       0.00000000       0.00000000
H        11.25478496       5.50820954       4.07235359          1         0.00000000       0.00000000       0.00000000
H         9.25235619       6.98372532       2.80057900          1         0.00000000       0.00000000       0.00000000
6
iter=20000 frozen=false energy=-1.26974174 energy_frozen_part=0.00000000 Lattice="15.00000000 0.00000000 0.00000000 0.00000000 15.00000000 0.00000000 0.00000000 0.00000000 15.00000000" pbc=[F, F, F] list_num_par=6 Properties=species:S:1:pos:R:3:Z:I:1:velocities:R:3
H         8.83952705       4.28355323       3.38625709          1         0.00000000       0.00000000       0.00000000
H        11.17940480       3.62709097       2.00846928          1         0.00000000       0.00000000       0.00000000
H        11.59210331       6.32726858       1.42281937          1         0.00000000       0.00000000       0.00000000
H         9.17683948       5.10247991       0.73675085          1         0.00000000       0.00000000       0.00000000
H        11.25478463       5.50834658       4.07232390          1         0.00000000       0.00000000       0.00000000
H         9.25223322       6.98373186       2.80060581          1         0.00000000       0.00000000       0.00000000
6
iter=20000 frozen=false energy=-1.26974174 energy_frozen_part=0.00000000 Lattice="15.00000000 0.00000000 0.00000000 0.00000000 15.00000000 0.00000000 0.00000000 0.00000000 15.00000000" pbc=[F, F, F] list_num_par=6 Properties=species:S:1:pos:R:3:Z:I:1:velocities:R:3
H         8.83951467       4.28353393       3.38621564          1         0.00000000       0.00000000       0.00000000
H        11.17940873       3.62708172       2.00844197          1         0.00000000       0.00000000       0.00000000
H        11.59210768       6.32725494       1.42281156          1         0.00000000       0.00000000       0.00000000
H         9.17684490       5.10247189       0.73672135          1         0.00000000       0.00000000       0.00000000
H        11.25476860       5.50832275       4.07230542          1         0.00000000       0.00000000       0.00000000
H         9.25222009       6.98371867       2.80058289          1         0.00000000       0.00000000       0.00000000
6
iter=20000 frozen=false energy=-1.26974174 energy_frozen_part=0.00000000 Lattice="15.00000000 0.00000000 0.00000000 0.00000000 15.00000000 0.00000000 0.00000000 0.00000000 15.00000000" pbc=[F, F, F] list_num_par=6 Properties=species:S:1:pos:R:3:Z:I:1:velocities:R:3
H         8.83272634       4.24821042       3.32805209          1         0.00000000       0.00000000       0.00000000
H        11.13482592       3.64307673       1.86572604          1         0.00000000       0.00000000       0.00000000
H        11.59148531       6.36860447       1.45677535          1         0.00000000       0.00000000       0.00000000
H         9.14064357       5.23914349       0.73430503          1         0.00000000       0.00000000       0.00000000
H        11.28357023       5.37767021       4.05052681          1         0.00000000       0.00000000       0.00000000
H         9.28938215       6.97373580       2.91910083          1         0.00000000       0.00000000       0.00000000
6
iter=20000 frozen=false energy=-1.26974174 energy_frozen_part=0.00000000 Lattice="15.00000000 0.00000000 0.00000000 0.00000000 15.00000000 0.00000000 0.00000000 0.00000000 15.00000000" pbc=[F, F, F] list_num_par=6 Properties=species:S:1:pos:R:3:Z:I:1:velocities:R:3
H         8.83964324       4.28325064       3.38614330          1         0.00000000       0.00000000       0.00000000
H        11.17987003       3.62724452       2.00873067          1         0.00000000       0.00000000       0.00000000
H        11.59216358       6.32751097       1.42318763          1         0.00000000       0.00000000       0.00000000
H         9.17724488       5.10228195       0.73670350          1         0.00000000       0.00000000       0.00000000
H        11.25456425       5.50848777       4.07261658          1         0.00000000       0.00000000       0.00000000
H         9.25192593       6.98351931       2.80058923          1         0.00000000       0.00000000       0.00000000
6
iter=20000 frozen=false energy=-1.26974174 energy_frozen_part=0.00000000 Lattice="15.00000000 0.00000000 0.00000000 0.00000000 15.00000000 0.00000000 0.00000000 0.00000000 15.00000000" pbc=[F, F, F] list_num_par=6 Properties=species:S:1:pos:R:3:Z:I:1:velocities:R:3
H         8.83951532       4.28354166       3.38624365          1         0.00000000       0.00000000       0.00000000
H        11.17938874       3.62707796       2.00845318          1         0.00000000       0.00000000       0.00000000
H        11.59210126       6.32725660       1.42281469          1         0.00000000       0.00000000       0.00000000
H         9.17684098       5.10246940       0.73673610          1         0.00000000       0.00000000       0.00000000
H        11.25477965       5.50832175       4.07230947          1         0.00000000       0.00000000       0.00000000
H         9.25222414       6.98372067       2.80059649          1         0.00000000       0.00000000       0.00000000
6
iter=20000 frozen=false energy=-1.26974174 energy_frozen_part=0.00000000 Lattice="15.00000000 0.00000000 0.00000000 0.00000000 15.00000000 0.00000000 0.00000000 0.00000000 15.00000000" pbc=[F, F, F] list_num_par=6 Properties=species:S:1:pos:R:3:Z:I:1:velocities:R:3
H         8.83936780       4.28328251       3.38592953          1         0.00000000       0.00000000       0.00000000
H        11.17950948       3.62711564       2.00844127          1         0.00000000       0.00000000       0.00000000
H        11.59219767       6.32739987       1.42324459          1         0.00000000       0.00000000       0.00000000
H         9.17709931       5.10259999       0.73660162          1         0.00000000       0.00000000       0.00000000
H        11.25446289       5.50808034       4.07257644          1         0.00000000       0.00000000       0.00000000
H         9.25204570       6.98356214       2.80072564          1         0.00000000       0.00000000       0.00000000
6
iter=20000 frozen=false energy=-1.26974174 energy_frozen_part=0.00000000 Lattice="15.00000000 0.00000000 0.00000000 0.00000000 15.00000000 0.00000000 0.00000000 0.00000000 15.00000000" pbc=[F, F, F] list_num_par=6 Properties=species:S:1:pos:R:3:Z:I:1:velocities:R:3
H         8.83950056       4.28361014       3.38625695          1         0.00000000       0.00000000       0.00000000
H        11.17935946       3.62699477       2.00849861          1         0.00000000       0.00000000       0.00000000
H        11.59226276       6.32714608       1.42288881          1         0.00000000       0.00000000       0.00000000
H         9.17692251       5.10253228       0.73677329          1         0.00000000       0.00000000       0.00000000
H        11.25484010       5.50821495       4.07238206          1         0.00000000       0.00000000       0.00000000
H         9.25240844       6.98376377       2.80064595          1         0.00000000       0.00000000       0.00000000
6
iter=20000 frozen=false energy=-1.26974174 energy_frozen_part=0.00000000 Lattice="15.00000000 0.00000000 0.00000000 0.00000000 15.00000000 0.00000000 0.00000000 0.00000000 15.00000000" pbc=[F, F, F] list_num_par=6 Properties=species:S:1:pos:R:3:Z:I:1:velocities:R:3
H         8.83951109       4.28360257       3.38623496          1         0.00000000       0.00000000       0.00000000
H        11.17941672       3.62706934       2.00852050          1         0.00000000       0.00000000       0.00000000
H        11.59219778       6.32723667       1.42288283          1         0.00000000       0.00000000       0.00000000
H         9.17693166       5.10251563       0.73674758          1         0.00000000       0.00000000       0.00000000
H        11.25477987       5.50832095       4.07237389          1         0.00000000       0.00000000       0.00000000
H         9.25230037       6.98377040       2.80059761          1         0.00000000       0.00000000       0.00000000
6
iter=20000 frozen=false energy=-1.26974174 energy_frozen_part=0.00000000 Lattice="15.00000000 0.00000000 0.00000000 0.00000000 15.00000000 0.00000000 0.00000000 0.00000000 15.00000000" pbc=[F, F, F] list_num_par=6 Properties=species:S:1:pos:R:3:Z:I:1:velocities:R:3
H         8.83272912       4.24819850       3.32804924          1         0.00000000       0.00000000       0.00000000
H        11.13483797       3.64306634       1.86573249          1         0.00000000       0.00000000       0.00000000
H        11.59150436       6.36859524       1.45678328          1         0.00000000       0.00000000       0.00000000
H         9.14066061       5.23912329       0.73430249          1         0.00000000       0.00000000       0.00000000
H        11.28357519       5.37766665       4.05052808          1         0.00000000       0.00000000       0.00000000
H         9.28939091       6.97372786       2.91909187          1         0.00000000       0.00000000       0.00000000
6
iter=20000 frozen=false energy=-1.26974174 energy_frozen_part=0.00000000 Lattice="15.00000000 0.00000000 0.00000000 0.00000000 15.00000000 0.00000000 0.00000000 0.00000000 15.00000000" pbc=[F, F, F] list_num_par=6 Properties=species:S:1:pos:R:3:Z:I:1:velocities:R:3
H         8.83952645       4.28347042       3.38611772          1         0.00000000       0.00000000       0.00000000
H        11.17947458       3.62712875       2.00839377          1         0.00000000       0.00000000       0.00000000
H        11.59214722       6.32734912       1.42291376          1         0.00000000       0.00000000       0.00000000
H         9.17693472       5.10255244       0.73668432          1         0.00000000       0.00000000       0.00000000
H        11.25473833       5.50827154       4.07236124          1         0.00000000       0.00000000       0.00000000
H         9.25220130       6.98369203       2.80064056          1         0.00000000       0.00000000       0.00000000
6
iter=20000 frozen=false energy=-1.26974174 energy_frozen_part=0.00000000 Lattice="15.00000000 0.00000000 0.00000000 0.00000000 15.00000000 0.00000000 0.00000000 0.00000000 15.00000000" pbc=[F, F, F] list_num_par=6 Properties=species:S:1:pos:R:3:Z:I:1:velocities:R:3
H         8.83953157       4.28360977       3.38628343          1         0.00000000       0.00000000       0.00000000
H        11.17941509       3.62704812       2.00855865          1         0.00000000       0.00000000       0.00000000
H        11.59221899       6.32720306       1.42287116          1         0.00000000       0.00000000       0.00000000
H         9.17693657       5.10247793       0.73677176          1         0.00000000       0.00000000       0.00000000
H        11.25482081       5.50833269       4.07237896          1         0.00000000       0.00000000       0.00000000
H         9.25232678       6.98376463       2.80058654          1         0.00000000       0.00000000       0.00000000
6
iter=20000 frozen=false energy=-1.26974174 energy_frozen_part=0.00000000 Lattice="15.00000000 0.00000000 0.00000000 0.00000000 15.00000000 0.00000000 0.00000000 0.00000000 15.00000000" pbc=[F, F, F] list_num_par=6 Properties=species:S:1:pos:R:3:Z:I:1:velocities:R:3
H         8.83962721       4.28324919       3.38612614          1         0.00000000       0.00000000       0.00000000
H        11.17987587       3.62718451       2.00876820          1         0.00000000       0.00000000       0.00000000
H        11.59221567       6.32742461       1.42317175          1         0.00000000       0.00000000       0.00000000
H         9.17728527       5.10222011       0.73668471          1         0.00000000       0.00000000       0.00000000
H        11.25455152       5.50846008       4.07261884          1         0.00000000       0.00000000       0.00000000
H         9.25197143       6.98350427       2.80052798          1         0.00000000       0.00000000       0.00000000
6
iter=20000 frozen=false energy=-1.26974174 energy_frozen_part=0.00000000 Lattice="15.00000000 0.00000000 0.00000000 0.00000000 15.00000000 0.00000000 0.00000000 0.00000000 15.00000000" pbc=[F, F, F] list_num_par=6 Properties=species:S:1:pos:R:3:Z:I:1:velocities:R:3
H         8.83956172       4.28314017       3.38608368          1         0.00000000       0.00000000       0.00000000
H        11.17980751       3.62732183       2.00859623          1         0.00000000       0.00000000       0.00000000
H        11.59200635       6.32765616       1.42328645          1         0.00000000       0.00000000       0.00000000
H         9.17712405       5.10240337       0.73672107          1         0.00000000       0.00000000       0.00000000
H        11.25444334       5.50838719       4.07265363          1         0.00000000       0.00000000       0.00000000
H         9.25176950       6.98347578       2.80077560          1         0.00000000       0.00000000       0.00000000
6
iter=20000 frozen=false energy=-1.26974174 energy_frozen_part=0.00000000 Lattice="15.00000000 0.00000000 0.00000000 0.00000000 15.00000000 0.00000000 0.00000000 0.00000000 15.00000000" pbc=[F, F, F] list_num_par=6 Properties=species:S:1:pos:R:3:Z:I:1:velocities:R:3
H         8.83950783       4.28359074       3.38626538          1         0.00000000       0.00000000       0.00000000
H        11.17935820       3.62699631       2.00848656          1         0.00000000       0.00000000       0.00000000
H        11.59223640       6.32716091       1.42287591          1         0.00000000       0.00000000       0.00000000
H         9.17690116       5.10253106       0.73678407          1         0.00000000       0.00000000       0.00000000
H        11.25484181       5.50822330       4.07236836          1         0.00000000       0.00000000       0.00000000
H         9.25238440       6.98375846       2.80064952          1         0.00000000       0.00000000       0.00000000
6
iter=20000 frozen=false energy=-1.26974174 energy_frozen_part=0.00000000 Lattice="15.00000000 0.00000000 0.00000000 0.00000000 15.00000000 0.00000000 0.00000000 0.00000000 15.00000000" pbc=[F, F, F] list_num_par=6 Properties=species:S:1:pos:R:3:Z:I:1:velocities:R:3
H         8.83943842       4.28339431       3.38607670          1         0.00000000       0.00000000       0.00000000
H        11.17949526       3.62720095       2.00846320          1         0.00000000       0.00000000       0.00000000
H        11.59210709       6.32745756       1.42313492          1         0.00000000       0.00000000       0.00000000
H         9.17697948       5.10262324       0.73670063          1         0.00000000       0.00000000       0.00000000
H        11.25456725       5.50823837       4.07251758          1         0.00000000       0.00000000       0.00000000
H         9.25205923       6.98366315       2.80076575          1         0.00000000       0.00000000       0.00000000
6
iter=20000 frozen=false energy=-1.26974174 energy_frozen_part=0.00000000 Lattice="15.00000000 0.00000000 0.00000000 0.00000000 15.00000000 0.00000000 0.00000000 0.00000000 15.00000000" pbc=[F, F, F] list_num_par=6 Properties=species:S:1:pos:R:3:Z:I:1:velocities:R:3
H         8.83966195       4.28327692       3.38621494          1         0.00000000       0.00000000       0.00000000
H        11.17985530       3.62722869       2.00876158          1         0.00000000       0.00000000       0.00000000
H        11.59214779       6.32747475       1.42315344          1         0.00000000       0.00000000       0.00000000
H         9.17720444       5.10223894       0.73674502          1         0.00000000       0.00000000       0.00000000
H        11.25459306       5.50851563       4.07261459          1         0.00000000       0.00000000       0.00000000
H         9.25195076       6.98352613       2.80059279          1         0.00000000       0.00000000       0.00000000
6
iter=20000 frozen=false energy=-1.26974174 energy_frozen_part=0.00000000 Lattice="15.00000000 0.00000000 0.00000000 0.00000000 15.00000000 0.00000000 0.00000000 0.00000000 15.00000000" pbc=[F, F, F] list_num_par=6 Properties=species:S:1:pos:R:3:Z:I:1:velocities:R:3
H         8.83953158       4.28363078       3.38625186          1         0.00000000       0.00000000       0.00000000
H        11.17939186       3.62706049       2.00847919          1         0.00000000       0.00000000       0.00000000
H        11.59219335       6.32721467       1.42277852          1         0.00000000       0.00000000       0.00000000
H         9.17688616       5.10248615       0.73672735          1         0.00000000       0.00000000       0.00000000
H        11.25483080       5.50835397       4.07230004          1         0.00000000       0.00000000       0.00000000
H         9.25232123       6.98378076       2.80053907          1         0.00000000       0.00000000       0.00000000
6
iter=20000 frozen=false energy=-1.26974174 energy_frozen_part=0.00000000 Lattice="15.00000000 0.00000000 0.00000000 0.00000000 15.00000000 0.00000000 0.00000000 0.00000000 15.00000000" pbc=[F, F, F] list_num_par=6 Properties=species:S:1:pos:R:3:Z:I:1:velocities:R:3
H         8.83947780       4.28356869       3.38618489          1         0.00000000       0.00000000       0.00000000
H        11.17938473       3.62698444       2.00850151          1         0.00000000       0.00000000       0.00000000
H        11.59226377       6.32713461       1.42288001          1         0.00000000       0.00000000       0.00000000
H         9.17696084       5.10248770       0.73669596          1         0.00000000       0.00000000       0.00000000
H        11.25477304       5.50823435       4.07236590          1         0.00000000       0.00000000       0.00000000
H         9.25235225       6.98372685       2.80055637          1         0.00000000       0.00000000       0.00000000
6
iter=20000 frozen=false energy=-1.26974174 energy_frozen_part=0.00000000 Lattice="15.00000000 0.00000000 0.00000000 0.00000000 15.00000000 0.00000000 0.00000000 0.00000000 15.00000000" pbc=[F, F, F] list_num_par=6 Properties=species:S:1:pos:R:3:Z:I:1:velocities:R:3
H         8.83968259       4.28327375       3.38619170          1         0.00000000       0.00000000       0.00000000
H        11.17987033       3.62719994       2.00874816          1         0.00000000       0.00000000       0.00000000
H        11.59221982       6.32745272       1.42318352          1         0.00000000       0.00000000       0.00000000
H         9.17726098       5.10227472       0.73674192          1         0.00000000       0.00000000       0.00000000
H        11.25463894       5.50845838       4.07262057          1         0.00000000       0.00000000       0.00000000
H         9.25202107       6.98352402       2.80061143          1         0.00000000       0.00000000       0.00000000
6
iter=20000 frozen=false energy=-1.26974174 energy_frozen_part=0.00000000 Lattice="15.00000000 0.00000000 0.00000000 0.00000000 15.00000000 0.00000000 0.00000000 0.00000000 15.00000000" pbc=[F, F, F] list_num_par=6 Properties=species:S:1:pos:R:3:Z:I:1:velocities:R:3
H         8.83953047       4.28360126       3.38625593          1         0.00000000       0.00000000       0.00000000
H        11.17943665       3.62705140       2.00855241          1         0.00000000       0.00000000       0.00000000
H        11.59222657       6.32721661       1.42288217          1         0.00000000       0.00000000       0.00000000
H         9.17695926       5.10248116       0.73675316          1         0.00000000       0.00000000       0.00000000
H        11.25480901       5.50833063       4.07237958          1         0.00000000       0.00000000       0.00000000
H         9.25231806       6.98375487       2.80059470          1         0.00000000       0.00000000       0.00000000
6
iter=20000 frozen=false energy=-1.26974174 energy_frozen_part=0.00000000 Lattice="15.00000000 0.00000000 0.00000000 0.00000000 15.00000000 0.00000000 0.00000000 0.00000000 15.00000000" pbc=[F, F, F] list_num_par=6 Properties=species:S:1:pos:R:3:Z:I:1:velocities:R:3
H         8.83950318       4.28358248       3.38627807          1         0.00000000       0.00000000       0.00000000
H        11.17934884       3.62698323       2.00850642          1         0.00000000       0.00000000       0.00000000
H        11.59223432       6.32714519       1.42288097          1         0.00000000       0.00000000       0.00000000
H         9.17690027       5.10251114       0.73678149          1         0.00000000       0.00000000       0.00000000
H        11.25483342       5.50821647       4.07236932          1         0.00000000       0.00000000       0.00000000
H         9.25238535       6.98374205       2.80064479          1         0.00000000       0.00000000       0.00000000
6
iter=20000 frozen=false energy=-1.26974174 energy_frozen_part=0.00000000 Lattice="15.00000000 0.00000000 0.00000000 0.00000000 15.00000000 0.00000000 0.00000000 0.00000000 15.00000000" pbc=[F, F, F] list_num_par=6 Properties=species:S:1:pos:R:3:Z:I:1:velocities:R:3
H         8.83949771       4.28356395       3.38619509          1         0.00000000       0.00000000       0.00000000
H        11.17938894       3.62698072       2.00848873          1         0.00000000       0.00000000       0.00000000
H        11.59224883       6.32713929       1.42285598          1         0.00000000       0.00000000       0.00000000
H         9.17695207       5.10247093       0.73670492          1         0.00000000       0.00000000       0.00000000
H        11.25480330       5.50822975       4.07234369          1         0.00000000       0.00000000       0.00000000
H         9.25235579       6.98372886       2.80056627          1         0.00000000       0.00000000       0.00000000
6
iter=20000 frozen=false energy=-1.26974174 energy_frozen_part=0.00000000 Lattice="15.00000000 0.00000000 0.00000000 0.00000000 15.00000000 0.00000000 0.00000000 0.00000000 15.00000000" pbc=[F, F, F] list_num_par=6 Properties=species:S:1:pos:R:3:Z:I:1:velocities:R:3
H         8.83950551       4.28359568       3.38624840          1         0.00000000       0.00000000       0.00000000
H        11.17936591       3.62699920       2.00850056          1         0.00000000       0.00000000       0.00000000
H        11.59228311       6.32716303       1.42292659          1         0.00000000       0.00000000       0.00000000
H         9.17695085       5.10256724       0.73676961          1         0.00000000       0.00000000       0.00000000
H        11.25482980       5.50820270       4.07240330          1         0.00000000       0.00000000       0.00000000
H         9.25241089       6.98376745       2.80066852          1         0.00000000       0.00000000       0.00000000
6
iter=20000 frozen=false energy=-1.26974174 energy_frozen_part=0.00000000 Lattice="15.00000000 0.00000000 0.00000000 0.00000000 15.00000000 0.00000000 0.00000000 0.00000000 15.00000000" pbc=[F, F, F] list_num_par=6 Properties=species:S:1:pos:R:3:Z:I:1:velocities:R:3
H         8.83948333       4.28358966       3.38618761          1         0.00000000       0.00000000       0.00000000
H        11.17938139       3.62705840       2.00846364          1         0.00000000       0.00000000       0.00000000
H        11.59219049       6.32723473       1.42286090          1         0.00000000       0.00000000       0.00000000
H         9.17691918       5.10253238       0.73670061          1         0.00000000       0.00000000       0.00000000
H        11.25476586       5.50828998       4.07234034          1         0.00000000       0.00000000       0.00000000
H         9.25228966       6.98376126       2.80058738          1         0.00000000       0.00000000       0.00000000
6
iter=20000 frozen=false energy=-1.26974174 energy_frozen_part=0.00000000 Lattice="15.00000000 0.00000000 0.00000000 0.00000000 15.00000000 0.00000000 0.00000000 0.00000000 15.00000000" pbc=[F, F, F] list_num_par=6 Properties=species:S:1:pos:R:3:Z:I:1:velocities:R:3
H         8.83952930       4.28360363       3.38626638          1         0.00000000       0.00000000       0.00000000
H        11.17941265       3.62705004       2.00852953          1         0.00000000       0.00000000       0.00000000
H        11.59220139       6.32721192       1.42286308          1         0.00000000       0.00000000       0.00000000
H         9.17692145       5.10248913       0.73676131          1         0.00000000       0.00000000       0.00000000
H        11.25480382       5.50832196       4.07236987          1         0.00000000       0.00000000       0.00000000
H         9.25231423       6.98376666       2.80059669          1         0.00000000       0.00000000       0.00000000
6
iter=20000 frozen=false energy=-1.26974174 energy_frozen_part=0.00000000 Lattice="15.00000000 0.00000000 0.00000000 0.00000000 15.00000000 0.00000000 0.00000000 0.00000000 15.00000000" pbc=[F, F, F] list_num_par=6 Properties=species:S:1:pos:R:3:Z:I:1:velocities:R:3
H         8.83943856       4.28337695       3.38606743          1         0.00000000       0.00000000       0.00000000
H        11.17951253       3.62720430       2.00845906          1         0.00000000       0.00000000       0.00000000
H        11.59210841       6.32747355       1.42313873          1         0.00000000       0.00000000       0.00000000
H         9.17698896       5.10260316       0.73668830          1         0.00000000       0.00000000       0.00000000
H        11.25454741       5.50824327       4.07252264          1         0.00000000       0.00000000       0.00000000
H         9.25204127       6.98364555       2.80074976          1         0.00000000       0.00000000       0.00000000
6
iter=20000 frozen=false energy=-1.26974174 energy_frozen_part=0.00000000 Lattice="15.00000000 0.00000000 0.00000000 0.00000000 15.00000000 0.00000000 0.00000000 0.00000000 15.00000000" pbc=[F, F, F] list_num_par=6 Properties=species:S:1:pos:R:3:Z:I:1:velocities:R:3
H         8.83952511       4.28355350       3.38629075          1         0.00000000       0.00000000       0.00000000
H        11.17938466       3.62709856       2.00846683          1         0.00000000       0.00000000       0.00000000
H        11.59206686       6.32727953       1.42282816          1         0.00000000       0.00000000       0.00000000
H         9.17680051       5.10248780       0.73678439          1         0.00000000       0.00000000       0.00000000
H        11.25478472       5.50834264       4.07233078          1         0.00000000       0.00000000       0.00000000
H         9.25220535       6.98374222       2.80064185          1         0.00000000       0.00000000       0.00000000
6
iter=20000 frozen=false energy=-1.26974174 energy_frozen_part=0.00000000 Lattice="15.00000000 0.00000000 0.00000000 0.00000000 15.00000000 0.00000000 0.00000000 0.00000000 15.00000000" pbc=[F, F, F] list_num_par=6 Properties=species:S:1:pos:R:3:Z:I:1:velocities:R:3
H         8.83953497       4.28359830       3.38626667          1         0.00000000       0.00000000       0.00000000
H        11.17942986       3.62704641       2.00854596          1         0.00000000       0.00000000       0.00000000
H        11.59221901       6.32721006       1.42287060          1         0.00000000       0.00000000       0.00000000
H         9.17693562       5.10247762       0.73675970          1         0.00000000       0.00000000       0.00000000
H        11.25481030       5.50833024       4.07237990          1         0.00000000       0.00000000       0.00000000
H         9.25232428       6.98376392       2.80059000          1         0.00000000       0.00000000       0.00000000
6
iter=20000 frozen=false energy=-1.26974174 energy_frozen_part=0.00000000 Lattice="15.00000000 0.00000000 0.00000000 0.00000000 15.00000000 0.00000000 0.00000000 0.00000000 15.00000000" pbc=[F, F, F] list_num_par=6 Properties=species:S:1:pos:R:3:Z:I:1:velocities:R:3
H         8.83946220       4.28358978       3.38617215          1         0.00000000       0.00000000       0.00000000
H        11.17937609       3.62705377       2.00846429          1         0.00000000       0.00000000       0.00000000
H        11.59219104       6.32722944       1.42286298          1         0.00000000       0.00000000       0.00000000
H         9.17691567       5.10252123       0.73668916          1         0.00000000       0.00000000       0.00000000
H        11.25473568       5.50829722       4.07233867          1         0.00000000       0.00000000       0.00000000
H         9.25227041       6.98376296       2.80055304          1         0.00000000       0.00000000       0.00000000
6
iter=20000 frozen=false energy=-1.26974174 energy_frozen_part=0.00000000 Lattice="15.00000000 0.00000000 0.00000000 0.00000000 15.00000000 0.00000000 0.00000000 0.00000000 15.00000000" pbc=[F, F, F] list_num_par=6 Properties=species:S:1:pos:R:3:Z:I:1:velocities:R:3
H         8.83967446       4.28329536       3.38617769          1         0.00000000       0.00000000       0.00000000
H        11.17988275       3.62722158       2.00876690          1         0.00000000       0.00000000       0.00000000
H        11.59220474       6.32747081       1.42316498          1         0.00000000       0.00000000       0.00000000
H         9.17726827       5.10225301       0.73672440          1         0.00000000       0.00000000       0.00000000
H        11.25461376       5.50850219       4.07262127          1         0.00000000       0.00000000       0.00000000
H         9.25199962       6.98354451       2.80058227          1         0.00000000       0.00000000       0.00000000
6
iter=20000 frozen=false energy=-1.26974174 energy_frozen_part=0.00000000 Lattice="15.00000000 0.00000000 0.00000000 0.00000000 15.00000000 0.00000000 0.00000000 0.00000000 15.00000000" pbc=[F, F, F] list_num_par=6 Properties=species:S:1:pos:R:3:Z:I:1:velocities:R:3
H         8.83965705       4.28325055       3.38616155          1         0.00000000       0.00000000       0.00000000
H        11.17985818       3.62719160       2.00872588          1         0.00000000       0.00000000       0.00000000
H        11.59219771       6.32744682       1.42316237          1         0.00000000       0.00000000       0.00000000
H         9.17724242       5.10225218       0.73671299          1         0.00000000       0.00000000       0.00000000
H        11.25460354       5.50844193       4.07260454          1         0.00000000       0.00000000       0.00000000
H         9.25199634       6.98350276       2.80059917          1         0.00000000       0.00000000       0.00000000
6
iter=20000 frozen=false energy=-1.26974174 energy_frozen_part=0.00000000 Lattice="15.00000000 0.00000000 0.00000000 0.00000000 15.00000000 0.00000000 0.00000000 0.00000000 15.00000000" pbc=[F, F, F] list_num_par=6 Properties=species:S:1:pos:R:3:Z:I:1:velocities:R:3
H         8.83963711       4.28324292       3.38613989          1         0.00000000       0.00000000       0.00000000
H        11.17987279       3.62724590       2.00872679          1         0.00000000       0.00000000       0.00000000
H        11.59215473       6.32751919       1.42318102          1         0.00000000       0.00000000       0.00000000
H         9.17723951       5.10227503       0.73671186          1         0.00000000       0.00000000       0.00000000
H        11.25455961       5.50848011       4.07261666          1         0.00000000       0.00000000       0.00000000
H         9.25193358       6.98351444       2.80060059          1         0.00000000       0.00000000       0.00000000
6
iter=20000 frozen=false energy=-1.26974174 energy_frozen_part=0.00000000 Lattice="15.00000000 0.00000000 0.00000000 0.00000000 15.00000000 0.00000000 0.00000000 0.00000000 15.00000000" pbc=[F, F, F] list_num_par=6 Properties=species:S:1:pos:R:3:Z:I:1:velocities:R:3
H         8.83949317       4.28354152       3.38630070          1         0.00000000       0.00000000       0.00000000
H        11.17939270       3.62702936       2.00856709          1         0.00000000       0.00000000       0.00000000
H        11.59212891       6.32719560       1.42287682          1         0.00000000       0.00000000       0.00000000
H         9.17686592       5.10242116       0.73679569          1         0.00000000       0.00000000       0.00000000
H        11.25475151       5.50832412       4.07238304          1         0.00000000       0.00000000       0.00000000
H         9.25222441       6.98370791       2.80060308          1         0.00000000       0.00000000       0.00000000
6
iter=20000 frozen=false energy=-1.26974174 energy_frozen_part=0.00000000 Lattice="15.00000000 0.00000000 0.00000000 0.00000000 15.00000000 0.00000000 0.00000000 0.00000000 15.00000000" pbc=[F, F, F] list_num_par=6 Properties=species:S:1:pos:R:3:Z:I:1:velocities:R:3
H         8.83950086       4.28358530       3.38620632          1         0.00000000       0.00000000       0.00000000
H        11.17940948       3.62706709       2.00849639          1         0.00000000       0.00000000       0.00000000
H        11.59220146       6.32723161       1.42286797          1         0.00000000       0.00000000       0.00000000
H         9.17692796       5.10251064       0.73671791          1         0.00000000       0.00000000       0.00000000
H        11.25478250       5.50830770       4.07235477          1         0.00000000       0.00000000       0.00000000
H         9.25229655       6.98375069       2.80058410          1         0.00000000       0.00000000       0.00000000
6
iter=20000 frozen=false energy=-1.26974174 energy_frozen_part=0.00000000 Lattice="15.00000000 0.00000000 0.00000000 0.00000000 15.00000000 0.00000000 0.00000000 0.00000000 15.00000000" pbc=[F, F, F] list_num_par=6 Properties=species:S:1:pos:R:3:Z:I:1:velocities:R:3
H         8.83950575       4.28353871       3.38628494          1         0.00000000       0.00000000       0.00000000
H        11.17941837       3.62703002       2.00856245          1         0.00000000       0.00000000       0.00000000
H        11.59213580       6.32720368       1.42286860          1         0.00000000       0.00000000       0.00000000
H         9.17689217       5.10239728       0.73677600          1         0.00000000       0.00000000       0.00000000
H        11.25475680       5.50832754       4.07238124          1         0.00000000       0.00000000       0.00000000
H         9.25223013       6.98370499       2.80058519          1         0.00000000       0.00000000       0.00000000
6
iter=20000 frozen=false energy=-1.26974174 energy_frozen_part=0.00000000 Lattice="15.00000000 0.00000000 0.00000000 0.00000000 15.00000000 0.00000000 0.00000000 0.00000000 15.00000000" pbc=[F, F, F] list_num_par=6 Properties=species:S:1:pos:R:3:Z:I:1:velocities:R:3
H         8.83950100       4.28353934       3.38629733          1         0.00000000       0.00000000       0.00000000
H        11.17940190       3.62703182       2.00856870          1         0.00000000       0.00000000       0.00000000
H        11.59213730       6.32719872       1.42287789          1         0.00000000       0.00000000       0.00000000
H         9.17688035       5.10241313       0.73678579          1         0.00000000       0.00000000       0.00000000
H        11.25475990       5.50833328       4.07238244          1         0.00000000       0.00000000       0.00000000
H         9.25222352       6.98370157       2.80059928          1         0.00000000       0.00000000       0.00000000
6
iter=20000 frozen=false energy=-1.26974174 energy_frozen_part=0.00000000 Lattice="15.00000000 0.00000000 0.00000000 0.00000000 15.00000000 0.00000000 0.00000000 0.00000000 15.00000000" pbc=[F, F, F] list_num_par=6 Properties=species:S:1:pos:R:3:Z:I:1:velocities:R:3
H         8.83943310       4.28342263       3.38607083          1         0.00000000       0.00000000       0.00000000
H        11.17947790       3.62720596       2.00843988          1         0.00000000       0.00000000       0.00000000
H        11.59210830       6.32746496       1.42312441          1         0.00000000       0.00000000       0.00000000
H         9.17697124       5.10263609       0.73669017          1         0.00000000       0.00000000       0.00000000
H        11.25457290       5.50824485       4.07249835          1         0.00000000       0.00000000       0.00000000
H         9.25206370       6.98367831       2.80074791          1         0.00000000       0.00000000       0.00000000
6
iter=20000 frozen=false energy=-1.26974174 energy_frozen_part=0.00000000 Lattice="15.00000000 0.00000000 0.00000000 0.00000000 15.00000000 0.00000000 0.00000000 0.00000000 15.00000000" pbc=[F, F, F] list_num_par=6 Properties=species:S:1:pos:R:3:Z:I:1:velocities:R:3
H         8.83948887       4.28356381       3.38617520          1         0.00000000       0.00000000       0.00000000
H        11.17938946       3.62699145       2.00848242          1         0.00000000       0.00000000       0.00000000
H        11.59226363       6.32715698       1.42287136          1         0.00000000       0.00000000       0.00000000
H         9.17695632       5.10250799       0.73670189          1         0.00000000       0.00000000       0.00000000
H        11.25479554       5.50821743       4.07235307          1         0.00000000       0.00000000       0.00000000
H         9.25236507       6.98372779       2.80057695          1         0.00000000       0.00000000       0.00000000
6
iter=20000 frozen=false energy=-1.26974174 energy_frozen_part=0.00000000 Lattice="15.00000000 0.00000000 0.00000000 0.00000000 15.00000000 0.00000000 0.00000000 0.00000000 15.00000000" pbc=[F, F, F] list_num_par=6 Properties=species:S:1:pos:R:3:Z:I:1:velocities:R:3
H         8.83947256       4.28358711       3.38617983          1         0.00000000       0.00000000       0.00000000
H        11.17938238       3.62705897       2.00846233          1         0.00000000       0.00000000       0.00000000
H        11.59219408       6.32723050       1.42285266          1         0.00000000       0.00000000       0.00000000
H         9.17691585       5.10252959       0.73668931          1         0.00000000       0.00000000       0.00000000
H        11.25475072       5.50829597       4.07233111          1         0.00000000       0.00000000       0.00000000
H         9.25228742       6.98376334       2.80055901          1         0.00000000       0.00000000       0.00000000
6
iter=20000 frozen=false energy=-1.26974174 energy_frozen_part=0.00000000 Lattice="15.00000000 0.00000000 0.00000000 0.00000000 15.00000000 0.00000000 0.00000000 0.00000000 15.00000000" pbc=[F, F, F] list_num_par=6 Properties=species:S:1:pos:R:3:Z:I:1:velocities:R:3
H         8.83951118       4.28354511       3.38626798          1         0.00000000       0.00000000       0.00000000
H        11.17938277       3.62710055       2.00846646          1         0.00000000       0.00000000       0.00000000
H        11.59206784       6.32728273       1.42282173          1         0.00000000       0.00000000       0.00000000
H         9.17680911       5.10249020       0.73677381          1         0.00000000       0.00000000       0.00000000
H        11.25477234       5.50835334       4.07232787          1         0.00000000       0.00000000       0.00000000
H         9.25219502       6.98373314       2.80063119          1         0.00000000       0.00000000       0.00000000
6
iter=20000 frozen=false energy=-1.26974174 energy_frozen_part=0.00000000 Lattice="15.00000000 0.00000000 0.00000000 0.00000000 15.00000000 0.00000000 0.00000000 0.00000000 15.00000000" pbc=[F, F, F] list_num_par=6 Properties=species:S:1:pos:R:3:Z:I:1:velocities:R:3
H         8.83937304       4.28326423       3.38594935          1         0.00000000       0.00000000       0.00000000
H        11.17951070       3.62712169       2.00844556          1         0.00000000       0.00000000       0.00000000
H        11.59218352       6.32741181       1.42327424          1         0.00000000       0.00000000       0.00000000
H         9.17709005       5.10260447       0.73662435          1         0.00000000       0.00000000       0.00000000
H        11.25446448       5.50805731       4.07259464          1         0.00000000       0.00000000       0.00000000
H         9.25204450       6.98355639       2.80076969          1         0.00000000       0.00000000       0.00000000
6
iter=20000 frozen=false energy=-1.26974174 energy_frozen_part=0.00000000 Lattice="15.00000000 0.00000000 0.00000000 0.00000000 15.00000000 0.00000000 0.00000000 0.00000000 15.00000000" pbc=[F, F, F] list_num_par=6 Properties=species:S:1:pos:R:3:Z:I:1:velocities:R:3
H         8.83949551       4.28360152       3.38627345          1         0.00000000       0.00000000       0.00000000
H        11.17935030       3.62698105       2.00851024          1         0.00000000       0.00000000       0.00000000
H        11.59224884       6.32713134       1.42287169          1         0.00000000       0.00000000       0.00000000
H         9.17690689       5.10250682       0.73677135          1         0.00000000       0.00000000       0.00000000
H        11.25483633       5.50822169       4.07237344          1         0.00000000       0.00000000       0.00000000
H         9.25239395       6.98374597       2.80062937          1         0.00000000       0.00000000       0.00000000
6
iter=20000 frozen=false energy=-1.26974174 energy_frozen_part=0.00000000 Lattice="15.00000000 0.00000000 0.00000000 0.00000000 15.00000000 0.00000000 0.00000000 0.00000000 15.00000000" pbc=[F, F, F] list_num_par=6 Properties=species:S:1:pos:R:3:Z:I:1:velocities:R:3
H         8.83967050       4.28326339       3.38613375          1         0.00000000       0.00000000       0.00000000
H        11.17989067       3.62718484       2.00873841          1         0.00000000       0.00000000       0.00000000
H        11.59221670       6.32743375       1.42314071          1         0.00000000       0.00000000       0.00000000
H         9.17728600       5.10221638       0.73668304          1         0.00000000       0.00000000       0.00000000
H        11.25459869       5.50847299       4.07259076          1         0.00000000       0.00000000       0.00000000
H         9.25199209       6.98351187       2.80052527          1         0.00000000       0.00000000       0.00000000
6
iter=20000 frozen=false energy=-1.26974174 energy_frozen_part=0.00000000 Lattice="15.00000000 0.00000000 0.00000000 0.00000000 15.00000000 0.00000000 0.00000000 0.00000000 15.00000000" pbc=[F, F, F] list_num_par=6 Properties=species:S:1:pos:R:3:Z:I:1:velocities:R:3
H         8.83948772       4.28356326       3.38620677          1         0.00000000       0.00000000       0.00000000
H        11.17938969       3.62705809       2.00846495          1         0.00000000       0.00000000       0.00000000
H        11.59215592       6.32723374       1.42285360          1         0.00000000       0.00000000       0.00000000
H         9.17688843       5.10251197       0.73671715          1         0.00000000       0.00000000       0.00000000
H        11.25475708       5.50829044       4.07233853          1         0.00000000       0.00000000       0.00000000
H         9.25225844       6.98373887       2.80059378          1         0.00000000       0.00000000       0.00000000
6
iter=20000 frozen=false energy=-1.26974174 energy_frozen_part=0.00000000 Lattice="15.00000000 0.00000000 0.00000000 0.00000000 15.00000000 0.00000000 0.00000000 0.00000000 15.00000000" pbc=[F, F, F] list_num_par=6 Properties=species:S:1:pos:R:3:Z:I:1:velocities:R:3
H         8.83950094       4.28357813       3.38621780          1         0.00000000       0.00000000       0.00000000
H        11.17938495       3.62698253       2.00849669          1         0.00000000       0.00000000       0.00000000
H        11.59225248       6.32714455       1.42285119          1         0.00000000       0.00000000       0.00000000
H         9.17693990       5.10249082       0.73673135          1         0.00000000       0.00000000       0.00000000
H        11.25481158       5.50823999       4.07234258          1         0.00000000       0.00000000       0.00000000
H         9.25236383       6.98373690       2.80057760          1         0.00000000       0.00000000       0.00000000
6
iter=20000 frozen=false energy=-1.26974174 energy_frozen_part=0.00000000 Lattice="15.00000000 0.00000000 0.00000000 0.00000000 15.00000000 0.00000000 0.00000000 0.00000000 15.00000000" pbc=[F, F, F] list_num_par=6 Properties=species:S:1:pos:R:3:Z:I:1:velocities:R:3
H         8.83950788       4.28358658       3.38622786          1         0.00000000       0.00000000       0.00000000
H        11.17939435       3.62699368       2.00849441          1         0.00000000       0.00000000       0.00000000
H        11.59225425       6.32715401       1.42285619          1         0.00000000       0.00000000       0.00000000
H         9.17693747       5.10249324       0.73673734          1         0.00000000       0.00000000       0.00000000
H        11.25482138       5.50823960       4.07235167          1         0.00000000       0.00000000       0.00000000
H         9.25237673       6.98374270       2.80058335          1         0.00000000       0.00000000       0.00000000
6
iter=20000 frozen=false energy=-1.26974174 energy_frozen_part=0.00000000 Lattice="15.00000000 0.00000000 0.00000000 0.00000000 15.00000000 0.00000000 0.00000000 0.00000000 15.00000000" pbc=[F, F, F] list_num_par=6 Properties=species:S:1:pos:R:3:Z:I:1:velocities:R:3
H         8.83272908       4.24818953       3.32804816          1         0.00000000       0.00000000       0.00000000
H        11.13483738       3.64307065       1.86571711          1         0.00000000       0.00000000       0.00000000
H        11.59148516       6.36860073       1.45676898          1         0.00000000       0.00000000       0.00000000
H         9.14065300       5.23913039       0.73429902          1         0.00000000       0.00000000       0.00000000
H        11.28356732       5.37765970       4.05051212          1         0.00000000       0.00000000       0.00000000
H         9.28938351       6.97372305       2.91910395          1         0.00000000       0.00000000       0.00000000
6
iter=20000 frozen=false energy=-1.26974174 energy_frozen_part=0.00000000 Lattice="15.00000000 0.00000000 0.00000000 0.00000000 15.00000000 0.00000000 0.00000000 0.00000000 15.00000000" pbc=[F, F, F] list_num_par=6 Properties=species:S:1:pos:R:3:Z:I:1:velocities:R:3
H         8.83950078       4.28360751       3.38621739          1         0.00000000       0.00000000       0.00000000
H        11.17938582       3.62700671       2.00850740          1         0.00000000       0.00000000       0.00000000
H        11.59227267       6.32716563       1.42287991          1         0.00000000       0.00000000       0.00000000
H         9.17695159       5.10253222       0.73673255          1         0.00000000       0.00000000       0.00000000
H        11.25480851       5.50825364       4.07236882          1         0.00000000       0.00000000       0.00000000
H         9.25238621       6.98377179       2.80059706          1         0.00000000       0.00000000       0.00000000
6
iter=20000 frozen=false energy=-1.26974174 energy_frozen_part=0.00000000 Lattice="15.00000000 0.00000000 0.00000000 0.00000000 15.00000000 0.00000000 0.00000000 0.00000000 15.00000000" pbc=[F, F, F] list_num_par=6 Properties=species:S:1:pos:R:3:Z:I:1:velocities:R:3
H         8.83955069       4.28314245       3.38605282          1         0.00000000       0.00000000       0.00000000
H        11.17980495       3.62730702       2.00860755          1         0.00000000       0.00000000       0.00000000
H        11.59205783       6.32763153       1.42331933          1         0.00000000       0.00000000       0.00000000
H         9.17716754       5.10242208       0.73670070          1         0.00000000       0.00000000       0.00000000
H        11.25443610       5.50835916       4.07266874          1         0.00000000       0.00000000       0.00000000
H         9.25179354       6.98347509       2.80076725          1         0.00000000       0.00000000       0.00000000
6
iter=20000 frozen=false energy=-1.26974174 energy_frozen_part=0.00000000 Lattice="15.00000000 0.00000000 0.00000000 0.00000000 15.00000000 0.00000000 0.00000000 0.00000000 15.00000000" pbc=[F, F, F] list_num_par=6 Properties=species:S:1:pos:R:3:Z:I:1:velocities:R:3
H         8.83951792       4.28356027       3.38621303          1         0.00000000       0.00000000       0.00000000
H        11.17939928       3.62699383       2.00848711          1         0.00000000       0.00000000       0.00000000
H        11.59225422       6.32715671       1.42287238          1         0.00000000       0.00000000       0.00000000
H         9.17694862       5.10249726       0.73673015          1         0.00000000       0.00000000       0.00000000
H        11.25481573       5.50822367       4.07235756          1         0.00000000       0.00000000       0.00000000
H         9.25237142       6.98372354       2.80060756          1         0.00000000       0.00000000       0.00000000
6
iter=20000 frozen=false energy=-1.26974174 energy_frozen_part=0.00000000 Lattice="15.00000000 0.00000000 0.00000000 0.00000000 15.00000000 0.00000000 0.00000000 0.00000000 15.00000000" pbc=[F, F, F] list_num_par=6 Properties=species:S:1:pos:R:3:Z:I:1:velocities:R:3
H         8.83955630       4.28359436       3.38635806          1         0.00000000       0.00000000       0.00000000
H        11.17940128       3.62704759       2.00855565          1         0.00000000       0.00000000       0.00000000
H        11.59207742       6.32719698       1.42271903          1         0.00000000       0.00000000       0.00000000
H         9.17680208       5.10235996       0.73679717          1         0.00000000       0.00000000       0.00000000
H        11.25483622       5.50843436       4.07228216          1         0.00000000       0.00000000       0.00000000
H         9.25223326       6.98374380       2.80052611          1         0.00000000       0.00000000       0.00000000
6
iter=20000 frozen=false energy=-1.26974174 energy_frozen_part=0.00000000 Lattice="15.00000000 0.00000000 0.00000000 0.00000000 15.00000000 0.00000000 0.00000000 0.00000000 15.00000000" pbc=[F, F, F] list_num_par=6 Properties=species:S:1:pos:R:3:Z:I:1:velocities:R:3
H         8.83963647       4.28324086       3.38614066          1         0.00000000       0.00000000       0.00000000
H        11.17987091       3.62724210       2.00873577          1         0.00000000       0.00000000       0.00000000
H        11.59215369       6.32750647       1.42318704          1         0.00000000       0.00000000       0.00000000
H         9.17723740       5.10226655       0.73670786          1         0.00000000       0.00000000       0.00000000
H        11.25455787       5.50849013       4.07262109          1         0.00000000       0.00000000       0.00000000
H         9.25192416       6.98351038       2.80060038          1         0.00000000       0.00000000       0.00000000
6
iter=20000 frozen=false energy=-1.26974174 energy_frozen_part=0.00000000 Lattice="15.00000000 0.00000000 0.00000000 0.00000000 15.00000000 0.00000000 0.00000000 0.00000000 15.00000000" pbc=[F, F, F] list_num_par=6 Properties=species:S:1:pos:R:3:Z:I:1:velocities:R:3
H         8.83951233       4.28360004       3.38625269          1         0.00000000       0.00000000       0.00000000
H        11.17937963       3.62700202       2.00850132          1         0.00000000       0.00000000       0.00000000
H        11.59226903       6.32716650       1.42291550          1         0.00000000       0.00000000       0.00000000
H         9.17694216       5.10255489       0.73677370          1         0.00000000       0.00000000       0.00000000
H        11.25484166       5.50820954       4.07239215          1         0.00000000       0.00000000       0.00000000
H         9.25240797       6.98376222       2.80067665          1         0.00000000       0.00000000       0.00000000
6
iter=20000 frozen=false energy=-1.26974174 energy_frozen_part=0.00000000 Lattice="15.00000000 0.00000000 0.00000000 0.00000000 15.00000000 0.00000000 0.00000000 0.00000000 15.00000000" pbc=[F, F, F] list_num_par=6 Properties=species:S:1:pos:R:3:Z:I:1:velocities:R:3
H         8.83966507       4.28327046       3.38620449          1         0.00000000       0.00000000       0.00000000
H        11.17986118       3.62721637       2.00876020          1         0.00000000       0.00000000       0.00000000
H        11.59216208       6.32746385       1.42313719          1         0.00000000       0.00000000       0.00000000
H         9.17722078       5.10223673       0.73673990          1         0.00000000       0.00000000       0.00000000
H        11.25460675       5.50851309       4.07260190          1         0.00000000       0.00000000       0.00000000
H         9.25196791       6.98352392       2.80057910          1         0.00000000       0.00000000       0.00000000
6
iter=20000 frozen=false energy=-1.26974174 energy_frozen_part=0.00000000 Lattice="15.00000000 0.00000000 0.00000000 0.00000000 15.00000000 0.00000000 0.00000000 0.00000000 15.00000000" pbc=[F, F, F] list_num_par=6 Properties=species:S:1:pos:R:3:Z:I:1:velocities:R:3
H         8.83947744       4.28356735       3.38617915          1         0.00000000       0.00000000       0.00000000
H        11.17937963       3.62697764       2.00848486          1         0.00000000       0.00000000       0.00000000
H        11.59225953       6.32714679       1.42288709          1         0.00000000       0.00000000       0.00000000
H         9.17695855       5.10249994       0.73669543          1         0.00000000       0.00000000       0.00000000
H        11.25478436       5.50820511       4.07236276          1         0.00000000       0.00000000       0.00000000
H         9.25236080       6.98372416       2.80057741          1         0.00000000       0.00000000       0.00000000
6
iter=20000 frozen=false energy=-1.26974174 energy_frozen_part=0.00000000 Lattice="15.00000000 0.00000000 0.00000000 0.00000000 15.00000000 0.00000000 0.00000000 0.00000000 15.00000000" pbc=[F, F, F] list_num_par=6 Properties=species:S:1:pos:R:3:Z:I:1:velocities:R:3
H         8.83951903       4.28361891       3.38623931          1         0.00000000       0.00000000       0.00000000
H        11.17938976       3.62705702       2.00848201          1         0.00000000       0.00000000       0.00000000
H        11.59218201       6.32721264       1.42279319          1         0.00000000       0.00000000       0.00000000
H         9.17689131       5.10249170       0.73672024          1         0.00000000       0.00000000       0.00000000
H        11.25481877       5.50834588       4.07230308          1         0.00000000       0.00000000       0.00000000
H         9.25231434       6.98377370       2.80054776          1         0.00000000       0.00000000       0.00000000
6
iter=20000 frozen=false energy=-1.26974174 energy_frozen_part=0.00000000 Lattice="15.00000000 0.00000000 0.00000000 0.00000000 15.00000000 0.00000000 0.00000000 0.00000000 15.00000000" pbc=[F, F, F] list_num_par=6 Properties=species:S:1:pos:R:3:Z:I:1:velocities:R:3
H         8.83951159       4.28355328       3.38627850          1         0.00000000       0.00000000       0.00000000
H        11.17939092       3.62709562       2.00848387          1         0.00000000       0.00000000       0.00000000
H        11.59208164       6.32727863       1.42283243          1         0.00000000       0.00000000       0.00000000
H         9.17681932       5.10248323       0.73677441          1         0.00000000       0.00000000       0.00000000
H        11.25476551       5.50835900       4.07233080          1         0.00000000       0.00000000       0.00000000
H         9.25219915       6.98373743       2.80061630          1         0.00000000       0.00000000       0.00000000
6
iter=20000 frozen=false energy=-1.26974174 energy_frozen_part=0.00000000 Lattice="15.00000000 0.00000000 0.00000000 0.00000000 15.00000000 0.00000000 0.00000000 0.00000000 15.00000000" pbc=[F, F, F] list_num_par=6 Properties=species:S:1:pos:R:3:Z:I:1:velocities:R:3
H         8.83952329       4.28361308       3.38628318          1         0.00000000       0.00000000       0.00000000
H        11.17942501       3.62704251       2.00857960          1         0.00000000       0.00000000       0.00000000
H        11.59221504       6.32719438       1.42286986          1         0.00000000       0.00000000       0.00000000
H         9.17694438       5.10245867       0.73676859          1         0.00000000       0.00000000       0.00000000
H        11.25480332       5.50834614       4.07238772          1         0.00000000       0.00000000       0.00000000
H         9.25232322       6.98376893       2.80057374          1         0.00000000       0.00000000       0.00000000
6
iter=20000 frozen=false energy=-1.26974174 energy_frozen_part=0.00000000 Lattice="15.00000000 0.00000000 0.00000000 0.00000000 15.00000000 0.00000000 0.00000000 0.00000000 15.00000000" pbc=[F, F, F] list_num_par=6 Properties=species:S:1:pos:R:3:Z:I:1:velocities:R:3
H         8.83948642       4.28355692       3.38620170          1         0.00000000       0.00000000       0.00000000
H        11.17938299       3.62705262       2.00844833          1         0.00000000       0.00000000       0.00000000
H        11.59216565       6.32722897       1.42285841          1         0.00000000       0.00000000       0.00000000
H         9.17688815       5.10251576       0.73672041          1         0.00000000       0.00000000       0.00000000
H        11.25476805       5.50826691       4.07233996          1         0.00000000       0.00000000       0.00000000
H         9.25227713       6.98373670       2.80061072          1         0.00000000       0.00000000       0.00000000
6
iter=20000 frozen=false energy=-1.26974174 energy_frozen_part=0.00000000 Lattice="15.00000000 0.00000000 0.00000000 0.00000000 15.00000000 0.00000000 0.00000000 0.00000000 15.00000000" pbc=[F, F, F] list_num_par=6 Properties=species:S:1:pos:R:3:Z:I:1:velocities:R:3
H         8.83950813       4.28353718       3.38622218          1         0.00000000       0.00000000       0.00000000
H        11.17940211       3.62707471       2.00844666          1         0.00000000       0.00000000       0.00000000
H        11.59210887       6.32726631       1.42281927          1         0.00000000       0.00000000       0.00000000
H         9.17685651       5.10247784       0.73672624          1         0.00000000       0.00000000       0.00000000
H        11.25476863       5.50831458       4.07231205          1         0.00000000       0.00000000       0.00000000
H         9.25222074       6.98371970       2.80059548          1         0.00000000       0.00000000       0.00000000
6
iter=20000 frozen=false energy=-1.26974174 energy_frozen_part=0.00000000 Lattice="15.00000000 0.00000000 0.00000000 0.00000000 15.00000000 0.00000000 0.00000000 0.00000000 15.00000000" pbc=[F, F, F] list_num_par=6 Properties=species:S:1:pos:R:3:Z:I:1:velocities:R:3
H         8.83969121       4.28324264       3.38613077          1         0.00000000       0.00000000       0.00000000
H        11.17991041       3.62718005       2.00872595          1         0.00000000       0.00000000       0.00000000
H        11.59224398       6.32742747       1.42312805          1         0.00000000       0.00000000       0.00000000
H         9.17730382       5.10221591       0.73667633          1         0.00000000       0.00000000       0.00000000
H        11.25462933       5.50845122       4.07258036          1         0.00000000       0.00000000       0.00000000
H         9.25202680       6.98349533       2.80053471          1         0.00000000       0.00000000       0.00000000
6
iter=20000 frozen=false energy=-1.26974174 energy_frozen_part=0.00000000 Lattice="15.00000000 0.00000000 0.00000000 0.00000000 15.00000000 0.00000000 0.00000000 0.00000000 15.00000000" pbc=[F, F, F] list_num_par=6 Properties=species:S:1:pos:R:3:Z:I:1:velocities:R:3
H         8.83951386       4.28353798       3.38630411          1         0.00000000       0.00000000       0.00000000
H        11.17936594       3.62709553       2.00847318          1         0.00000000       0.00000000       0.00000000
H        11.59205105       6.32728527       1.42281959          1         0.00000000       0.00000000       0.00000000
H         9.17678054       5.10247973       0.73679613          1         0.00000000       0.00000000       0.00000000
H        11.25477411       5.50834985       4.07232653          1         0.00000000       0.00000000       0.00000000
H         9.25218473       6.98372216       2.80065072          1         0.00000000       0.00000000       0.00000000
