6
pbc=[F, F, F] list_num_par=6 frozen=false iter=20000 energy=-1.26974174 Lattice="15.00000000 0.00000000 0.00000000 0.00000000 15.00000000 0.00000000 0.00000000 0.00000000 15.00000000" energy_frozen_part=0.00000000 Properties=species:S:1:pos:R:3:velocities:R:3:Z:I:1
H         6.55521356       5.67594946       6.58182258         0.00000000       0.00000000       0.00000000          1
H         7.18190362       5.12273939       9.24743644         0.00000000       0.00000000       0.00000000          1
H         4.69376263       3.89625685       9.57786352         0.00000000       0.00000000       0.00000000          1
H         6.40574306       3.05491626       7.53689000         0.00000000       0.00000000       0.00000000          1
H         4.06707631       4.44945768       6.91224185         0.00000000       0.00000000       0.00000000          1
H         4.84323724       6.51728568       8.62279459         0.00000000       0.00000000       0.00000000          1
6
pbc=[F, F, F] list_num_par=6 frozen=false iter=20000 energy=-1.26974174 Lattice="15.00000000 0.00000000 0.00000000 0.00000000 15.00000000 0.00000000 0.00000000 0.00000000 15.00000000" energy_frozen_part=0.00000000 Properties=species:S:1:pos:R:3:velocities:R:3:Z:I:1
H         6.54362623       5.68637591       6.56068215         0.00000000       0.00000000       0.00000000          1
H         7.17725086       5.13721874       9.22549916         0.00000000       0.00000000       0.00000000          1
H         4.69430562       3.90168824       9.56125474         0.00000000       0.00000000       0.00000000          1
H         6.40566769       3.06542829       7.51767950         0.00000000       0.00000000       0.00000000          1
H         4.06068135       4.45085748       6.89644439         0.00000000       0.00000000       0.00000000          1
H         4.83227064       6.52264483       8.60425905         0.00000000       0.00000000       0.00000000          1
6
pbc=[F, F, F] list_num_par=6 frozen=false iter=20000 energy=-1.26974174 Lattice="15.00000000 0.00000000 0.00000000 0.00000000 15.00000000 0.00000000 0.00000000 0.00000000 15.00000000" energy_frozen_part=0.00000000 Properties=species:S:1:pos:R:3:velocities:R:3:Z:I:1
H         6.54368457       5.68670632       6.56075308         0.00000000       0.00000000       0.00000000          1
H         7.17735479       5.13721385       9.22548833         0.00000000       0.00000000       0.00000000          1
H         4.69438990       3.90170428       9.56116465         0.00000000       0.00000000       0.00000000          1
H         6.40568519       3.06563913       7.51745084         0.00000000       0.00000000       0.00000000          1
H         4.06072239       4.45119015       6.89642864         0.00000000       0.00000000       0.00000000          1
H         4.83239142       6.52275942       8.60446603         0.00000000       0.00000000       0.00000000          1
6
pbc=[F, F, F] list_num_par=6 frozen=false iter=20000 energy=-1.26974174 Lattice="15.00000000 0.00000000 0.00000000 0.00000000 15.00000000 0.00000000 0.00000000 0.00000000 15.00000000" energy_frozen_part=0.00000000 Properties=species:S:1:pos:R:3:velocities:R:3:Z:I:1
H         6.54371139       5.68669697       6.56081698         0.00000000       0.00000000       0.00000000          1
H         7.17731794       5.13714210       9.22555541         0.00000000       0.00000000       0.00000000          1
H         4.69431559       3.90167957       9.56115426         0.00000000       0.00000000       0.00000000          1
H         6.40563535       3.06562535       7.51745861         0.00000000       0.00000000       0.00000000          1
H         4.06070804       4.45124124       6.89641957         0.00000000       0.00000000       0.00000000          1
H         4.83240222       6.52276164       8.60450951         0.00000000       0.00000000       0.00000000          1
6
pbc=[F, F, F] list_num_par=6 frozen=false iter=20000 energy=-1.26974174 Lattice="15.00000000 0.00000000 0.00000000 0.00000000 15.00000000 0.00000000 0.00000000 0.00000000 15.00000000" energy_frozen_part=0.00000000 Properties=species:S:1:pos:R:3:velocities:R:3:Z:I:1
H         6.54360696       5.68635617       6.56062732         0.00000000       0.00000000       0.00000000          1
H         7.17727796       5.13725119       9.22544414         0.00000000       0.00000000       0.00000000          1
H         4.69433855       3.90172998       9.56128841         0.00000000       0.00000000       0.00000000          1
H         6.40566187       3.06542236       7.51770086         0.00000000       0.00000000       0.00000000          1
H         4.06067206       4.45083223       6.89646839         0.00000000       0.00000000       0.00000000          1
H         4.83228463       6.52265934       8.60421740         0.00000000       0.00000000       0.00000000          1
6
pbc=[F, F, F] list_num_par=6 frozen=false iter=20000 energy=-1.26974174 Lattice="15.00000000 0.00000000 0.00000000 0.00000000 15.00000000 0.00000000 0.00000000 0.00000000 15.00000000" energy_frozen_part=0.00000000 Properties=species:S:1:pos:R:3:velocities:R:3:Z:I:1
H         6.55450852       5.67594407       6.58167044         0.00000000       0.00000000       0.00000000          1
H         7.18188991       5.12286447       9.24714878         0.00000000       0.00000000       0.00000000          1
H         4.69390959       3.89623128       9.57823089         0.00000000       0.00000000       0.00000000          1
H         6.40543370       3.05494328       7.53686202         0.00000000       0.00000000       0.00000000          1
H         4.06652223       4.44931991       6.91275329         0.00000000       0.00000000       0.00000000          1
H         4.84298068       6.51724273       8.62303805         0.00000000       0.00000000       0.00000000          1
6
pbc=[F, F, F] list_num_par=6 frozen=false iter=20000 energy=-1.26974174 Lattice="15.00000000 0.00000000 0.00000000 0.00000000 15.00000000 0.00000000 0.00000000 0.00000000 15.00000000" energy_frozen_part=0.00000000 Properties=species:S:1:pos:R:3:velocities:R:3:Z:I:1
H         6.54363678       5.68670960       6.56076012         0.00000000       0.00000000       0.00000000          1
H         7.17732174       5.13721863       9.22548535         0.00000000       0.00000000       0.00000000          1
H         4.69438201       3.90166746       9.56116991         0.00000000       0.00000000       0.00000000          1
H         6.40568161       3.06563790       7.51744735         0.00000000       0.00000000       0.00000000          1
H         4.06069468       4.45115196       6.89644027         0.00000000       0.00000000       0.00000000          1
H         4.83233884       6.52273615       8.60447683         0.00000000       0.00000000       0.00000000          1
6
pbc=[F, F, F] list_num_par=6 frozen=false iter=20000 energy=-1.26974174 Lattice="15.00000000 0.00000000 0.00000000 0.00000000 15.00000000 0.00000000 0.00000000 0.00000000 15.00000000" energy_frozen_part=0.00000000 Properties=species:S:1:pos:R:3:velocities:R:3:Z:I:1
H         6.54364525       5.68671826       6.56073192         0.00000000       0.00000000       0.00000000          1
H         7.17735869       5.13720274       9.22545448         0.00000000       0.00000000       0.00000000          1
H         4.69440351       3.90168403       9.56115576         0.00000000       0.00000000       0.00000000          1
H         6.40566485       3.06564580       7.51740889         0.00000000       0.00000000       0.00000000          1
H         4.06068756       4.45119808       6.89643644         0.00000000       0.00000000       0.00000000          1
H         4.83238251       6.52275367       8.60447229         0.00000000       0.00000000       0.00000000          1
6
pbc=[F, F, F] list_num_par=6 frozen=false iter=20000 energy=-1.26974174 Lattice="15.00000000 0.00000000 0.00000000 0.00000000 15.00000000 0.00000000 0.00000000 0.00000000 15.00000000" energy_frozen_part=0.00000000 Properties=species:S:1:pos:R:3:velocities:R:3:Z:I:1
H         6.55455802       5.67595757       6.58173501         0.00000000       0.00000000       0.00000000          1
H         7.18193600       5.12289218       9.24721700         0.00000000       0.00000000       0.00000000          1
H         4.69398742       3.89618120       9.57826672         0.00000000       0.00000000       0.00000000          1
H         6.40557023       3.05494517       7.53691732         0.00000000       0.00000000       0.00000000          1
H         4.06662191       4.44924296       6.91278390         0.00000000       0.00000000       0.00000000          1
H         4.84298504       6.51719413       8.62308280         0.00000000       0.00000000       0.00000000          1
6
pbc=[F, F, F] list_num_par=6 frozen=false iter=20000 energy=-1.26974174 Lattice="15.00000000 0.00000000 0.00000000 0.00000000 15.00000000 0.00000000 0.00000000 0.00000000 15.00000000" energy_frozen_part=0.00000000 Properties=species:S:1:pos:R:3:velocities:R:3:Z:I:1
H         6.55459760       5.67590473       6.58176348         0.00000000       0.00000000       0.00000000          1
H         7.18193598       5.12282331       9.24725292         0.00000000       0.00000000       0.00000000          1
H         4.69395373       3.89619216       9.57829420         0.00000000       0.00000000       0.00000000          1
H         6.40551462       3.05489881       7.53694976         0.00000000       0.00000000       0.00000000          1
H         4.06661538       4.44927601       6.91281172         0.00000000       0.00000000       0.00000000          1
H         4.84304408       6.51719920       8.62310552         0.00000000       0.00000000       0.00000000          1
6
pbc=[F, F, F] list_num_par=6 frozen=false iter=20000 energy=-1.26974174 Lattice="15.00000000 0.00000000 0.00000000 0.00000000 15.00000000 0.00000000 0.00000000 0.00000000 15.00000000" energy_frozen_part=0.00000000 Properties=species:S:1:pos:R:3:velocities:R:3:Z:I:1
H         6.54447303       5.73738932       6.58261492         0.00000000       0.00000000       0.00000000          1
H         7.16514103       5.15704269       9.24386789         0.00000000       0.00000000       0.00000000          1
H         4.69968346       3.87710900       9.53975695         0.00000000       0.00000000       0.00000000          1
H         6.44077566       3.10002598       7.49794099         0.00000000       0.00000000       0.00000000          1
H         4.07900775       4.45746255       6.87850595         0.00000000       0.00000000       0.00000000          1
H         4.80337491       6.51447989       8.62442283         0.00000000       0.00000000       0.00000000          1
6
pbc=[F, F, F] list_num_par=6 frozen=false iter=20000 energy=-1.26974174 Lattice="15.00000000 0.00000000 0.00000000 0.00000000 15.00000000 0.00000000 0.00000000 0.00000000 15.00000000" energy_frozen_part=0.00000000 Properties=species:S:1:pos:R:3:velocities:R:3:Z:I:1
H         6.54367032       5.68668589       6.56073596         0.00000000       0.00000000       0.00000000          1
H         7.17737261       5.13720492       9.22546226         0.00000000       0.00000000       0.00000000          1
H         4.69440222       3.90171286       9.56116738         0.00000000       0.00000000       0.00000000          1
H         6.40566920       3.06562737       7.51744364         0.00000000       0.00000000       0.00000000          1
H         4.06070203       4.45118232       6.89643961         0.00000000       0.00000000       0.00000000          1
H         4.83239882       6.52276557       8.60445987         0.00000000       0.00000000       0.00000000          1
6
pbc=[F, F, F] list_num_par=6 frozen=false iter=20000 energy=-1.26974174 Lattice="15.00000000 0.00000000 0.00000000 0.00000000 15.00000000 0.00000000 0.00000000 0.00000000 15.00000000" energy_frozen_part=0.00000000 Properties=species:S:1:pos:R:3:velocities:R:3:Z:I:1
H         6.55460149       5.67595979       6.58178610         0.00000000       0.00000000       0.00000000          1
H         7.18192194       5.12287712       9.24728627         0.00000000       0.00000000       0.00000000          1
H         4.69394487       3.89622256       9.57829666         0.00000000       0.00000000       0.00000000          1
H         6.40552796       3.05495189       7.53696580         0.00000000       0.00000000       0.00000000          1
H         4.06662241       4.44930964       6.91280848         0.00000000       0.00000000       0.00000000          1
H         4.84302230       6.51723085       8.62312324         0.00000000       0.00000000       0.00000000          1
6
pbc=[F, F, F] list_num_par=6 frozen=false iter=20000 energy=-1.26974174 Lattice="15.00000000 0.00000000 0.00000000 0.00000000 15.00000000 0.00000000 0.00000000 0.00000000 15.00000000" energy_frozen_part=0.00000000 Properties=species:S:1:pos:R:3:velocities:R:3:Z:I:1
H         6.55459470       5.67598301       6.58178825         0.00000000       0.00000000       0.00000000          1
H         7.18191973       5.12288025       9.24728053         0.00000000       0.00000000       0.00000000          1
H         4.69395193       3.89620233       9.57829065         0.00000000       0.00000000       0.00000000          1
H         6.40554357       3.05496485       7.53694384         0.00000000       0.00000000       0.00000000          1
H         4.06662388       4.44930479       6.91280538         0.00000000       0.00000000       0.00000000          1
H         4.84300589       6.51722407       8.62312986         0.00000000       0.00000000       0.00000000          1
6
pbc=[F, F, F] list_num_par=6 frozen=false iter=20000 energy=-1.26974174 Lattice="15.00000000 0.00000000 0.00000000 0.00000000 15.00000000 0.00000000 0.00000000 0.00000000 15.00000000" energy_frozen_part=0.00000000 Properties=species:S:1:pos:R:3:velocities:R:3:Z:I:1
H         6.55456724       5.67596026       6.58173118         0.00000000       0.00000000       0.00000000          1
H         7.18193229       5.12289091       9.24722089         0.00000000       0.00000000       0.00000000          1
H         4.69398786       3.89618364       9.57826253         0.00000000       0.00000000       0.00000000          1
H         6.40557163       3.05494923       7.53691063         0.00000000       0.00000000       0.00000000          1
H         4.06662651       4.44924428       6.91277251         0.00000000       0.00000000       0.00000000          1
H         4.84298623       6.51719081       8.62308115         0.00000000       0.00000000       0.00000000          1
6
pbc=[F, F, F] list_num_par=6 frozen=false iter=20000 energy=-1.26974174 Lattice="15.00000000 0.00000000 0.00000000 0.00000000 15.00000000 0.00000000 0.00000000 0.00000000 15.00000000" energy_frozen_part=0.00000000 Properties=species:S:1:pos:R:3:velocities:R:3:Z:I:1
H         6.54366679       5.68672891       6.56073965         0.00000000       0.00000000       0.00000000          1
H         7.17738473       5.13721558       9.22545858         0.00000000       0.00000000       0.00000000          1
H         4.69442532       3.90169092       9.56116366         0.00000000       0.00000000       0.00000000          1
H         6.40568341       3.06565189       7.51741323         0.00000000       0.00000000       0.00000000          1
H         4.06071040       4.45120856       6.89644649         0.00000000       0.00000000       0.00000000          1
H         4.83240908       6.52276814       8.60448822         0.00000000       0.00000000       0.00000000          1
6
pbc=[F, F, F] list_num_par=6 frozen=false iter=20000 energy=-1.26974174 Lattice="15.00000000 0.00000000 0.00000000 0.00000000 15.00000000 0.00000000 0.00000000 0.00000000 15.00000000" energy_frozen_part=0.00000000 Properties=species:S:1:pos:R:3:velocities:R:3:Z:I:1
H         6.55458575       5.67597989       6.58181137         0.00000000       0.00000000       0.00000000          1
H         7.18193212       5.12286180       9.24728880         0.00000000       0.00000000       0.00000000          1
H         4.69395601       3.89620450       9.57830923         0.00000000       0.00000000       0.00000000          1
H         6.40552591       3.05495717       7.53695537         0.00000000       0.00000000       0.00000000          1
H         4.06661267       4.44931140       6.91282694         0.00000000       0.00000000       0.00000000          1
H         4.84301718       6.51722012       8.62316779         0.00000000       0.00000000       0.00000000          1
6
pbc=[F, F, F] list_num_par=6 frozen=false iter=20000 energy=-1.26974174 Lattice="15.00000000 0.00000000 0.00000000 0.00000000 15.00000000 0.00000000 0.00000000 0.00000000 15.00000000" energy_frozen_part=0.00000000 Properties=species:S:1:pos:R:3:velocities:R:3:Z:I:1
H         6.54450411       5.73758611       6.58262448         0.00000000       0.00000000       0.00000000          1
H         7.16507698       5.15720414       9.24389306         0.00000000       0.00000000       0.00000000          1
H         4.69966661       3.87714148       9.53963001         0.00000000       0.00000000       0.00000000          1
H         6.44089906       3.10018902       7.49788328         0.00000000       0.00000000       0.00000000          1
H         4.07909881       4.45752406       6.87836334         0.00000000       0.00000000       0.00000000          1
H         4.80326720       6.51453720       8.62437201         0.00000000       0.00000000       0.00000000          1
6
pbc=[F, F, F] list_num_par=6 frozen=false iter=20000 energy=-1.26974174 Lattice="15.00000000 0.00000000 0.00000000 0.00000000 15.00000000 0.00000000 0.00000000 0.00000000 15.00000000" energy_frozen_part=0.00000000 Properties=species:S:1:pos:R:3:velocities:R:3:Z:I:1
H         6.54367032       5.68669554       6.56074597         0.00000000       0.00000000       0.00000000          1
H         7.17734667       5.13721869       9.22548682         0.00000000       0.00000000       0.00000000          1
H         4.69438529       3.90170653       9.56116782         0.00000000       0.00000000       0.00000000          1
H         6.40568396       3.06563734       7.51745534         0.00000000       0.00000000       0.00000000          1
H         4.06071305       4.45117848       6.89643281         0.00000000       0.00000000       0.00000000          1
H         4.83237497       6.52276626       8.60445800         0.00000000       0.00000000       0.00000000          1
6
pbc=[F, F, F] list_num_par=6 frozen=false iter=20000 energy=-1.26974174 Lattice="15.00000000 0.00000000 0.00000000 0.00000000 15.00000000 0.00000000 0.00000000 0.00000000 15.00000000" energy_frozen_part=0.00000000 Properties=species:S:1:pos:R:3:velocities:R:3:Z:I:1
H         6.55521009       5.67594398       6.58181413         0.00000000       0.00000000       0.00000000          1
H         7.18190467       5.12274213       9.24742894         0.00000000       0.00000000       0.00000000          1
H         4.69376838       3.89625103       9.57785512         0.00000000       0.00000000       0.00000000          1
H         6.40574609       3.05491393       7.53688098         0.00000000       0.00000000       0.00000000          1
H         4.06708154       4.44945473       6.91223704         0.00000000       0.00000000       0.00000000          1
H         4.84323803       6.51728096       8.62278737         0.00000000       0.00000000       0.00000000          1
6
pbc=[F, F, F] list_num_par=6 frozen=false iter=20000 energy=-1.26974174 Lattice="15.00000000 0.00000000 0.00000000 0.00000000 15.00000000 0.00000000 0.00000000 0.00000000 15.00000000" energy_frozen_part=0.00000000 Properties=species:S:1:pos:R:3:velocities:R:3:Z:I:1
H         6.55460646       5.67597847       6.58176854         0.00000000       0.00000000       0.00000000          1
H         7.18189812       5.12286085       9.24726677         0.00000000       0.00000000       0.00000000          1
H         4.69392175       3.89618561       9.57823163         0.00000000       0.00000000       0.00000000          1
H         6.40553961       3.05495540       7.53691363         0.00000000       0.00000000       0.00000000          1
H         4.06662822       4.44930305       6.91273901         0.00000000       0.00000000       0.00000000          1
H         4.84298642       6.51720898       8.62308917         0.00000000       0.00000000       0.00000000          1
6
pbc=[F, F, F] list_num_par=6 frozen=false iter=20000 energy=-1.26974174 Lattice="15.00000000 0.00000000 0.00000000 0.00000000 15.00000000 0.00000000 0.00000000 0.00000000 15.00000000" energy_frozen_part=0.00000000 Properties=species:S:1:pos:R:3:velocities:R:3:Z:I:1
H         6.54367160       5.68669897       6.56074223         0.00000000       0.00000000       0.00000000          1
H         7.17733537       5.13722839       9.22548292         0.00000000       0.00000000       0.00000000          1
H         4.69437911       3.90171532       9.56116574         0.00000000       0.00000000       0.00000000          1
H         6.40568077       3.06564120       7.51745763         0.00000000       0.00000000       0.00000000          1
H         4.06070950       4.45118334       6.89642587         0.00000000       0.00000000       0.00000000          1
H         4.83237171       6.52276876       8.60444811         0.00000000       0.00000000       0.00000000          1
6
pbc=[F, F, F] list_num_par=6 frozen=false iter=20000 energy=-1.26974174 Lattice="15.00000000 0.00000000 0.00000000 0.00000000 15.00000000 0.00000000 0.00000000 0.00000000 15.00000000" energy_frozen_part=0.00000000 Properties=species:S:1:pos:R:3:velocities:R:3:Z:I:1
H         6.55521726       5.67596626       6.58183272         0.00000000       0.00000000       0.00000000          1
H         7.18190883       5.12273743       9.24743997         0.00000000       0.00000000       0.00000000          1
H         4.69377286       3.89624197       9.57785878         0.00000000       0.00000000       0.00000000          1
H         6.40574798       3.05492428       7.53687510         0.00000000       0.00000000       0.00000000          1
H         4.06707800       4.44947946       6.91224673         0.00000000       0.00000000       0.00000000          1
H         4.84324071       6.51727924       8.62281714         0.00000000       0.00000000       0.00000000          1
6
pbc=[F, F, F] list_num_par=6 frozen=false iter=20000 energy=-1.26974174 Lattice="15.00000000 0.00000000 0.00000000 0.00000000 15.00000000 0.00000000 0.00000000 0.00000000 15.00000000" energy_frozen_part=0.00000000 Properties=species:S:1:pos:R:3:velocities:R:3:Z:I:1
H         6.54360328       5.68633498       6.56063854         0.00000000       0.00000000       0.00000000          1
H         7.17725885       5.13725110       9.22546044         0.00000000       0.00000000       0.00000000          1
H         4.69431466       3.90174777       9.56128508         0.00000000       0.00000000       0.00000000          1
H         6.40564723       3.06540979       7.51772267         0.00000000       0.00000000       0.00000000          1
H         4.06066191       4.45082791       6.89646477         0.00000000       0.00000000       0.00000000          1
H         4.83227180       6.52267238       8.60420886         0.00000000       0.00000000       0.00000000          1
6
pbc=[F, F, F] list_num_par=6 frozen=false iter=20000 energy=-1.26974174 Lattice="15.00000000 0.00000000 0.00000000 0.00000000 15.00000000 0.00000000 0.00000000 0.00000000 15.00000000" energy_frozen_part=0.00000000 Properties=species:S:1:pos:R:3:velocities:R:3:Z:I:1
H         6.54366330       5.68670502       6.56077199         0.00000000       0.00000000       0.00000000          1
H         7.17732618       5.13721177       9.22550244         0.00000000       0.00000000       0.00000000          1
H         4.69437484       3.90167670       9.56116345         0.00000000       0.00000000       0.00000000          1
H         6.40568779       3.06563640       7.51745299         0.00000000       0.00000000       0.00000000          1
H         4.06070589       4.45116573       6.89643103         0.00000000       0.00000000       0.00000000          1
H         4.83235428       6.52274180       8.60447460         0.00000000       0.00000000       0.00000000          1
6
pbc=[F, F, F] list_num_par=6 frozen=false iter=20000 energy=-1.26974174 Lattice="15.00000000 0.00000000 0.00000000 0.00000000 15.00000000 0.00000000 0.00000000 0.00000000 15.00000000" energy_frozen_part=0.00000000 Properties=species:S:1:pos:R:3:velocities:R:3:Z:I:1
H         6.54366116       5.68669741       6.56074405         0.00000000       0.00000000       0.00000000          1
H         7.17735081       5.13721212       9.22547708         0.00000000       0.00000000       0.00000000          1
H         4.69438509       3.90170071       9.56116204         0.00000000       0.00000000       0.00000000          1
H         6.40567888       3.06563878       7.51744778         0.00000000       0.00000000       0.00000000          1
H         4.06070624       4.45118284       6.89643117         0.00000000       0.00000000       0.00000000          1
H         4.83237631       6.52276167       8.60446269         0.00000000       0.00000000       0.00000000          1
6
pbc=[F, F, F] list_num_par=6 frozen=false iter=20000 energy=-1.26974174 Lattice="15.00000000 0.00000000 0.00000000 0.00000000 15.00000000 0.00000000 0.00000000 0.00000000 15.00000000" energy_frozen_part=0.00000000 Properties=species:S:1:pos:R:3:velocities:R:3:Z:I:1
H         6.54365335       5.68671411       6.56072895         0.00000000       0.00000000       0.00000000          1
H         7.17736850       5.13721636       9.22544984         0.00000000       0.00000000       0.00000000          1
H         4.69441493       3.90168340       9.56115857         0.00000000       0.00000000       0.00000000          1
H         6.40568066       3.06564254       7.51741325         0.00000000       0.00000000       0.00000000          1
H         4.06070349       4.45118167       6.89643383         0.00000000       0.00000000       0.00000000          1
H         4.83238470       6.52275696       8.60446860         0.00000000       0.00000000       0.00000000          1
6
pbc=[F, F, F] list_num_par=6 frozen=false iter=20000 energy=-1.26974174 Lattice="15.00000000 0.00000000 0.00000000 0.00000000 15.00000000 0.00000000 0.00000000 0.00000000 15.00000000" energy_frozen_part=0.00000000 Properties=species:S:1:pos:R:3:velocities:R:3:Z:I:1
H         6.55522789       5.67596388       6.58183393         0.00000000       0.00000000       0.00000000          1
H         7.18189800       5.12273329       9.24744332         0.00000000       0.00000000       0.00000000          1
H         4.69375810       3.89624134       9.57784312         0.00000000       0.00000000       0.00000000          1
H         6.40575398       3.05492697       7.53687718         0.00000000       0.00000000       0.00000000          1
H         4.06708935       4.44946846       6.91223011         0.00000000       0.00000000       0.00000000          1
H         4.84322967       6.51728158       8.62279618         0.00000000       0.00000000       0.00000000          1
6
pbc=[F, F, F] list_num_par=6 frozen=false iter=20000 energy=-1.26974174 Lattice="15.00000000 0.00000000 0.00000000 0.00000000 15.00000000 0.00000000 0.00000000 0.00000000 15.00000000" energy_frozen_part=0.00000000 Properties=species:S:1:pos:R:3:velocities:R:3:Z:I:1
H         6.54450444       5.73760617       6.58262322         0.00000000       0.00000000       0.00000000          1
H         7.16507232       5.15720410       9.24388579         0.00000000       0.00000000       0.00000000          1
H         4.69964977       3.87714935       9.53961170         0.00000000       0.00000000       0.00000000          1
H         6.44089299       3.10020507       7.49786500         0.00000000       0.00000000       0.00000000          1
H         4.07908683       4.45755132       6.87834890         0.00000000       0.00000000       0.00000000          1
H         4.80326549       6.51454747       8.62436982         0.00000000       0.00000000       0.00000000          1
6
pbc=[F, F, F] list_num_par=6 frozen=false iter=20000 energy=-1.26974174 Lattice="15.00000000 0.00000000 0.00000000 0.00000000 15.00000000 0.00000000 0.00000000 0.00000000 15.00000000" energy_frozen_part=0.00000000 Properties=species:S:1:pos:R:3:velocities:R:3:Z:I:1
H         6.54367855       5.68668763       6.56073192         0.00000000       0.00000000       0.00000000          1
H         7.17736329       5.13721854       9.22546597         0.00000000       0.00000000       0.00000000          1
H         4.69439590       3.90170804       9.56116771         0.00000000       0.00000000       0.00000000          1
H         6.40567477       3.06563605       7.51744660         0.00000000       0.00000000       0.00000000          1
H         4.06071098       4.45118607       6.89643526         0.00000000       0.00000000       0.00000000          1
H         4.83239301       6.52276647       8.60445064         0.00000000       0.00000000       0.00000000          1
6
pbc=[F, F, F] list_num_par=6 frozen=false iter=20000 energy=-1.26974174 Lattice="15.00000000 0.00000000 0.00000000 0.00000000 15.00000000 0.00000000 0.00000000 0.00000000 15.00000000" energy_frozen_part=0.00000000 Properties=species:S:1:pos:R:3:velocities:R:3:Z:I:1
H         6.55451079       5.67594120       6.58167633         0.00000000       0.00000000       0.00000000          1
H         7.18188721       5.12286114       9.24715041         0.00000000       0.00000000       0.00000000          1
H         4.69390619       3.89622755       9.57822970         0.00000000       0.00000000       0.00000000          1
H         6.40543148       3.05493027       7.53686435         0.00000000       0.00000000       0.00000000          1
H         4.06652984       4.44931468       6.91274898         0.00000000       0.00000000       0.00000000          1
H         4.84297680       6.51723836       8.62303851         0.00000000       0.00000000       0.00000000          1
6
pbc=[F, F, F] list_num_par=6 frozen=false iter=20000 energy=-1.26974174 Lattice="15.00000000 0.00000000 0.00000000 0.00000000 15.00000000 0.00000000 0.00000000 0.00000000 15.00000000" energy_frozen_part=0.00000000 Properties=species:S:1:pos:R:3:velocities:R:3:Z:I:1
H         6.54367674       5.68667940       6.56073502         0.00000000       0.00000000       0.00000000          1
H         7.17736942       5.13720459       9.22546074         0.00000000       0.00000000       0.00000000          1
H         4.69440428       3.90170703       9.56117757         0.00000000       0.00000000       0.00000000          1
H         6.40566579       3.06562218       7.51744880         0.00000000       0.00000000       0.00000000          1
H         4.06070419       4.45117908       6.89644804         0.00000000       0.00000000       0.00000000          1
H         4.83240364       6.52276037       8.60445607         0.00000000       0.00000000       0.00000000          1
6
pbc=[F, F, F] list_num_par=6 frozen=false iter=20000 energy=-1.26974174 Lattice="15.00000000 0.00000000 0.00000000 0.00000000 15.00000000 0.00000000 0.00000000 0.00000000 15.00000000" energy_frozen_part=0.00000000 Properties=species:S:1:pos:R:3:velocities:R:3:Z:I:1
H         6.54450831       5.73758502       6.58262048         0.00000000       0.00000000       0.00000000          1
H         7.16508709       5.15719903       9.24388652         0.00000000       0.00000000       0.00000000          1
H         4.69967282       3.87713400       9.53961927         0.00000000       0.00000000       0.00000000          1
H         6.44090487       3.10018958       7.49787664         0.00000000       0.00000000       0.00000000          1
H         4.07909673       4.45752182       6.87835709         0.00000000       0.00000000       0.00000000          1
H         4.80328146       6.51453127       8.62436673         0.00000000       0.00000000       0.00000000          1
6
pbc=[F, F, F] list_num_par=6 frozen=false iter=20000 energy=-1.26974174 Lattice="15.00000000 0.00000000 0.00000000 0.00000000 15.00000000 0.00000000 0.00000000 0.00000000 15.00000000" energy_frozen_part=0.00000000 Properties=species:S:1:pos:R:3:velocities:R:3:Z:I:1
H         6.54372511       5.68669437       6.56082947         0.00000000       0.00000000       0.00000000          1
H         7.17735822       5.13709512       9.22555664         0.00000000       0.00000000       0.00000000          1
H         4.69435889       3.90163544       9.56116601         0.00000000       0.00000000       0.00000000          1
H         6.40564646       3.06560274       7.51743973         0.00000000       0.00000000       0.00000000          1
H         4.06072915       4.45123406       6.89644479         0.00000000       0.00000000       0.00000000          1
H         4.83243668       6.52272937       8.60456123         0.00000000       0.00000000       0.00000000          1
6
pbc=[F, F, F] list_num_par=6 frozen=false iter=20000 energy=-1.26974174 Lattice="15.00000000 0.00000000 0.00000000 0.00000000 15.00000000 0.00000000 0.00000000 0.00000000 15.00000000" energy_frozen_part=0.00000000 Properties=species:S:1:pos:R:3:velocities:R:3:Z:I:1
H         6.55451065       5.67594117       6.58167019         0.00000000       0.00000000       0.00000000          1
H         7.18188371       5.12286483       9.24715088         0.00000000       0.00000000       0.00000000          1
H         4.69390204       3.89622506       9.57821574         0.00000000       0.00000000       0.00000000          1
H         6.40544388       3.05493860       7.53685904         0.00000000       0.00000000       0.00000000          1
H         4.06653419       4.44931012       6.91273417         0.00000000       0.00000000       0.00000000          1
H         4.84296917       6.51723170       8.62303465         0.00000000       0.00000000       0.00000000          1
6
pbc=[F, F, F] list_num_par=6 frozen=false iter=20000 energy=-1.26974174 Lattice="15.00000000 0.00000000 0.00000000 0.00000000 15.00000000 0.00000000 0.00000000 0.00000000 15.00000000" energy_frozen_part=0.00000000 Properties=species:S:1:pos:R:3:velocities:R:3:Z:I:1
H         6.55522621       5.67595822       6.58182965         0.00000000       0.00000000       0.00000000          1
H         7.18188811       5.12273200       9.24744634         0.00000000       0.00000000       0.00000000          1
H         4.69375309       3.89624777       9.57783867         0.00000000       0.00000000       0.00000000          1
H         6.40574754       3.05492216       7.53687296         0.00000000       0.00000000       0.00000000          1
H         4.06708791       4.44946689       6.91221900         0.00000000       0.00000000       0.00000000          1
H         4.84322968       6.51727952       8.62279312         0.00000000       0.00000000       0.00000000          1
6
pbc=[F, F, F] list_num_par=6 frozen=false iter=20000 energy=-1.26974174 Lattice="15.00000000 0.00000000 0.00000000 0.00000000 15.00000000 0.00000000 0.00000000 0.00000000 15.00000000" energy_frozen_part=0.00000000 Properties=species:S:1:pos:R:3:velocities:R:3:Z:I:1
H         6.54365871       5.68670069       6.56076420         0.00000000       0.00000000       0.00000000          1
H         7.17733304       5.13721654       9.22550106         0.00000000       0.00000000       0.00000000          1
H         4.69437659       3.90167874       9.56116843         0.00000000       0.00000000       0.00000000          1
H         6.40567521       3.06564078       7.51745518         0.00000000       0.00000000       0.00000000          1
H         4.06069954       4.45116597       6.89643282         0.00000000       0.00000000       0.00000000          1
H         4.83235152       6.52274294       8.60447646         0.00000000       0.00000000       0.00000000          1
6
pbc=[F, F, F] list_num_par=6 frozen=false iter=20000 energy=-1.26974174 Lattice="15.00000000 0.00000000 0.00000000 0.00000000 15.00000000 0.00000000 0.00000000 0.00000000 15.00000000" energy_frozen_part=0.00000000 Properties=species:S:1:pos:R:3:velocities:R:3:Z:I:1
H         6.54372672       5.68668869       6.56082592         0.00000000       0.00000000       0.00000000          1
H         7.17736261       5.13710611       9.22554404         0.00000000       0.00000000       0.00000000          1
H         4.69436217       3.90163657       9.56115868         0.00000000       0.00000000       0.00000000          1
H         6.40566291       3.06559507       7.51744320         0.00000000       0.00000000       0.00000000          1
H         4.06073119       4.45122293       6.89643708         0.00000000       0.00000000       0.00000000          1
H         4.83243183       6.52272520       8.60454794         0.00000000       0.00000000       0.00000000          1
6
pbc=[F, F, F] list_num_par=6 frozen=false iter=20000 energy=-1.26974174 Lattice="15.00000000 0.00000000 0.00000000 0.00000000 15.00000000 0.00000000 0.00000000 0.00000000 15.00000000" energy_frozen_part=0.00000000 Properties=species:S:1:pos:R:3:velocities:R:3:Z:I:1
H         6.54366718       5.68670047       6.56076126         0.00000000       0.00000000       0.00000000          1
H         7.17733130       5.13721233       9.22549243         0.00000000       0.00000000       0.00000000          1
H         4.69437282       3.90168584       9.56116417         0.00000000       0.00000000       0.00000000          1
H         6.40568269       3.06563716       7.51745313         0.00000000       0.00000000       0.00000000          1
H         4.06070901       4.45116938       6.89642877         0.00000000       0.00000000       0.00000000          1
H         4.83235444       6.52274679       8.60447051         0.00000000       0.00000000       0.00000000          1
6
pbc=[F, F, F] list_num_par=6 frozen=false iter=20000 energy=-1.26974174 Lattice="15.00000000 0.00000000 0.00000000 0.00000000 15.00000000 0.00000000 0.00000000 0.00000000 15.00000000" energy_frozen_part=0.00000000 Properties=species:S:1:pos:R:3:velocities:R:3:Z:I:1
H         6.54366692       5.68668703       6.56073930         0.00000000       0.00000000       0.00000000          1
H         7.17735805       5.13720940       9.22547186         0.00000000       0.00000000       0.00000000          1
H         4.69439282       3.90170794       9.56116899         0.00000000       0.00000000       0.00000000          1
H         6.40566846       3.06562733       7.51744387         0.00000000       0.00000000       0.00000000          1
H         4.06070015       4.45119201       6.89643759         0.00000000       0.00000000       0.00000000          1
H         4.83239757       6.52276692       8.60446259         0.00000000       0.00000000       0.00000000          1
6
pbc=[F, F, F] list_num_par=6 frozen=false iter=20000 energy=-1.26974174 Lattice="15.00000000 0.00000000 0.00000000 0.00000000 15.00000000 0.00000000 0.00000000 0.00000000 15.00000000" energy_frozen_part=0.00000000 Properties=species:S:1:pos:R:3:velocities:R:3:Z:I:1
H         6.54366346       5.68669137       6.56075234         0.00000000       0.00000000       0.00000000          1
H         7.17734752       5.13721355       9.22547933         0.00000000       0.00000000       0.00000000          1
H         4.69438126       3.90170087       9.56116764         0.00000000       0.00000000       0.00000000          1
H         6.40566861       3.06563144       7.51745774         0.00000000       0.00000000       0.00000000          1
H         4.06070232       4.45117893       6.89643405         0.00000000       0.00000000       0.00000000          1
H         4.83237334       6.52275643       8.60445993         0.00000000       0.00000000       0.00000000          1
6
pbc=[F, F, F] list_num_par=6 frozen=false iter=20000 energy=-1.26974174 Lattice="15.00000000 0.00000000 0.00000000 0.00000000 15.00000000 0.00000000 0.00000000 0.00000000 15.00000000" energy_frozen_part=0.00000000 Properties=species:S:1:pos:R:3:velocities:R:3:Z:I:1
H         6.54371514       5.68668178       6.56081663         0.00000000       0.00000000       0.00000000          1
H         7.17731638       5.13710772       9.22554672         0.00000000       0.00000000       0.00000000          1
H         4.69432728       3.90161603       9.56113827         0.00000000       0.00000000       0.00000000          1
H         6.40565828       3.06558786       7.51744026         0.00000000       0.00000000       0.00000000          1
H         4.06072711       4.45119194       6.89640373         0.00000000       0.00000000       0.00000000          1
H         4.83238596       6.52270257       8.60451631         0.00000000       0.00000000       0.00000000          1
6
pbc=[F, F, F] list_num_par=6 frozen=false iter=20000 energy=-1.26974174 Lattice="15.00000000 0.00000000 0.00000000 0.00000000 15.00000000 0.00000000 0.00000000 0.00000000 15.00000000" energy_frozen_part=0.00000000 Properties=species:S:1:pos:R:3:velocities:R:3:Z:I:1
H         6.54336308       5.68735067       6.56087308         0.00000000       0.00000000       0.00000000          1
H         7.17693992       5.13763822       9.22558086         0.00000000       0.00000000       0.00000000          1
H         4.69411220       3.90175597       9.56095957         0.00000000       0.00000000       0.00000000          1
H         6.40564594       3.06615540       7.51725777         0.00000000       0.00000000       0.00000000          1
H         4.06054354       4.45146769       6.89624423         0.00000000       0.00000000       0.00000000          1
H         4.83182704       6.52294483       8.60457399         0.00000000       0.00000000       0.00000000          1
6
pbc=[F, F, F] list_num_par=6 frozen=false iter=20000 energy=-1.26974174 Lattice="15.00000000 0.00000000 0.00000000 0.00000000 15.00000000 0.00000000 0.00000000 0.00000000 15.00000000" energy_frozen_part=0.00000000 Properties=species:S:1:pos:R:3:velocities:R:3:Z:I:1
H         6.54366303       5.68670744       6.56076475         0.00000000       0.00000000       0.00000000          1
H         7.17733042       5.13721325       9.22549750         0.00000000       0.00000000       0.00000000          1
H         4.69437672       3.90167074       9.56116332         0.00000000       0.00000000       0.00000000          1
H         6.40568274       3.06564096       7.51745152         0.00000000       0.00000000       0.00000000          1
H         4.06070490       4.45116172       6.89642379         0.00000000       0.00000000       0.00000000          1
H         4.83235158       6.52273821       8.60447371         0.00000000       0.00000000       0.00000000          1
6
pbc=[F, F, F] list_num_par=6 frozen=false iter=20000 energy=-1.26974174 Lattice="15.00000000 0.00000000 0.00000000 0.00000000 15.00000000 0.00000000 0.00000000 0.00000000 15.00000000" energy_frozen_part=0.00000000 Properties=species:S:1:pos:R:3:velocities:R:3:Z:I:1
H         6.54365053       5.68670670       6.56074937         0.00000000       0.00000000       0.00000000          1
H         7.17731456       5.13721898       9.22548785         0.00000000       0.00000000       0.00000000          1
H         4.69436341       3.90169550       9.56115827         0.00000000       0.00000000       0.00000000          1
H         6.40565799       3.06564190       7.51744621         0.00000000       0.00000000       0.00000000          1
H         4.06068931       4.45117960       6.89642046         0.00000000       0.00000000       0.00000000          1
H         4.83234579       6.52275837       8.60445903         0.00000000       0.00000000       0.00000000          1
6
pbc=[F, F, F] list_num_par=6 frozen=false iter=20000 energy=-1.26974174 Lattice="15.00000000 0.00000000 0.00000000 0.00000000 15.00000000 0.00000000 0.00000000 0.00000000 15.00000000" energy_frozen_part=0.00000000 Properties=species:S:1:pos:R:3:velocities:R:3:Z:I:1
H         6.54372487       5.68671883       6.56084399         0.00000000       0.00000000       0.00000000          1
H         7.17731661       5.13712575       9.22557737         0.00000000       0.00000000       0.00000000          1
H         4.69431567       3.90167058       9.56115478         0.00000000       0.00000000       0.00000000          1
H         6.40563934       3.06563124       7.51745407         0.00000000       0.00000000       0.00000000          1
H         4.06071996       4.45125125       6.89641895         0.00000000       0.00000000       0.00000000          1
H         4.83240358       6.52275795       8.60453866         0.00000000       0.00000000       0.00000000          1
6
pbc=[F, F, F] list_num_par=6 frozen=false iter=20000 energy=-1.26974174 Lattice="15.00000000 0.00000000 0.00000000 0.00000000 15.00000000 0.00000000 0.00000000 0.00000000 15.00000000" energy_frozen_part=0.00000000 Properties=species:S:1:pos:R:3:velocities:R:3:Z:I:1
H         6.55459368       5.67597635       6.58181586         0.00000000       0.00000000       0.00000000          1
H         7.18193695       5.12285647       9.24729238         0.00000000       0.00000000       0.00000000          1
H         4.69396421       3.89619017       9.57830781         0.00000000       0.00000000       0.00000000          1
H         6.40553977       3.05495381       7.53695726         0.00000000       0.00000000       0.00000000          1
H         4.06662298       4.44931413       6.91283178         0.00000000       0.00000000       0.00000000          1
H         4.84301863       6.51721640       8.62317409         0.00000000       0.00000000       0.00000000          1
6
pbc=[F, F, F] list_num_par=6 frozen=false iter=20000 energy=-1.26974174 Lattice="15.00000000 0.00000000 0.00000000 0.00000000 15.00000000 0.00000000 0.00000000 0.00000000 15.00000000" energy_frozen_part=0.00000000 Properties=species:S:1:pos:R:3:velocities:R:3:Z:I:1
H         6.54365308       5.68670950       6.56072502         0.00000000       0.00000000       0.00000000          1
H         7.17736839       5.13723077       9.22544854         0.00000000       0.00000000       0.00000000          1
H         4.69441655       3.90169324       9.56115497         0.00000000       0.00000000       0.00000000          1
H         6.40569420       3.06564854       7.51741601         0.00000000       0.00000000       0.00000000          1
H         4.06070165       4.45117713       6.89643364         0.00000000       0.00000000       0.00000000          1
H         4.83237959       6.52276000       8.60445934         0.00000000       0.00000000       0.00000000          1
6
pbc=[F, F, F] list_num_par=6 frozen=false iter=20000 energy=-1.26974174 Lattice="15.00000000 0.00000000 0.00000000 0.00000000 15.00000000 0.00000000 0.00000000 0.00000000 15.00000000" energy_frozen_part=0.00000000 Properties=species:S:1:pos:R:3:velocities:R:3:Z:I:1
H         6.54371350       5.68670757       6.56082438         0.00000000       0.00000000       0.00000000          1
H         7.17736084       5.13713293       9.22554686         0.00000000       0.00000000       0.00000000          1
H         4.69437194       3.90165803       9.56116533         0.00000000       0.00000000       0.00000000          1
H         6.40566494       3.06562166       7.51744109         0.00000000       0.00000000       0.00000000          1
H         4.06072393       4.45122411       6.89644785         0.00000000       0.00000000       0.00000000          1
H         4.83242169       6.52274051       8.60454422         0.00000000       0.00000000       0.00000000          1
6
pbc=[F, F, F] list_num_par=6 frozen=false iter=20000 energy=-1.26974174 Lattice="15.00000000 0.00000000 0.00000000 0.00000000 15.00000000 0.00000000 0.00000000 0.00000000 15.00000000" energy_frozen_part=0.00000000 Properties=species:S:1:pos:R:3:velocities:R:3:Z:I:1
H         6.54367622       5.68669836       6.56075173         0.00000000       0.00000000       0.00000000          1
H         7.17734808       5.13722467       9.22548535         0.00000000       0.00000000       0.00000000          1
H         4.69438623       3.90170652       9.56117545         0.00000000       0.00000000       0.00000000          1
H         6.40568434       3.06563567       7.51746488         0.00000000       0.00000000       0.00000000          1
H         4.06071315       4.45118043       6.89643708         0.00000000       0.00000000       0.00000000          1
H         4.83237943       6.52276365       8.60445580         0.00000000       0.00000000       0.00000000          1
6
pbc=[F, F, F] list_num_par=6 frozen=false iter=20000 energy=-1.26974174 Lattice="15.00000000 0.00000000 0.00000000 0.00000000 15.00000000 0.00000000 0.00000000 0.00000000 15.00000000" energy_frozen_part=0.00000000 Properties=species:S:1:pos:R:3:velocities:R:3:Z:I:1
H         6.55458455       5.67596050       6.58175943         0.00000000       0.00000000       0.00000000          1
H         7.18192311       5.12287110       9.24724527         0.00000000       0.00000000       0.00000000          1
H         4.69396154       3.89618700       9.57826991         0.00000000       0.00000000       0.00000000          1
H         6.40554473       3.05493984       7.53692544         0.00000000       0.00000000       0.00000000          1
H         4.06662504       4.44927364       6.91277814         0.00000000       0.00000000       0.00000000          1
H         4.84300295       6.51720124       8.62309422         0.00000000       0.00000000       0.00000000          1
6
pbc=[F, F, F] list_num_par=6 frozen=false iter=20000 energy=-1.26974174 Lattice="15.00000000 0.00000000 0.00000000 0.00000000 15.00000000 0.00000000 0.00000000 0.00000000 15.00000000" energy_frozen_part=0.00000000 Properties=species:S:1:pos:R:3:velocities:R:3:Z:I:1
H         6.54366845       5.68671016       6.56072325         0.00000000       0.00000000       0.00000000          1
H         7.17737249       5.13721993       9.22545557         0.00000000       0.00000000       0.00000000          1
H         4.69442115       3.90168909       9.56115065         0.00000000       0.00000000       0.00000000          1
H         6.40569773       3.06564674       7.51742173         0.00000000       0.00000000       0.00000000          1
H         4.06071637       4.45117942       6.89642853         0.00000000       0.00000000       0.00000000          1
H         4.83239039       6.52275968       8.60445666         0.00000000       0.00000000       0.00000000          1
6
pbc=[F, F, F] list_num_par=6 frozen=false iter=20000 energy=-1.26974174 Lattice="15.00000000 0.00000000 0.00000000 0.00000000 15.00000000 0.00000000 0.00000000 0.00000000 15.00000000" energy_frozen_part=0.00000000 Properties=species:S:1:pos:R:3:velocities:R:3:Z:I:1
H         6.54365068       5.68669509       6.56077420         0.00000000       0.00000000       0.00000000          1
H         7.17734540       5.13714898       9.22549411         0.00000000       0.00000000       0.00000000          1
H         4.69435353       3.90170192       9.56119242         0.00000000       0.00000000       0.00000000          1
H         6.40560225       3.06562297       7.51744285         0.00000000       0.00000000       0.00000000          1
H         4.06066127       4.45124139       6.89647029         0.00000000       0.00000000       0.00000000          1
H         4.83240998       6.52277267       8.60452150         0.00000000       0.00000000       0.00000000          1
6
pbc=[F, F, F] list_num_par=6 frozen=false iter=20000 energy=-1.26974174 Lattice="15.00000000 0.00000000 0.00000000 0.00000000 15.00000000 0.00000000 0.00000000 0.00000000 15.00000000" energy_frozen_part=0.00000000 Properties=species:S:1:pos:R:3:velocities:R:3:Z:I:1
H         6.55459016       5.67598129       6.58181528         0.00000000       0.00000000       0.00000000          1
H         7.18193350       5.12286009       9.24729292         0.00000000       0.00000000       0.00000000          1
H         4.69396016       3.89619947       9.57830847         0.00000000       0.00000000       0.00000000          1
H         6.40552641       3.05495814       7.53695635         0.00000000       0.00000000       0.00000000          1
H         4.06661596       4.44931222       6.91282625         0.00000000       0.00000000       0.00000000          1
H         4.84301578       6.51721922       8.62315928         0.00000000       0.00000000       0.00000000          1
6
pbc=[F, F, F] list_num_par=6 frozen=false iter=20000 energy=-1.26974174 Lattice="15.00000000 0.00000000 0.00000000 0.00000000 15.00000000 0.00000000 0.00000000 0.00000000 15.00000000" energy_frozen_part=0.00000000 Properties=species:S:1:pos:R:3:velocities:R:3:Z:I:1
H         6.54366298       5.68672340       6.56073943         0.00000000       0.00000000       0.00000000          1
H         7.17737596       5.13720287       9.22545976         0.00000000       0.00000000       0.00000000          1
H         4.69441447       3.90168972       9.56115325         0.00000000       0.00000000       0.00000000          1
H         6.40567933       3.06565401       7.51741102         0.00000000       0.00000000       0.00000000          1
H         4.06070361       4.45120788       6.89643982         0.00000000       0.00000000       0.00000000          1
H         4.83239925       6.52276151       8.60449132         0.00000000       0.00000000       0.00000000          1
6
pbc=[F, F, F] list_num_par=6 frozen=false iter=20000 energy=-1.26974174 Lattice="15.00000000 0.00000000 0.00000000 0.00000000 15.00000000 0.00000000 0.00000000 0.00000000 15.00000000" energy_frozen_part=0.00000000 Properties=species:S:1:pos:R:3:velocities:R:3:Z:I:1
H         6.54364824       5.68670078       6.56074537         0.00000000       0.00000000       0.00000000          1
H         7.17732112       5.13722591       9.22548616         0.00000000       0.00000000       0.00000000          1
H         4.69436569       3.90168772       9.56116401         0.00000000       0.00000000       0.00000000          1
H         6.40566816       3.06563978       7.51745321         0.00000000       0.00000000       0.00000000          1
H         4.06069590       4.45117175       6.89642460         0.00000000       0.00000000       0.00000000          1
H         4.83234620       6.52275114       8.60446193         0.00000000       0.00000000       0.00000000          1
6
pbc=[F, F, F] list_num_par=6 frozen=false iter=20000 energy=-1.26974174 Lattice="15.00000000 0.00000000 0.00000000 0.00000000 15.00000000 0.00000000 0.00000000 0.00000000 15.00000000" energy_frozen_part=0.00000000 Properties=species:S:1:pos:R:3:velocities:R:3:Z:I:1
H         6.55459242       5.67598248       6.58179583         0.00000000       0.00000000       0.00000000          1
H         7.18191921       5.12288148       9.24728468         0.00000000       0.00000000       0.00000000          1
H         4.69395681       3.89619956       9.57829166         0.00000000       0.00000000       0.00000000          1
H         6.40553945       3.05496371       7.53694762         0.00000000       0.00000000       0.00000000          1
H         4.06662059       4.44930721       6.91280294         0.00000000       0.00000000       0.00000000          1
H         4.84300174       6.51722618       8.62313671         0.00000000       0.00000000       0.00000000          1
6
pbc=[F, F, F] list_num_par=6 frozen=false iter=20000 energy=-1.26974174 Lattice="15.00000000 0.00000000 0.00000000 0.00000000 15.00000000 0.00000000 0.00000000 0.00000000 15.00000000" energy_frozen_part=0.00000000 Properties=species:S:1:pos:R:3:velocities:R:3:Z:I:1
H         6.55460424       5.67596600       6.58178716         0.00000000       0.00000000       0.00000000          1
H         7.18192835       5.12286975       9.24727688         0.00000000       0.00000000       0.00000000          1
H         4.69395270       3.89620624       9.57829524         0.00000000       0.00000000       0.00000000          1
H         6.40553647       3.05495483       7.53695601         0.00000000       0.00000000       0.00000000          1
H         4.06662501       4.44929914       6.91280441         0.00000000       0.00000000       0.00000000          1
H         4.84301801       6.51721913       8.62312480         0.00000000       0.00000000       0.00000000          1
6
pbc=[F, F, F] list_num_par=6 frozen=false iter=20000 energy=-1.26974174 Lattice="15.00000000 0.00000000 0.00000000 0.00000000 15.00000000 0.00000000 0.00000000 0.00000000 15.00000000" energy_frozen_part=0.00000000 Properties=species:S:1:pos:R:3:velocities:R:3:Z:I:1
H         6.54365120       5.68670625       6.56076814         0.00000000       0.00000000       0.00000000          1
H         7.17733468       5.13721058       9.22549716         0.00000000       0.00000000       0.00000000          1
H         4.69438407       3.90167381       9.56117104         0.00000000       0.00000000       0.00000000          1
H         6.40567987       3.06564029       7.51745117         0.00000000       0.00000000       0.00000000          1
H         4.06070130       4.45117179       6.89643508         0.00000000       0.00000000       0.00000000          1
H         4.83235020       6.52273875       8.60448620         0.00000000       0.00000000       0.00000000          1
6
pbc=[F, F, F] list_num_par=6 frozen=false iter=20000 energy=-1.26974174 Lattice="15.00000000 0.00000000 0.00000000 0.00000000 15.00000000 0.00000000 0.00000000 0.00000000 15.00000000" energy_frozen_part=0.00000000 Properties=species:S:1:pos:R:3:velocities:R:3:Z:I:1
H         6.54368412       5.68669885       6.56075920         0.00000000       0.00000000       0.00000000          1
H         7.17734284       5.13721910       9.22549302         0.00000000       0.00000000       0.00000000          1
H         4.69438526       3.90169352       9.56115784         0.00000000       0.00000000       0.00000000          1
H         6.40568435       3.06563787       7.51745301         0.00000000       0.00000000       0.00000000          1
H         4.06072056       4.45118310       6.89641696         0.00000000       0.00000000       0.00000000          1
H         4.83237270       6.52275592       8.60446165         0.00000000       0.00000000       0.00000000          1
6
pbc=[F, F, F] list_num_par=6 frozen=false iter=20000 energy=-1.26974174 Lattice="15.00000000 0.00000000 0.00000000 0.00000000 15.00000000 0.00000000 0.00000000 0.00000000 15.00000000" energy_frozen_part=0.00000000 Properties=species:S:1:pos:R:3:velocities:R:3:Z:I:1
H         6.55458538       5.67598060       6.58181133         0.00000000       0.00000000       0.00000000          1
H         7.18194288       5.12285307       9.24728523         0.00000000       0.00000000       0.00000000          1
H         4.69397235       3.89618759       9.57830917         0.00000000       0.00000000       0.00000000          1
H         6.40553611       3.05495515       7.53694243         0.00000000       0.00000000       0.00000000          1
H         4.06661115       4.44931658       6.91283369         0.00000000       0.00000000       0.00000000          1
H         4.84302315       6.51721694       8.62317571         0.00000000       0.00000000       0.00000000          1
6
pbc=[F, F, F] list_num_par=6 frozen=false iter=20000 energy=-1.26974174 Lattice="15.00000000 0.00000000 0.00000000 0.00000000 15.00000000 0.00000000 0.00000000 0.00000000 15.00000000" energy_frozen_part=0.00000000 Properties=species:S:1:pos:R:3:velocities:R:3:Z:I:1
H         6.54361994       5.68635543       6.56065480         0.00000000       0.00000000       0.00000000          1
H         7.17726881       5.13721971       9.22546876         0.00000000       0.00000000       0.00000000          1
H         4.69432351       3.90170241       9.56126548         0.00000000       0.00000000       0.00000000          1
H         6.40566620       3.06541536       7.51768780         0.00000000       0.00000000       0.00000000          1
H         4.06067928       4.45082939       6.89645062         0.00000000       0.00000000       0.00000000          1
H         4.83228393       6.52264735       8.60423346         0.00000000       0.00000000       0.00000000          1
6
pbc=[F, F, F] list_num_par=6 frozen=false iter=20000 energy=-1.26974174 Lattice="15.00000000 0.00000000 0.00000000 0.00000000 15.00000000 0.00000000 0.00000000 0.00000000 15.00000000" energy_frozen_part=0.00000000 Properties=species:S:1:pos:R:3:velocities:R:3:Z:I:1
H         6.55450382       5.67594098       6.58167532         0.00000000       0.00000000       0.00000000          1
H         7.18189547       5.12285607       9.24715039         0.00000000       0.00000000       0.00000000          1
H         4.69391635       3.89622702       9.57824114         0.00000000       0.00000000       0.00000000          1
H         6.40543395       3.05493298       7.53685874         0.00000000       0.00000000       0.00000000          1
H         4.06652033       4.44931413       6.91276756         0.00000000       0.00000000       0.00000000          1
H         4.84298881       6.51723982       8.62304809         0.00000000       0.00000000       0.00000000          1
6
pbc=[F, F, F] list_num_par=6 frozen=false iter=20000 energy=-1.26974174 Lattice="15.00000000 0.00000000 0.00000000 0.00000000 15.00000000 0.00000000 0.00000000 0.00000000 15.00000000" energy_frozen_part=0.00000000 Properties=species:S:1:pos:R:3:velocities:R:3:Z:I:1
H         6.54367563       5.68669367       6.56075228         0.00000000       0.00000000       0.00000000          1
H         7.17735758       5.13721815       9.22548739         0.00000000       0.00000000       0.00000000          1
H         4.69439807       3.90170150       9.56117319         0.00000000       0.00000000       0.00000000          1
H         6.40568666       3.06563686       7.51746282         0.00000000       0.00000000       0.00000000          1
H         4.06071347       4.45117969       6.89644574         0.00000000       0.00000000       0.00000000          1
H         4.83238377       6.52275850       8.60446592         0.00000000       0.00000000       0.00000000          1
6
pbc=[F, F, F] list_num_par=6 frozen=false iter=20000 energy=-1.26974174 Lattice="15.00000000 0.00000000 0.00000000 0.00000000 15.00000000 0.00000000 0.00000000 0.00000000 15.00000000" energy_frozen_part=0.00000000 Properties=species:S:1:pos:R:3:velocities:R:3:Z:I:1
H         6.54364905       5.68671510       6.56076678         0.00000000       0.00000000       0.00000000          1
H         7.17731446       5.13722688       9.22550019         0.00000000       0.00000000       0.00000000          1
H         4.69437574       3.90166930       9.56116470         0.00000000       0.00000000       0.00000000          1
H         6.40568536       3.06564509       7.51744674         0.00000000       0.00000000       0.00000000          1
H         4.06070059       4.45116306       6.89643120         0.00000000       0.00000000       0.00000000          1
H         4.83233160       6.52274194       8.60447342         0.00000000       0.00000000       0.00000000          1
6
pbc=[F, F, F] list_num_par=6 frozen=false iter=20000 energy=-1.26974174 Lattice="15.00000000 0.00000000 0.00000000 0.00000000 15.00000000 0.00000000 0.00000000 0.00000000 15.00000000" energy_frozen_part=0.00000000 Properties=species:S:1:pos:R:3:velocities:R:3:Z:I:1
H         6.54446491       5.73741241       6.58261259         0.00000000       0.00000000       0.00000000          1
H         7.16514717       5.15707310       9.24385965         0.00000000       0.00000000       0.00000000          1
H         4.69969859       3.87711415       9.53975210         0.00000000       0.00000000       0.00000000          1
H         6.44080005       3.10004526       7.49793714         0.00000000       0.00000000       0.00000000          1
H         4.07901875       4.45745383       6.87849502         0.00000000       0.00000000       0.00000000          1
H         4.80335780       6.51447863       8.62442182         0.00000000       0.00000000       0.00000000          1
6
pbc=[F, F, F] list_num_par=6 frozen=false iter=20000 energy=-1.26974174 Lattice="15.00000000 0.00000000 0.00000000 0.00000000 15.00000000 0.00000000 0.00000000 0.00000000 15.00000000" energy_frozen_part=0.00000000 Properties=species:S:1:pos:R:3:velocities:R:3:Z:I:1
H         6.54368115       5.68671280       6.56076262         0.00000000       0.00000000       0.00000000          1
H         7.17735816       5.13722458       9.22549759         0.00000000       0.00000000       0.00000000          1
H         4.69439672       3.90171254       9.56117721         0.00000000       0.00000000       0.00000000          1
H         6.40568930       3.06564755       7.51745761         0.00000000       0.00000000       0.00000000          1
H         4.06071835       4.45119269       6.89644430         0.00000000       0.00000000       0.00000000          1
H         4.83238700       6.52277335       8.60447011         0.00000000       0.00000000       0.00000000          1
6
pbc=[F, F, F] list_num_par=6 frozen=false iter=20000 energy=-1.26974174 Lattice="15.00000000 0.00000000 0.00000000 0.00000000 15.00000000 0.00000000 0.00000000 0.00000000 15.00000000" energy_frozen_part=0.00000000 Properties=species:S:1:pos:R:3:velocities:R:3:Z:I:1
H         6.54365567       5.68671763       6.56076769         0.00000000       0.00000000       0.00000000          1
H         7.17733073       5.13723601       9.22549695         0.00000000       0.00000000       0.00000000          1
H         4.69438816       3.90166610       9.56116423         0.00000000       0.00000000       0.00000000          1
H         6.40571003       3.06564672       7.51745027         0.00000000       0.00000000       0.00000000          1
H         4.06071736       4.45115177       6.89643047         0.00000000       0.00000000       0.00000000          1
H         4.83233742       6.52273747       8.60447748         0.00000000       0.00000000       0.00000000          1
6
pbc=[F, F, F] list_num_par=6 frozen=false iter=20000 energy=-1.26974174 Lattice="15.00000000 0.00000000 0.00000000 0.00000000 15.00000000 0.00000000 0.00000000 0.00000000 15.00000000" energy_frozen_part=0.00000000 Properties=species:S:1:pos:R:3:velocities:R:3:Z:I:1
H         6.54363669       5.68670995       6.56072050         0.00000000       0.00000000       0.00000000          1
H         7.17736661       5.13723154       9.22544131         0.00000000       0.00000000       0.00000000          1
H         4.69441908       3.90169599       9.56116288         0.00000000       0.00000000       0.00000000          1
H         6.40567725       3.06564520       7.51741760         0.00000000       0.00000000       0.00000000          1
H         4.06069063       4.45117698       6.89644554         0.00000000       0.00000000       0.00000000          1
H         4.83237896       6.52275896       8.60446185         0.00000000       0.00000000       0.00000000          1
6
pbc=[F, F, F] list_num_par=6 frozen=false iter=20000 energy=-1.26974174 Lattice="15.00000000 0.00000000 0.00000000 0.00000000 15.00000000 0.00000000 0.00000000 0.00000000 15.00000000" energy_frozen_part=0.00000000 Properties=species:S:1:pos:R:3:velocities:R:3:Z:I:1
H         6.54366736       5.68667576       6.56073185         0.00000000       0.00000000       0.00000000          1
H         7.17734527       5.13721425       9.22546924         0.00000000       0.00000000       0.00000000          1
H         4.69438103       3.90170408       9.56116992         0.00000000       0.00000000       0.00000000          1
H         6.40566666       3.06562297       7.51745808         0.00000000       0.00000000       0.00000000          1
H         4.06069596       4.45116578       6.89642848         0.00000000       0.00000000       0.00000000          1
H         4.83237246       6.52275586       8.60444066         0.00000000       0.00000000       0.00000000          1
6
pbc=[F, F, F] list_num_par=6 frozen=false iter=20000 energy=-1.26974174 Lattice="15.00000000 0.00000000 0.00000000 0.00000000 15.00000000 0.00000000 0.00000000 0.00000000 15.00000000" energy_frozen_part=0.00000000 Properties=species:S:1:pos:R:3:velocities:R:3:Z:I:1
H         6.54367028       5.68667690       6.56072669         0.00000000       0.00000000       0.00000000          1
H         7.17736622       5.13720392       9.22545502         0.00000000       0.00000000       0.00000000          1
H         4.69439298       3.90171297       9.56116725         0.00000000       0.00000000       0.00000000          1
H         6.40566394       3.06562327       7.51744892         0.00000000       0.00000000       0.00000000          1
H         4.06070043       4.45118640       6.89643785         0.00000000       0.00000000       0.00000000          1
H         4.83239813       6.52276706       8.60444606         0.00000000       0.00000000       0.00000000          1
6
pbc=[F, F, F] list_num_par=6 frozen=false iter=20000 energy=-1.26974174 Lattice="15.00000000 0.00000000 0.00000000 0.00000000 15.00000000 0.00000000 0.00000000 0.00000000 15.00000000" energy_frozen_part=0.00000000 Properties=species:S:1:pos:R:3:velocities:R:3:Z:I:1
H         6.54368289       5.68669093       6.56074834         0.00000000       0.00000000       0.00000000          1
H         7.17736174       5.13720896       9.22547863         0.00000000       0.00000000       0.00000000          1
H         4.69439216       3.90170197       9.56117044         0.00000000       0.00000000       0.00000000          1
H         6.40567968       3.06562929       7.51745092         0.00000000       0.00000000       0.00000000          1
H         4.06071867       4.45117896       6.89643651         0.00000000       0.00000000       0.00000000          1
H         4.83239347       6.52276078       8.60446425         0.00000000       0.00000000       0.00000000          1
6
pbc=[F, F, F] list_num_par=6 frozen=false iter=20000 energy=-1.26974174 Lattice="15.00000000 0.00000000 0.00000000 0.00000000 15.00000000 0.00000000 0.00000000 0.00000000 15.00000000" energy_frozen_part=0.00000000 Properties=species:S:1:pos:R:3:velocities:R:3:Z:I:1
H         6.55458036       5.67594023       6.58171673         0.00000000       0.00000000       0.00000000          1
H         7.18194636       5.12289017       9.24720340         0.00000000       0.00000000       0.00000000          1
H         4.69398956       3.89619792       9.57826365         0.00000000       0.00000000       0.00000000          1
H         6.40555474       3.05493597       7.53691931         0.00000000       0.00000000       0.00000000          1
H         4.06662547       4.44924921       6.91277115         0.00000000       0.00000000       0.00000000          1
H         4.84300329       6.51719896       8.62306243         0.00000000       0.00000000       0.00000000          1
6
pbc=[F, F, F] list_num_par=6 frozen=false iter=20000 energy=-1.26974174 Lattice="15.00000000 0.00000000 0.00000000 0.00000000 15.00000000 0.00000000 0.00000000 0.00000000 15.00000000" energy_frozen_part=0.00000000 Properties=species:S:1:pos:R:3:velocities:R:3:Z:I:1
H         6.54361067       5.68637213       6.56068203         0.00000000       0.00000000       0.00000000          1
H         7.17726532       5.13722124       9.22549168         0.00000000       0.00000000       0.00000000          1
H         4.69432235       3.90168795       9.56127622         0.00000000       0.00000000       0.00000000          1
H         6.40566584       3.06542040       7.51769513         0.00000000       0.00000000       0.00000000          1
H         4.06067571       4.45083423       6.89646847         0.00000000       0.00000000       0.00000000          1
H         4.83227227       6.52264045       8.60426862         0.00000000       0.00000000       0.00000000          1
6
pbc=[F, F, F] list_num_par=6 frozen=false iter=20000 energy=-1.26974174 Lattice="15.00000000 0.00000000 0.00000000 0.00000000 15.00000000 0.00000000 0.00000000 0.00000000 15.00000000" energy_frozen_part=0.00000000 Properties=species:S:1:pos:R:3:velocities:R:3:Z:I:1
H         6.55523132       5.67596377       6.58181861         0.00000000       0.00000000       0.00000000          1
H         7.18189978       5.12273400       9.24743676         0.00000000       0.00000000       0.00000000          1
H         4.69375795       3.89623885       9.57783590         0.00000000       0.00000000       0.00000000          1
H         6.40575528       3.05493270       7.53686829         0.00000000       0.00000000       0.00000000          1
H         4.06708825       4.44946926       6.91222166         0.00000000       0.00000000       0.00000000          1
H         4.84323688       6.51727659       8.62278923         0.00000000       0.00000000       0.00000000          1
6
pbc=[F, F, F] list_num_par=6 frozen=false iter=20000 energy=-1.26974174 Lattice="15.00000000 0.00000000 0.00000000 0.00000000 15.00000000 0.00000000 0.00000000 0.00000000 15.00000000" energy_frozen_part=0.00000000 Properties=species:S:1:pos:R:3:velocities:R:3:Z:I:1
H         6.54359428       5.68633668       6.56063233         0.00000000       0.00000000       0.00000000          1
H         7.17726470       5.13725430       9.22545074         0.00000000       0.00000000       0.00000000          1
H         4.69432042       3.90173793       9.56128501         0.00000000       0.00000000       0.00000000          1
H         6.40564853       3.06540948       7.51771324         0.00000000       0.00000000       0.00000000          1
H         4.06065723       4.45082464       6.89646646         0.00000000       0.00000000       0.00000000          1
H         4.83226868       6.52266385       8.60421336         0.00000000       0.00000000       0.00000000          1
6
pbc=[F, F, F] list_num_par=6 frozen=false iter=20000 energy=-1.26974174 Lattice="15.00000000 0.00000000 0.00000000 0.00000000 15.00000000 0.00000000 0.00000000 0.00000000 15.00000000" energy_frozen_part=0.00000000 Properties=species:S:1:pos:R:3:velocities:R:3:Z:I:1
H         6.54366749       5.68670937       6.56079028         0.00000000       0.00000000       0.00000000          1
H         7.17733388       5.13715879       9.22551658         0.00000000       0.00000000       0.00000000          1
H         4.69433781       3.90170230       9.56116912         0.00000000       0.00000000       0.00000000          1
H         6.40560363       3.06563414       7.51743788         0.00000000       0.00000000       0.00000000          1
H         4.06067542       4.45125715       6.89644495         0.00000000       0.00000000       0.00000000          1
H         4.83240051       6.52278142       8.60451804         0.00000000       0.00000000       0.00000000          1
6
pbc=[F, F, F] list_num_par=6 frozen=false iter=20000 energy=-1.26974174 Lattice="15.00000000 0.00000000 0.00000000 0.00000000 15.00000000 0.00000000 0.00000000 0.00000000 15.00000000" energy_frozen_part=0.00000000 Properties=species:S:1:pos:R:3:velocities:R:3:Z:I:1
H         6.54364784       5.68633264       6.56066858         0.00000000       0.00000000       0.00000000          1
H         7.17724930       5.13721794       9.22549363         0.00000000       0.00000000       0.00000000          1
H         4.69430441       3.90169632       9.56126836         0.00000000       0.00000000       0.00000000          1
H         6.40567878       3.06539721       7.51772005         0.00000000       0.00000000       0.00000000          1
H         4.06069958       4.45080704       6.89643747         0.00000000       0.00000000       0.00000000          1
H         4.83227142       6.52262638       8.60421400         0.00000000       0.00000000       0.00000000          1
6
pbc=[F, F, F] list_num_par=6 frozen=false iter=20000 energy=-1.26974174 Lattice="15.00000000 0.00000000 0.00000000 0.00000000 15.00000000 0.00000000 0.00000000 0.00000000 15.00000000" energy_frozen_part=0.00000000 Properties=species:S:1:pos:R:3:velocities:R:3:Z:I:1
H         6.54367207       5.68672104       6.56075195         0.00000000       0.00000000       0.00000000          1
H         7.17736483       5.13721388       9.22547170         0.00000000       0.00000000       0.00000000          1
H         4.69440601       3.90169355       9.56115359         0.00000000       0.00000000       0.00000000          1
H         6.40568574       3.06564795       7.51743013         0.00000000       0.00000000       0.00000000          1
H         4.06071013       4.45120072       6.89643097         0.00000000       0.00000000       0.00000000          1
H         4.83239213       6.52276301       8.60447764         0.00000000       0.00000000       0.00000000          1
6
pbc=[F, F, F] list_num_par=6 frozen=false iter=20000 energy=-1.26974174 Lattice="15.00000000 0.00000000 0.00000000 0.00000000 15.00000000 0.00000000 0.00000000 0.00000000 15.00000000" energy_frozen_part=0.00000000 Properties=species:S:1:pos:R:3:velocities:R:3:Z:I:1
H         6.54450637       5.73759477       6.58262807         0.00000000       0.00000000       0.00000000          1
H         7.16507132       5.15720822       9.24389469         0.00000000       0.00000000       0.00000000          1
H         4.69965740       3.87714543       9.53962351         0.00000000       0.00000000       0.00000000          1
H         6.44089178       3.10020093       7.49787162         0.00000000       0.00000000       0.00000000          1
H         4.07908722       4.45753301       6.87836149         0.00000000       0.00000000       0.00000000          1
H         4.80326836       6.51454514       8.62437122         0.00000000       0.00000000       0.00000000          1
6
pbc=[F, F, F] list_num_par=6 frozen=false iter=20000 energy=-1.26974174 Lattice="15.00000000 0.00000000 0.00000000 0.00000000 15.00000000 0.00000000 0.00000000 0.00000000 15.00000000" energy_frozen_part=0.00000000 Properties=species:S:1:pos:R:3:velocities:R:3:Z:I:1
H         6.54367619       5.68670799       6.56079982         0.00000000       0.00000000       0.00000000          1
H         7.17735021       5.13713496       9.22551802         0.00000000       0.00000000       0.00000000          1
H         4.69435670       3.90166122       9.56116654         0.00000000       0.00000000       0.00000000          1
H         6.40563173       3.06562399       7.51742868         0.00000000       0.00000000       0.00000000          1
H         4.06068715       4.45123863       6.89645235         0.00000000       0.00000000       0.00000000          1
H         4.83241602       6.52275085       8.60454268         0.00000000       0.00000000       0.00000000          1
6
pbc=[F, F, F] list_num_par=6 frozen=false iter=20000 energy=-1.26974174 Lattice="15.00000000 0.00000000 0.00000000 0.00000000 15.00000000 0.00000000 0.00000000 0.00000000 15.00000000" energy_frozen_part=0.00000000 Properties=species:S:1:pos:R:3:velocities:R:3:Z:I:1
H         6.55458782       5.67597238       6.58179106         0.00000000       0.00000000       0.00000000          1
H         7.18192066       5.12287917       9.24727511         0.00000000       0.00000000       0.00000000          1
H         4.69395139       3.89620273       9.57829693         0.00000000       0.00000000       0.00000000          1
H         6.40553152       3.05495437       7.53695449         0.00000000       0.00000000       0.00000000          1
H         4.06662269       4.44929880       6.91280318         0.00000000       0.00000000       0.00000000          1
H         4.84299924       6.51721789       8.62313171         0.00000000       0.00000000       0.00000000          1
6
pbc=[F, F, F] list_num_par=6 frozen=false iter=20000 energy=-1.26974174 Lattice="15.00000000 0.00000000 0.00000000 0.00000000 15.00000000 0.00000000 0.00000000 0.00000000 15.00000000" energy_frozen_part=0.00000000 Properties=species:S:1:pos:R:3:velocities:R:3:Z:I:1
H         6.54367413       5.68668704       6.56074942         0.00000000       0.00000000       0.00000000          1
H         7.17735635       5.13722346       9.22549236         0.00000000       0.00000000       0.00000000          1
H         4.69439364       3.90170026       9.56117325         0.00000000       0.00000000       0.00000000          1
H         6.40569024       3.06563111       7.51746905         0.00000000       0.00000000       0.00000000          1
H         4.06071588       4.45116267       6.89643844         0.00000000       0.00000000       0.00000000          1
H         4.83237975       6.52275215       8.60445770         0.00000000       0.00000000       0.00000000          1
6
pbc=[F, F, F] list_num_par=6 frozen=false iter=20000 energy=-1.26974174 Lattice="15.00000000 0.00000000 0.00000000 0.00000000 15.00000000 0.00000000 0.00000000 0.00000000 15.00000000" energy_frozen_part=0.00000000 Properties=species:S:1:pos:R:3:velocities:R:3:Z:I:1
H         6.54366266       5.68671879       6.56074415         0.00000000       0.00000000       0.00000000          1
H         7.17736593       5.13721104       9.22546267         0.00000000       0.00000000       0.00000000          1
H         4.69440679       3.90168968       9.56115817         0.00000000       0.00000000       0.00000000          1
H         6.40567361       3.06564830       7.51741978         0.00000000       0.00000000       0.00000000          1
H         4.06070011       4.45120361       6.89644215         0.00000000       0.00000000       0.00000000          1
H         4.83239515       6.52276078       8.60448736         0.00000000       0.00000000       0.00000000          1
6
pbc=[F, F, F] list_num_par=6 frozen=false iter=20000 energy=-1.26974174 Lattice="15.00000000 0.00000000 0.00000000 0.00000000 15.00000000 0.00000000 0.00000000 0.00000000 15.00000000" energy_frozen_part=0.00000000 Properties=species:S:1:pos:R:3:velocities:R:3:Z:I:1
H         6.54372774       5.68671256       6.56084097         0.00000000       0.00000000       0.00000000          1
H         7.17732264       5.13712804       9.22557518         0.00000000       0.00000000       0.00000000          1
H         4.69431749       3.90166775       9.56115384         0.00000000       0.00000000       0.00000000          1
H         6.40563637       3.06562442       7.51745798         0.00000000       0.00000000       0.00000000          1
H         4.06072529       4.45125690       6.89642098         0.00000000       0.00000000       0.00000000          1
H         4.83241290       6.52276078       8.60453392         0.00000000       0.00000000       0.00000000          1
6
pbc=[F, F, F] list_num_par=6 frozen=false iter=20000 energy=-1.26974174 Lattice="15.00000000 0.00000000 0.00000000 0.00000000 15.00000000 0.00000000 0.00000000 0.00000000 15.00000000" energy_frozen_part=0.00000000 Properties=species:S:1:pos:R:3:velocities:R:3:Z:I:1
H         6.54367254       5.68670033       6.56074365         0.00000000       0.00000000       0.00000000          1
H         7.17734264       5.13721374       9.22548206         0.00000000       0.00000000       0.00000000          1
H         4.69438234       3.90169900       9.56115644         0.00000000       0.00000000       0.00000000          1
H         6.40568228       3.06564049       7.51744815         0.00000000       0.00000000       0.00000000          1
H         4.06070885       4.45117375       6.89642074         0.00000000       0.00000000       0.00000000          1
H         4.83237326       6.52275725       8.60444766         0.00000000       0.00000000       0.00000000          1
6
pbc=[F, F, F] list_num_par=6 frozen=false iter=20000 energy=-1.26974174 Lattice="15.00000000 0.00000000 0.00000000 0.00000000 15.00000000 0.00000000 0.00000000 0.00000000 15.00000000" energy_frozen_part=0.00000000 Properties=species:S:1:pos:R:3:velocities:R:3:Z:I:1
H         6.54366467       5.68672486       6.56074452         0.00000000       0.00000000       0.00000000          1
H         7.17737069       5.13721176       9.22546763         0.00000000       0.00000000       0.00000000          1
H         4.69441697       3.90169212       9.56116334         0.00000000       0.00000000       0.00000000          1
H         6.40568102       3.06564954       7.51741832         0.00000000       0.00000000       0.00000000          1
H         4.06070397       4.45120518       6.89643847         0.00000000       0.00000000       0.00000000          1
H         4.83239691       6.52276517       8.60448542         0.00000000       0.00000000       0.00000000          1
6
pbc=[F, F, F] list_num_par=6 frozen=false iter=20000 energy=-1.26974174 Lattice="15.00000000 0.00000000 0.00000000 0.00000000 15.00000000 0.00000000 0.00000000 0.00000000 15.00000000" energy_frozen_part=0.00000000 Properties=species:S:1:pos:R:3:velocities:R:3:Z:I:1
H         6.54363012       5.68637997       6.56068110         0.00000000       0.00000000       0.00000000          1
H         7.17725707       5.13721453       9.22549649         0.00000000       0.00000000       0.00000000          1
H         4.69430786       3.90169189       9.56125730         0.00000000       0.00000000       0.00000000          1
H         6.40566866       3.06542484       7.51768571         0.00000000       0.00000000       0.00000000          1
H         4.06068739       4.45084511       6.89644322         0.00000000       0.00000000       0.00000000          1
H         4.83227390       6.52264130       8.60425912         0.00000000       0.00000000       0.00000000          1
6
pbc=[F, F, F] list_num_par=6 frozen=false iter=20000 energy=-1.26974174 Lattice="15.00000000 0.00000000 0.00000000 0.00000000 15.00000000 0.00000000 0.00000000 0.00000000 15.00000000" energy_frozen_part=0.00000000 Properties=species:S:1:pos:R:3:velocities:R:3:Z:I:1
H         6.55460976       5.67597037       6.58177260         0.00000000       0.00000000       0.00000000          1
H         7.18189880       5.12285726       9.24726228         0.00000000       0.00000000       0.00000000          1
H         4.69392423       3.89618611       9.57822979         0.00000000       0.00000000       0.00000000          1
H         6.40553544       3.05494908       7.53691394         0.00000000       0.00000000       0.00000000          1
H         4.06663443       4.44929926       6.91274094         0.00000000       0.00000000       0.00000000          1
H         4.84299475       6.51721250       8.62309195         0.00000000       0.00000000       0.00000000          1
6
pbc=[F, F, F] list_num_par=6 frozen=false iter=20000 energy=-1.26974174 Lattice="15.00000000 0.00000000 0.00000000 0.00000000 15.00000000 0.00000000 0.00000000 0.00000000 15.00000000" energy_frozen_part=0.00000000 Properties=species:S:1:pos:R:3:velocities:R:3:Z:I:1
H         6.54366134       5.68671159       6.56072109         0.00000000       0.00000000       0.00000000          1
H         7.17737038       5.13721948       9.22544896         0.00000000       0.00000000       0.00000000          1
H         4.69441517       3.90169513       9.56115413         0.00000000       0.00000000       0.00000000          1
H         6.40568804       3.06564640       7.51741718         0.00000000       0.00000000       0.00000000          1
H         4.06070349       4.45118312       6.89643307         0.00000000       0.00000000       0.00000000          1
H         4.83238581       6.52275687       8.60445560         0.00000000       0.00000000       0.00000000          1
6
pbc=[F, F, F] list_num_par=6 frozen=false iter=20000 energy=-1.26974174 Lattice="15.00000000 0.00000000 0.00000000 0.00000000 15.00000000 0.00000000 0.00000000 0.00000000 15.00000000" energy_frozen_part=0.00000000 Properties=species:S:1:pos:R:3:velocities:R:3:Z:I:1
H         6.55457398       5.67595226       6.58173529         0.00000000       0.00000000       0.00000000          1
H         7.18194123       5.12288507       9.24722321         0.00000000       0.00000000       0.00000000          1
H         4.69399467       3.89617684       9.57826674         0.00000000       0.00000000       0.00000000          1
H         6.40556694       3.05494091       7.53691504         0.00000000       0.00000000       0.00000000          1
H         4.06662451       4.44924602       6.91277837         0.00000000       0.00000000       0.00000000          1
H         4.84299864       6.51718865       8.62309110         0.00000000       0.00000000       0.00000000          1
6
pbc=[F, F, F] list_num_par=6 frozen=false iter=20000 energy=-1.26974174 Lattice="15.00000000 0.00000000 0.00000000 0.00000000 15.00000000 0.00000000 0.00000000 0.00000000 15.00000000" energy_frozen_part=0.00000000 Properties=species:S:1:pos:R:3:velocities:R:3:Z:I:1
H         6.54371537       5.68669799       6.56082461         0.00000000       0.00000000       0.00000000          1
H         7.17731861       5.13710306       9.22554980         0.00000000       0.00000000       0.00000000          1
H         4.69432891       3.90162735       9.56113829         0.00000000       0.00000000       0.00000000          1
H         6.40564361       3.06559911       7.51742794         0.00000000       0.00000000       0.00000000          1
H         4.06071879       4.45121827       6.89641103         0.00000000       0.00000000       0.00000000          1
H         4.83238994       6.52271886       8.60452921         0.00000000       0.00000000       0.00000000          1
6
pbc=[F, F, F] list_num_par=6 frozen=false iter=20000 energy=-1.26974174 Lattice="15.00000000 0.00000000 0.00000000 0.00000000 15.00000000 0.00000000 0.00000000 0.00000000 15.00000000" energy_frozen_part=0.00000000 Properties=species:S:1:pos:R:3:velocities:R:3:Z:I:1
H         6.54447683       5.73740135       6.58262387         0.00000000       0.00000000       0.00000000          1
H         7.16514393       5.15705616       9.24387319         0.00000000       0.00000000       0.00000000          1
H         4.69967963       3.87711781       9.53976425         0.00000000       0.00000000       0.00000000          1
H         6.44078266       3.10002901       7.49795809         0.00000000       0.00000000       0.00000000          1
H         4.07901755       4.45745997       6.87851033         0.00000000       0.00000000       0.00000000          1
H         4.80337631       6.51448464       8.62443218         0.00000000       0.00000000       0.00000000          1
6
pbc=[F, F, F] list_num_par=6 frozen=false iter=20000 energy=-1.26974174 Lattice="15.00000000 0.00000000 0.00000000 0.00000000 15.00000000 0.00000000 0.00000000 0.00000000 15.00000000" energy_frozen_part=0.00000000 Properties=species:S:1:pos:R:3:velocities:R:3:Z:I:1
H         6.55521320       5.67603409       6.58184774         0.00000000       0.00000000       0.00000000          1
H         7.18189834       5.12274163       9.24744657         0.00000000       0.00000000       0.00000000          1
H         4.69378309       3.89619479       9.57782597         0.00000000       0.00000000       0.00000000          1
H         6.40578962       3.05496764       7.53682628         0.00000000       0.00000000       0.00000000          1
H         4.06710024       4.44947923       6.91222284         0.00000000       0.00000000       0.00000000          1
H         4.84321093       6.51725772       8.62284315         0.00000000       0.00000000       0.00000000          1
6
pbc=[F, F, F] list_num_par=6 frozen=false iter=20000 energy=-1.26974174 Lattice="15.00000000 0.00000000 0.00000000 0.00000000 15.00000000 0.00000000 0.00000000 0.00000000 15.00000000" energy_frozen_part=0.00000000 Properties=species:S:1:pos:R:3:velocities:R:3:Z:I:1
H         6.55457771       5.67597864       6.58178828         0.00000000       0.00000000       0.00000000          1
H         7.18192084       5.12288181       9.24727451         0.00000000       0.00000000       0.00000000          1
H         4.69395072       3.89620968       9.57829443         0.00000000       0.00000000       0.00000000          1
H         6.40552820       3.05496059       7.53695170         0.00000000       0.00000000       0.00000000          1
H         4.06660761       4.44929687       6.91280680         0.00000000       0.00000000       0.00000000          1
H         4.84299588       6.51722032       8.62312917         0.00000000       0.00000000       0.00000000          1
6
pbc=[F, F, F] list_num_par=6 frozen=false iter=20000 energy=-1.26974174 Lattice="15.00000000 0.00000000 0.00000000 0.00000000 15.00000000 0.00000000 0.00000000 0.00000000 15.00000000" energy_frozen_part=0.00000000 Properties=species:S:1:pos:R:3:velocities:R:3:Z:I:1
H         6.54360734       5.68632040       6.56062677         0.00000000       0.00000000       0.00000000          1
H         7.17727333       5.13726492       9.22545246         0.00000000       0.00000000       0.00000000          1
H         4.69434219       3.90172186       9.56129385         0.00000000       0.00000000       0.00000000          1
H         6.40568181       3.06540050       7.51772651         0.00000000       0.00000000       0.00000000          1
H         4.06067890       4.45078695       6.89646752         0.00000000       0.00000000       0.00000000          1
H         4.83226406       6.52264424       8.60419771         0.00000000       0.00000000       0.00000000          1
6
pbc=[F, F, F] list_num_par=6 frozen=false iter=20000 energy=-1.26974174 Lattice="15.00000000 0.00000000 0.00000000 0.00000000 15.00000000 0.00000000 0.00000000 0.00000000 15.00000000" energy_frozen_part=0.00000000 Properties=species:S:1:pos:R:3:velocities:R:3:Z:I:1
H         6.54336928       5.68734536       6.56088009         0.00000000       0.00000000       0.00000000          1
H         7.17693807       5.13762206       9.22559226         0.00000000       0.00000000       0.00000000          1
H         4.69411314       3.90175224       9.56095623         0.00000000       0.00000000       0.00000000          1
H         6.40563995       3.06615469       7.51725319         0.00000000       0.00000000       0.00000000          1
H         4.06053798       4.45147925       6.89624720         0.00000000       0.00000000       0.00000000          1
H         4.83183232       6.52294912       8.60458087         0.00000000       0.00000000       0.00000000          1
6
pbc=[F, F, F] list_num_par=6 frozen=false iter=20000 energy=-1.26974174 Lattice="15.00000000 0.00000000 0.00000000 0.00000000 15.00000000 0.00000000 0.00000000 0.00000000 15.00000000" energy_frozen_part=0.00000000 Properties=species:S:1:pos:R:3:velocities:R:3:Z:I:1
H         6.54364305       5.68671668       6.56073988         0.00000000       0.00000000       0.00000000          1
H         7.17735323       5.13719953       9.22545298         0.00000000       0.00000000       0.00000000          1
H         4.69439815       3.90167528       9.56115648         0.00000000       0.00000000       0.00000000          1
H         6.40566353       3.06563828       7.51740637         0.00000000       0.00000000       0.00000000          1
H         4.06068670       4.45118639       6.89643806         0.00000000       0.00000000       0.00000000          1
H         4.83236974       6.52274938       8.60448391         0.00000000       0.00000000       0.00000000          1
6
pbc=[F, F, F] list_num_par=6 frozen=false iter=20000 energy=-1.26974174 Lattice="15.00000000 0.00000000 0.00000000 0.00000000 15.00000000 0.00000000 0.00000000 0.00000000 15.00000000" energy_frozen_part=0.00000000 Properties=species:S:1:pos:R:3:velocities:R:3:Z:I:1
H         6.55450321       5.67594668       6.58168120         0.00000000       0.00000000       0.00000000          1
H         7.18187049       5.12286553       9.24716079         0.00000000       0.00000000       0.00000000          1
H         4.69389120       3.89622504       9.57822323         0.00000000       0.00000000       0.00000000          1
H         6.40543851       3.05493478       7.53686271         0.00000000       0.00000000       0.00000000          1
H         4.06652641       4.44930565       6.91274269         0.00000000       0.00000000       0.00000000          1
H         4.84295959       6.51723411       8.62303585         0.00000000       0.00000000       0.00000000          1
6
pbc=[F, F, F] list_num_par=6 frozen=false iter=20000 energy=-1.26974174 Lattice="15.00000000 0.00000000 0.00000000 0.00000000 15.00000000 0.00000000 0.00000000 0.00000000 15.00000000" energy_frozen_part=0.00000000 Properties=species:S:1:pos:R:3:velocities:R:3:Z:I:1
H         6.54365785       5.68673020       6.56072860         0.00000000       0.00000000       0.00000000          1
H         7.17735949       5.13721748       9.22544634         0.00000000       0.00000000       0.00000000          1
H         4.69440807       3.90168879       9.56114273         0.00000000       0.00000000       0.00000000          1
H         6.40568251       3.06565509       7.51740408         0.00000000       0.00000000       0.00000000          1
H         4.06070377       4.45119568       6.89642191         0.00000000       0.00000000       0.00000000          1
H         4.83237915       6.52276546       8.60446489         0.00000000       0.00000000       0.00000000          1
6
pbc=[F, F, F] list_num_par=6 frozen=false iter=20000 energy=-1.26974174 Lattice="15.00000000 0.00000000 0.00000000 0.00000000 15.00000000 0.00000000 0.00000000 0.00000000 15.00000000" energy_frozen_part=0.00000000 Properties=species:S:1:pos:R:3:velocities:R:3:Z:I:1
H         6.54361220       5.68635813       6.56063862         0.00000000       0.00000000       0.00000000          1
H         7.17727481       5.13722974       9.22545074         0.00000000       0.00000000       0.00000000          1
H         4.69431812       3.90174288       9.56127996         0.00000000       0.00000000       0.00000000          1
H         6.40562958       3.06542260       7.51769220         0.00000000       0.00000000       0.00000000          1
H         4.06065676       4.45085997       6.89646569         0.00000000       0.00000000       0.00000000          1
H         4.83229816       6.52267419       8.60422916         0.00000000       0.00000000       0.00000000          1
6
pbc=[F, F, F] list_num_par=6 frozen=false iter=20000 energy=-1.26974174 Lattice="15.00000000 0.00000000 0.00000000 0.00000000 15.00000000 0.00000000 0.00000000 0.00000000 15.00000000" energy_frozen_part=0.00000000 Properties=species:S:1:pos:R:3:velocities:R:3:Z:I:1
H         6.54366926       5.68669540       6.56073491         0.00000000       0.00000000       0.00000000          1
H         7.17737575       5.13721070       9.22545878         0.00000000       0.00000000       0.00000000          1
H         4.69440913       3.90170970       9.56117250         0.00000000       0.00000000       0.00000000          1
H         6.40566982       3.06563165       7.51744299         0.00000000       0.00000000       0.00000000          1
H         4.06070191       4.45118811       6.89644315         0.00000000       0.00000000       0.00000000          1
H         4.83239968       6.52276506       8.60446163         0.00000000       0.00000000       0.00000000          1
6
pbc=[F, F, F] list_num_par=6 frozen=false iter=20000 energy=-1.26974174 Lattice="15.00000000 0.00000000 0.00000000 0.00000000 15.00000000 0.00000000 0.00000000 0.00000000 15.00000000" energy_frozen_part=0.00000000 Properties=species:S:1:pos:R:3:velocities:R:3:Z:I:1
H         6.55457002       5.67596660       6.58172910         0.00000000       0.00000000       0.00000000          1
H         7.18193902       5.12287370       9.24720767         0.00000000       0.00000000       0.00000000          1
H         4.69399379       3.89616933       9.57825617         0.00000000       0.00000000       0.00000000          1
H         6.40556753       3.05494260       7.53689353         0.00000000       0.00000000       0.00000000          1
H         4.06662877       4.44925234       6.91277172         0.00000000       0.00000000       0.00000000          1
H         4.84299877       6.51718830       8.62308886         0.00000000       0.00000000       0.00000000          1
6
pbc=[F, F, F] list_num_par=6 frozen=false iter=20000 energy=-1.26974174 Lattice="15.00000000 0.00000000 0.00000000 0.00000000 15.00000000 0.00000000 0.00000000 0.00000000 15.00000000" energy_frozen_part=0.00000000 Properties=species:S:1:pos:R:3:velocities:R:3:Z:I:1
H         6.55460244       5.67591922       6.58176855         0.00000000       0.00000000       0.00000000          1
H         7.18193111       5.12283305       9.24726362         0.00000000       0.00000000       0.00000000          1
H         4.69394223       3.89619674       9.57828526         0.00000000       0.00000000       0.00000000          1
H         6.40551469       3.05491186       7.53695382         0.00000000       0.00000000       0.00000000          1
H         4.06661785       4.44928068       6.91278951         0.00000000       0.00000000       0.00000000          1
H         4.84303068       6.51720665       8.62310066         0.00000000       0.00000000       0.00000000          1
6
pbc=[F, F, F] list_num_par=6 frozen=false iter=20000 energy=-1.26974174 Lattice="15.00000000 0.00000000 0.00000000 0.00000000 15.00000000 0.00000000 0.00000000 0.00000000 15.00000000" energy_frozen_part=0.00000000 Properties=species:S:1:pos:R:3:velocities:R:3:Z:I:1
H         6.54363514       5.68637369       6.56068097         0.00000000       0.00000000       0.00000000          1
H         7.17723885       5.13721028       9.22550107         0.00000000       0.00000000       0.00000000          1
H         4.69429578       3.90167825       9.56124897         0.00000000       0.00000000       0.00000000          1
H         6.40566826       3.06541545       7.51768333         0.00000000       0.00000000       0.00000000          1
H         4.06068890       4.45084486       6.89643293         0.00000000       0.00000000       0.00000000          1
H         4.83226584       6.52263641       8.60424716         0.00000000       0.00000000       0.00000000          1
6
pbc=[F, F, F] list_num_par=6 frozen=false iter=20000 energy=-1.26974174 Lattice="15.00000000 0.00000000 0.00000000 0.00000000 15.00000000 0.00000000 0.00000000 0.00000000 15.00000000" energy_frozen_part=0.00000000 Properties=species:S:1:pos:R:3:velocities:R:3:Z:I:1
H         6.54367251       5.68669077       6.56073234         0.00000000       0.00000000       0.00000000          1
H         7.17736759       5.13721964       9.22546775         0.00000000       0.00000000       0.00000000          1
H         4.69440868       3.90170752       9.56117140         0.00000000       0.00000000       0.00000000          1
H         6.40567836       3.06563384       7.51744845         0.00000000       0.00000000       0.00000000          1
H         4.06070462       4.45118511       6.89644031         0.00000000       0.00000000       0.00000000          1
H         4.83239575       6.52276462       8.60445541         0.00000000       0.00000000       0.00000000          1
6
pbc=[F, F, F] list_num_par=6 frozen=false iter=20000 energy=-1.26974174 Lattice="15.00000000 0.00000000 0.00000000 0.00000000 15.00000000 0.00000000 0.00000000 0.00000000 15.00000000" energy_frozen_part=0.00000000 Properties=species:S:1:pos:R:3:velocities:R:3:Z:I:1
H         6.55521225       5.67594958       6.58182518         0.00000000       0.00000000       0.00000000          1
H         7.18190378       5.12273649       9.24743622         0.00000000       0.00000000       0.00000000          1
H         4.69376814       3.89624564       9.57786495         0.00000000       0.00000000       0.00000000          1
H         6.40574345       3.05491955       7.53688740         0.00000000       0.00000000       0.00000000          1
H         4.06707802       4.44945714       6.91224754         0.00000000       0.00000000       0.00000000          1
H         4.84323849       6.51727652       8.62280585         0.00000000       0.00000000       0.00000000          1
6
pbc=[F, F, F] list_num_par=6 frozen=false iter=20000 energy=-1.26974174 Lattice="15.00000000 0.00000000 0.00000000 0.00000000 15.00000000 0.00000000 0.00000000 0.00000000 15.00000000" energy_frozen_part=0.00000000 Properties=species:S:1:pos:R:3:velocities:R:3:Z:I:1
H         6.54447711       5.73739907       6.58261342         0.00000000       0.00000000       0.00000000          1
H         7.16514293       5.15705836       9.24386720         0.00000000       0.00000000       0.00000000          1
H         4.69967899       3.87712509       9.53975923         0.00000000       0.00000000       0.00000000          1
H         6.44078450       3.10003076       7.49795251         0.00000000       0.00000000       0.00000000          1
H         4.07901658       4.45746616       6.87850285         0.00000000       0.00000000       0.00000000          1
H         4.80337203       6.51448833       8.62442511         0.00000000       0.00000000       0.00000000          1
6
pbc=[F, F, F] list_num_par=6 frozen=false iter=20000 energy=-1.26974174 Lattice="15.00000000 0.00000000 0.00000000 0.00000000 15.00000000 0.00000000 0.00000000 0.00000000 15.00000000" energy_frozen_part=0.00000000 Properties=species:S:1:pos:R:3:velocities:R:3:Z:I:1
H         6.54370668       5.68668246       6.56080952         0.00000000       0.00000000       0.00000000          1
H         7.17731931       5.13710687       9.22554523         0.00000000       0.00000000       0.00000000          1
H         4.69432799       3.90161726       9.56113292         0.00000000       0.00000000       0.00000000          1
H         6.40565781       3.06559201       7.51743208         0.00000000       0.00000000       0.00000000          1
H         4.06071879       4.45119030       6.89640540         0.00000000       0.00000000       0.00000000          1
H         4.83238656       6.52270713       8.60451361         0.00000000       0.00000000       0.00000000          1
6
pbc=[F, F, F] list_num_par=6 frozen=false iter=20000 energy=-1.26974174 Lattice="15.00000000 0.00000000 0.00000000 0.00000000 15.00000000 0.00000000 0.00000000 0.00000000 15.00000000" energy_frozen_part=0.00000000 Properties=species:S:1:pos:R:3:velocities:R:3:Z:I:1
H         6.54367733       5.68670835       6.56075279         0.00000000       0.00000000       0.00000000          1
H         7.17735234       5.13721950       9.22548703         0.00000000       0.00000000       0.00000000          1
H         4.69439208       3.90170156       9.56117062         0.00000000       0.00000000       0.00000000          1
H         6.40568497       3.06564775       7.51745145         0.00000000       0.00000000       0.00000000          1
H         4.06071583       4.45118864       6.89643159         0.00000000       0.00000000       0.00000000          1
H         4.83238342       6.52276601       8.60446961         0.00000000       0.00000000       0.00000000          1
6
pbc=[F, F, F] list_num_par=6 frozen=false iter=20000 energy=-1.26974174 Lattice="15.00000000 0.00000000 0.00000000 0.00000000 15.00000000 0.00000000 0.00000000 0.00000000 15.00000000" energy_frozen_part=0.00000000 Properties=species:S:1:pos:R:3:velocities:R:3:Z:I:1
H         6.55457273       5.67595705       6.58172704         0.00000000       0.00000000       0.00000000          1
H         7.18193895       5.12287477       9.24721170         0.00000000       0.00000000       0.00000000          1
H         4.69398911       3.89616724       9.57825146         0.00000000       0.00000000       0.00000000          1
H         6.40556904       3.05493812       7.53689795         0.00000000       0.00000000       0.00000000          1
H         4.06662445       4.44924372       6.91277176         0.00000000       0.00000000       0.00000000          1
H         4.84299429       6.51718311       8.62307597         0.00000000       0.00000000       0.00000000          1
6
pbc=[F, F, F] list_num_par=6 frozen=false iter=20000 energy=-1.26974174 Lattice="15.00000000 0.00000000 0.00000000 0.00000000 15.00000000 0.00000000 0.00000000 0.00000000 15.00000000" energy_frozen_part=0.00000000 Properties=species:S:1:pos:R:3:velocities:R:3:Z:I:1
H         6.55456317       5.67598934       6.58181438         0.00000000       0.00000000       0.00000000          1
H         7.18193828       5.12286085       9.24728520         0.00000000       0.00000000       0.00000000          1
H         4.69397300       3.89618293       9.57831639         0.00000000       0.00000000       0.00000000          1
H         6.40553005       3.05495717       7.53694469         0.00000000       0.00000000       0.00000000          1
H         4.06660194       4.44931394       6.91284836         0.00000000       0.00000000       0.00000000          1
H         4.84301143       6.51721581       8.62319225         0.00000000       0.00000000       0.00000000          1
6
pbc=[F, F, F] list_num_par=6 frozen=false iter=20000 energy=-1.26974174 Lattice="15.00000000 0.00000000 0.00000000 0.00000000 15.00000000 0.00000000 0.00000000 0.00000000 15.00000000" energy_frozen_part=0.00000000 Properties=species:S:1:pos:R:3:velocities:R:3:Z:I:1
H         6.54451227       5.73760169       6.58263369         0.00000000       0.00000000       0.00000000          1
H         7.16506708       5.15721684       9.24390020         0.00000000       0.00000000       0.00000000          1
H         4.69964499       3.87715408       9.53961874         0.00000000       0.00000000       0.00000000          1
H         6.44089451       3.10020528       7.49788103         0.00000000       0.00000000       0.00000000          1
H         4.07909613       4.45754143       6.87834827         0.00000000       0.00000000       0.00000000          1
H         4.80326104       6.51454881       8.62436759         0.00000000       0.00000000       0.00000000          1
6
pbc=[F, F, F] list_num_par=6 frozen=false iter=20000 energy=-1.26974174 Lattice="15.00000000 0.00000000 0.00000000 0.00000000 15.00000000 0.00000000 0.00000000 0.00000000 15.00000000" energy_frozen_part=0.00000000 Properties=species:S:1:pos:R:3:velocities:R:3:Z:I:1
H         6.55521648       5.67596053       6.58182696         0.00000000       0.00000000       0.00000000          1
H         7.18190896       5.12272819       9.24743720         0.00000000       0.00000000       0.00000000          1
H         4.69377337       3.89623839       9.57786086         0.00000000       0.00000000       0.00000000          1
H         6.40575085       3.05492235       7.53687374         0.00000000       0.00000000       0.00000000          1
H         4.06708102       4.44946841       6.91224977         0.00000000       0.00000000       0.00000000          1
H         4.84324686       6.51727347       8.62281437         0.00000000       0.00000000       0.00000000          1
6
pbc=[F, F, F] list_num_par=6 frozen=false iter=20000 energy=-1.26974174 Lattice="15.00000000 0.00000000 0.00000000 0.00000000 15.00000000 0.00000000 0.00000000 0.00000000 15.00000000" energy_frozen_part=0.00000000 Properties=species:S:1:pos:R:3:velocities:R:3:Z:I:1
H         6.55459628       5.67598467       6.58181901         0.00000000       0.00000000       0.00000000          1
H         7.18193915       5.12286070       9.24729589         0.00000000       0.00000000       0.00000000          1
H         4.69396871       3.89618998       9.57830655         0.00000000       0.00000000       0.00000000          1
H         6.40553745       3.05495603       7.53694991         0.00000000       0.00000000       0.00000000          1
H         4.06662463       4.44931809       6.91283307         0.00000000       0.00000000       0.00000000          1
H         4.84302148       6.51721722       8.62317322         0.00000000       0.00000000       0.00000000          1
6
pbc=[F, F, F] list_num_par=6 frozen=false iter=20000 energy=-1.26974174 Lattice="15.00000000 0.00000000 0.00000000 0.00000000 15.00000000 0.00000000 0.00000000 0.00000000 15.00000000" energy_frozen_part=0.00000000 Properties=species:S:1:pos:R:3:velocities:R:3:Z:I:1
H         6.55457084       5.67594987       6.58173424         0.00000000       0.00000000       0.00000000          1
H         7.18193973       5.12289013       9.24722404         0.00000000       0.00000000       0.00000000          1
H         4.69399453       3.89617805       9.57826604         0.00000000       0.00000000       0.00000000          1
H         6.40557501       3.05494164       7.53692047         0.00000000       0.00000000       0.00000000          1
H         4.06662545       4.44924009       6.91278037         0.00000000       0.00000000       0.00000000          1
H         4.84299104       6.51718554       8.62308118         0.00000000       0.00000000       0.00000000          1
6
pbc=[F, F, F] list_num_par=6 frozen=false iter=20000 energy=-1.26974174 Lattice="15.00000000 0.00000000 0.00000000 0.00000000 15.00000000 0.00000000 0.00000000 0.00000000 15.00000000" energy_frozen_part=0.00000000 Properties=species:S:1:pos:R:3:velocities:R:3:Z:I:1
H         6.55460039       5.67591190       6.58176744         0.00000000       0.00000000       0.00000000          1
H         7.18193528       5.12282847       9.24725543         0.00000000       0.00000000       0.00000000          1
H         4.69394819       3.89619596       9.57828945         0.00000000       0.00000000       0.00000000          1
H         6.40551251       3.05489949       7.53695126         0.00000000       0.00000000       0.00000000          1
H         4.06661324       4.44927365       6.91279930         0.00000000       0.00000000       0.00000000          1
H         4.84303446       6.51720124       8.62310454         0.00000000       0.00000000       0.00000000          1
6
pbc=[F, F, F] list_num_par=6 frozen=false iter=20000 energy=-1.26974174 Lattice="15.00000000 0.00000000 0.00000000 0.00000000 15.00000000 0.00000000 0.00000000 0.00000000 15.00000000" energy_frozen_part=0.00000000 Properties=species:S:1:pos:R:3:velocities:R:3:Z:I:1
H         6.54367567       5.68669194       6.56074107         0.00000000       0.00000000       0.00000000          1
H         7.17735321       5.13722881       9.22547894         0.00000000       0.00000000       0.00000000          1
H         4.69439343       3.90171135       9.56117352         0.00000000       0.00000000       0.00000000          1
H         6.40568889       3.06563483       7.51746698         0.00000000       0.00000000       0.00000000          1
H         4.06071988       4.45117206       6.89643088         0.00000000       0.00000000       0.00000000          1
H         4.83238126       6.52276477       8.60444539         0.00000000       0.00000000       0.00000000          1
6
pbc=[F, F, F] list_num_par=6 frozen=false iter=20000 energy=-1.26974174 Lattice="15.00000000 0.00000000 0.00000000 0.00000000 15.00000000 0.00000000 0.00000000 0.00000000 15.00000000" energy_frozen_part=0.00000000 Properties=species:S:1:pos:R:3:velocities:R:3:Z:I:1
H         6.54372722       5.68669360       6.56082677         0.00000000       0.00000000       0.00000000          1
H         7.17736130       5.13710686       9.22554808         0.00000000       0.00000000       0.00000000          1
H         4.69437026       3.90163915       9.56116167         0.00000000       0.00000000       0.00000000          1
H         6.40566496       3.06560167       7.51744073         0.00000000       0.00000000       0.00000000          1
H         4.06073521       4.45122023       6.89643849         0.00000000       0.00000000       0.00000000          1
H         4.83243133       6.52273004       8.60454843         0.00000000       0.00000000       0.00000000          1
6
pbc=[F, F, F] list_num_par=6 frozen=false iter=20000 energy=-1.26974174 Lattice="15.00000000 0.00000000 0.00000000 0.00000000 15.00000000 0.00000000 0.00000000 0.00000000 15.00000000" energy_frozen_part=0.00000000 Properties=species:S:1:pos:R:3:velocities:R:3:Z:I:1
H         6.54448786       5.73737767       6.58261163         0.00000000       0.00000000       0.00000000          1
H         7.16514980       5.15703783       9.24386782         0.00000000       0.00000000       0.00000000          1
H         4.69968409       3.87711450       9.53975592         0.00000000       0.00000000       0.00000000          1
H         6.44077406       3.10001601       7.49794562         0.00000000       0.00000000       0.00000000          1
H         4.07901781       4.45746014       6.87849772         0.00000000       0.00000000       0.00000000          1
H         4.80338530       6.51447843       8.62441616         0.00000000       0.00000000       0.00000000          1
