6
pbc=[F, F, F] list_num_par=6 frozen=false iter=20000 energy=-1.26974174 Lattice="15.00000000 0.00000000 0.00000000 0.00000000 15.00000000 0.00000000 0.00000000 0.00000000 15.00000000" energy_frozen_part=0.00000000 Properties=species:S:1:pos:R:3:velocities:R:3:Z:I:1
H         5.34429408       3.57155586       1.62885678         0.00000000       0.00000000       0.00000000          1
H         4.96893755       1.07646924       2.82798428         0.00000000       0.00000000       0.00000000          1
H         4.36441377       3.40993940       4.23999124         0.00000000       0.00000000       0.00000000          1
H         2.68284340       4.22973792       2.16525753         0.00000000       0.00000000       0.00000000          1
H         2.30747930       1.73464465       3.36438155         0.00000000       0.00000000       0.00000000          1
H         3.28735952       1.89626596       0.75325136         0.00000000       0.00000000       0.00000000          1
6
pbc=[F, F, F] list_num_par=6 frozen=false iter=20000 energy=-1.26974174 Lattice="15.00000000 0.00000000 0.00000000 0.00000000 15.00000000 0.00000000 0.00000000 0.00000000 15.00000000" energy_frozen_part=0.00000000 Properties=species:S:1:pos:R:3:velocities:R:3:Z:I:1
H         5.34425859       3.57157705       1.62885842         0.00000000       0.00000000       0.00000000          1
H         4.96890074       1.07645960       2.82793711         0.00000000       0.00000000       0.00000000          1
H         4.36439449       3.40990421       4.23998859         0.00000000       0.00000000       0.00000000          1
H         2.68280719       4.22974979       2.16529008         0.00000000       0.00000000       0.00000000          1
H         2.30744916       1.73463188       3.36436949         0.00000000       0.00000000       0.00000000          1
H         3.28731170       1.89629989       0.75323991         0.00000000       0.00000000       0.00000000          1
6
pbc=[F, F, F] list_num_par=6 frozen=false iter=20000 energy=-1.26974174 Lattice="15.00000000 0.00000000 0.00000000 0.00000000 15.00000000 0.00000000 0.00000000 0.00000000 15.00000000" energy_frozen_part=0.00000000 Properties=species:S:1:pos:R:3:velocities:R:3:Z:I:1
H         5.34458988       3.57093892       1.62930265         0.00000000       0.00000000       0.00000000          1
H         4.96835965       1.07589831       2.82826769         0.00000000       0.00000000       0.00000000          1
H         4.36419312       3.40947310       4.24024884         0.00000000       0.00000000       0.00000000          1
H         2.68320122       4.22978516       2.16525347         0.00000000       0.00000000       0.00000000          1
H         2.30697591       1.73474196       3.36420910         0.00000000       0.00000000       0.00000000          1
H         3.28737438       1.89621709       0.75326624         0.00000000       0.00000000       0.00000000          1
6
pbc=[F, F, F] list_num_par=6 frozen=false iter=20000 energy=-1.26974174 Lattice="15.00000000 0.00000000 0.00000000 0.00000000 15.00000000 0.00000000 0.00000000 0.00000000 15.00000000" energy_frozen_part=0.00000000 Properties=species:S:1:pos:R:3:velocities:R:3:Z:I:1
H         5.34427663       3.57144157       1.62880918         0.00000000       0.00000000       0.00000000          1
H         4.96888347       1.07636445       2.82795616         0.00000000       0.00000000       0.00000000          1
H         4.36440701       3.40985363       4.23994611         0.00000000       0.00000000       0.00000000          1
H         2.68282450       4.22965424       2.16521353         0.00000000       0.00000000       0.00000000          1
H         2.30744039       1.73458382       3.36436097         0.00000000       0.00000000       0.00000000          1
H         3.28731173       1.89616629       0.75322565         0.00000000       0.00000000       0.00000000          1
6
pbc=[F, F, F] list_num_par=6 frozen=false iter=20000 energy=-1.26974174 Lattice="15.00000000 0.00000000 0.00000000 0.00000000 15.00000000 0.00000000 0.00000000 0.00000000 15.00000000" energy_frozen_part=0.00000000 Properties=species:S:1:pos:R:3:velocities:R:3:Z:I:1
H         5.36880988       3.55763651       1.63194123         0.00000000       0.00000000       0.00000000          1
H         4.96478716       1.05881446       2.81386140         0.00000000       0.00000000       0.00000000          1
H         4.39179524       3.38936299       4.24372517         0.00000000       0.00000000       0.00000000          1
H         2.71669328       4.24480163       2.17816327         0.00000000       0.00000000       0.00000000          1
H         2.31266748       1.74598196       3.36009201         0.00000000       0.00000000       0.00000000          1
H         3.28968813       1.91425400       0.74830132         0.00000000       0.00000000       0.00000000          1
6
pbc=[F, F, F] list_num_par=6 frozen=false iter=20000 energy=-1.26974174 Lattice="15.00000000 0.00000000 0.00000000 0.00000000 15.00000000 0.00000000 0.00000000 0.00000000 15.00000000" energy_frozen_part=0.00000000 Properties=species:S:1:pos:R:3:velocities:R:3:Z:I:1
H         5.36879168       3.55766705       1.63193958         0.00000000       0.00000000       0.00000000          1
H         4.96480791       1.05883467       2.81385474         0.00000000       0.00000000       0.00000000          1
H         4.39177352       3.38937074       4.24372299         0.00000000       0.00000000       0.00000000          1
H         2.71666419       4.24478995       2.17816688         0.00000000       0.00000000       0.00000000          1
H         2.31267992       1.74596153       3.36007272         0.00000000       0.00000000       0.00000000          1
H         3.28969275       1.91425590       0.74829377         0.00000000       0.00000000       0.00000000          1
6
pbc=[F, F, F] list_num_par=6 frozen=false iter=20000 energy=-1.26974174 Lattice="15.00000000 0.00000000 0.00000000 0.00000000 15.00000000 0.00000000 0.00000000 0.00000000 15.00000000" energy_frozen_part=0.00000000 Properties=species:S:1:pos:R:3:velocities:R:3:Z:I:1
H         5.34423993       3.57158494       1.62883261         0.00000000       0.00000000       0.00000000          1
H         4.96890656       1.07648142       2.82794232         0.00000000       0.00000000       0.00000000          1
H         4.36440269       3.40992990       4.23997937         0.00000000       0.00000000       0.00000000          1
H         2.68279327       4.22975636       2.16528194         0.00000000       0.00000000       0.00000000          1
H         2.30745547       1.73464583       3.36438709         0.00000000       0.00000000       0.00000000          1
H         3.28729596       1.89629925       0.75324593         0.00000000       0.00000000       0.00000000          1
6
pbc=[F, F, F] list_num_par=6 frozen=false iter=20000 energy=-1.26974174 Lattice="15.00000000 0.00000000 0.00000000 0.00000000 15.00000000 0.00000000 0.00000000 0.00000000 15.00000000" energy_frozen_part=0.00000000 Properties=species:S:1:pos:R:3:velocities:R:3:Z:I:1
H         5.34424856       3.57158785       1.62886151         0.00000000       0.00000000       0.00000000          1
H         4.96891818       1.07646999       2.82793240         0.00000000       0.00000000       0.00000000          1
H         4.36440562       3.40990331       4.23999832         0.00000000       0.00000000       0.00000000          1
H         2.68279720       4.22973797       2.16530311         0.00000000       0.00000000       0.00000000          1
H         2.30746028       1.73462226       3.36438360         0.00000000       0.00000000       0.00000000          1
H         3.28731137       1.89630079       0.75324408         0.00000000       0.00000000       0.00000000          1
6
pbc=[F, F, F] list_num_par=6 frozen=false iter=20000 energy=-1.26974174 Lattice="15.00000000 0.00000000 0.00000000 0.00000000 15.00000000 0.00000000 0.00000000 0.00000000 15.00000000" energy_frozen_part=0.00000000 Properties=species:S:1:pos:R:3:velocities:R:3:Z:I:1
H         5.34425822       3.57154166       1.62879472         0.00000000       0.00000000       0.00000000          1
H         4.96891045       1.07642783       2.82787757         0.00000000       0.00000000       0.00000000          1
H         4.36441039       3.40987716       4.23993336         0.00000000       0.00000000       0.00000000          1
H         2.68281070       4.22971026       2.16523881         0.00000000       0.00000000       0.00000000          1
H         2.30745853       1.73460213       3.36433114         0.00000000       0.00000000       0.00000000          1
H         3.28730137       1.89626391       0.75318672         0.00000000       0.00000000       0.00000000          1
6
pbc=[F, F, F] list_num_par=6 frozen=false iter=20000 energy=-1.26974174 Lattice="15.00000000 0.00000000 0.00000000 0.00000000 15.00000000 0.00000000 0.00000000 0.00000000 15.00000000" energy_frozen_part=0.00000000 Properties=species:S:1:pos:R:3:velocities:R:3:Z:I:1
H         5.34423314       3.57159794       1.62881929         0.00000000       0.00000000       0.00000000          1
H         4.96890698       1.07648900       2.82793376         0.00000000       0.00000000       0.00000000          1
H         4.36439484       3.40994538       4.23997029         0.00000000       0.00000000       0.00000000          1
H         2.68277923       4.22975050       2.16527443         0.00000000       0.00000000       0.00000000          1
H         2.30745201       1.73464430       3.36438186         0.00000000       0.00000000       0.00000000          1
H         3.28729301       1.89629735       0.75323621         0.00000000       0.00000000       0.00000000          1
6
pbc=[F, F, F] list_num_par=6 frozen=false iter=20000 energy=-1.26974174 Lattice="15.00000000 0.00000000 0.00000000 0.00000000 15.00000000 0.00000000 0.00000000 0.00000000 15.00000000" energy_frozen_part=0.00000000 Properties=species:S:1:pos:R:3:velocities:R:3:Z:I:1
H         5.36878960       3.55767329       1.63195182         0.00000000       0.00000000       0.00000000          1
H         4.96479969       1.05884143       2.81386398         0.00000000       0.00000000       0.00000000          1
H         4.39177989       3.38937374       4.24373930         0.00000000       0.00000000       0.00000000          1
H         2.71665869       4.24479441       2.17818178         0.00000000       0.00000000       0.00000000          1
H         2.31267308       1.74597022       3.36009861         0.00000000       0.00000000       0.00000000          1
H         3.28968286       1.91426218       0.74831081         0.00000000       0.00000000       0.00000000          1
6
pbc=[F, F, F] list_num_par=6 frozen=false iter=20000 energy=-1.26974174 Lattice="15.00000000 0.00000000 0.00000000 0.00000000 15.00000000 0.00000000 0.00000000 0.00000000 15.00000000" energy_frozen_part=0.00000000 Properties=species:S:1:pos:R:3:velocities:R:3:Z:I:1
H         5.34424930       3.57157061       1.62886161         0.00000000       0.00000000       0.00000000          1
H         4.96889983       1.07645735       2.82794293         0.00000000       0.00000000       0.00000000          1
H         4.36440123       3.40990667       4.24000207         0.00000000       0.00000000       0.00000000          1
H         2.68279891       4.22974616       2.16531296         0.00000000       0.00000000       0.00000000          1
H         2.30745255       1.73463486       3.36439259         0.00000000       0.00000000       0.00000000          1
H         3.28729135       1.89630058       0.75325165         0.00000000       0.00000000       0.00000000          1
6
pbc=[F, F, F] list_num_par=6 frozen=false iter=20000 energy=-1.26974174 Lattice="15.00000000 0.00000000 0.00000000 0.00000000 15.00000000 0.00000000 0.00000000 0.00000000 15.00000000" energy_frozen_part=0.00000000 Properties=species:S:1:pos:R:3:velocities:R:3:Z:I:1
H         5.34425532       3.57158064       1.62886289         0.00000000       0.00000000       0.00000000          1
H         4.96890090       1.07646313       2.82794329         0.00000000       0.00000000       0.00000000          1
H         4.36440261       3.40990008       4.24000046         0.00000000       0.00000000       0.00000000          1
H         2.68280906       4.22975534       2.16530275         0.00000000       0.00000000       0.00000000          1
H         2.30744986       1.73464161       3.36438096         0.00000000       0.00000000       0.00000000          1
H         3.28730391       1.89630664       0.75324717         0.00000000       0.00000000       0.00000000          1
6
pbc=[F, F, F] list_num_par=6 frozen=false iter=20000 energy=-1.26974174 Lattice="15.00000000 0.00000000 0.00000000 0.00000000 15.00000000 0.00000000 0.00000000 0.00000000 15.00000000" energy_frozen_part=0.00000000 Properties=species:S:1:pos:R:3:velocities:R:3:Z:I:1
H         5.34460492       3.57094496       1.62926029         0.00000000       0.00000000       0.00000000          1
H         4.96838912       1.07589998       2.82822327         0.00000000       0.00000000       0.00000000          1
H         4.36424921       3.40947352       4.24021817         0.00000000       0.00000000       0.00000000          1
H         2.68323087       4.22980589       2.16524747         0.00000000       0.00000000       0.00000000          1
H         2.30701300       1.73475784       3.36420916         0.00000000       0.00000000       0.00000000          1
H         3.28737471       1.89622795       0.75324763         0.00000000       0.00000000       0.00000000          1
6
pbc=[F, F, F] list_num_par=6 frozen=false iter=20000 energy=-1.26974174 Lattice="15.00000000 0.00000000 0.00000000 0.00000000 15.00000000 0.00000000 0.00000000 0.00000000 15.00000000" energy_frozen_part=0.00000000 Properties=species:S:1:pos:R:3:velocities:R:3:Z:I:1
H         5.34429693       3.57154820       1.62885273         0.00000000       0.00000000       0.00000000          1
H         4.96893091       1.07645861       2.82797558         0.00000000       0.00000000       0.00000000          1
H         4.36442462       3.40992610       4.23998445         0.00000000       0.00000000       0.00000000          1
H         2.68284085       4.22973644       2.16525695         0.00000000       0.00000000       0.00000000          1
H         2.30747679       1.73464461       3.36438241         0.00000000       0.00000000       0.00000000          1
H         3.28734514       1.89627118       0.75325210         0.00000000       0.00000000       0.00000000          1
6
pbc=[F, F, F] list_num_par=6 frozen=false iter=20000 energy=-1.26974174 Lattice="15.00000000 0.00000000 0.00000000 0.00000000 15.00000000 0.00000000 0.00000000 0.00000000 15.00000000" energy_frozen_part=0.00000000 Properties=species:S:1:pos:R:3:velocities:R:3:Z:I:1
H         5.36879669       3.55759585       1.63195820         0.00000000       0.00000000       0.00000000          1
H         4.96477343       1.05875775       2.81383419         0.00000000       0.00000000       0.00000000          1
H         4.39183781       3.38927622       4.24376754         0.00000000       0.00000000       0.00000000          1
H         2.71669953       4.24477891       2.17825722         0.00000000       0.00000000       0.00000000          1
H         2.31267649       1.74593551       3.36013370         0.00000000       0.00000000       0.00000000          1
H         3.28963270       1.91425665       0.74833233         0.00000000       0.00000000       0.00000000          1
6
pbc=[F, F, F] list_num_par=6 frozen=false iter=20000 energy=-1.26974174 Lattice="15.00000000 0.00000000 0.00000000 0.00000000 15.00000000 0.00000000 0.00000000 0.00000000 15.00000000" energy_frozen_part=0.00000000 Properties=species:S:1:pos:R:3:velocities:R:3:Z:I:1
H         5.36885190       3.55764234       1.63198018         0.00000000       0.00000000       0.00000000          1
H         4.96480138       1.05881888       2.81389679         0.00000000       0.00000000       0.00000000          1
H         4.39181380       3.38937013       4.24375834         0.00000000       0.00000000       0.00000000          1
H         2.71673141       4.24481932       2.17818942         0.00000000       0.00000000       0.00000000          1
H         2.31268588       1.74599295       3.36010400         0.00000000       0.00000000       0.00000000          1
H         3.28972079       1.91426955       0.74832472         0.00000000       0.00000000       0.00000000          1
6
pbc=[F, F, F] list_num_par=6 frozen=false iter=20000 energy=-1.26974174 Lattice="15.00000000 0.00000000 0.00000000 0.00000000 15.00000000 0.00000000 0.00000000 0.00000000 15.00000000" energy_frozen_part=0.00000000 Properties=species:S:1:pos:R:3:velocities:R:3:Z:I:1
H         5.34452221       3.57100468       1.62921584         0.00000000       0.00000000       0.00000000          1
H         4.96844379       1.07592329       2.82815222         0.00000000       0.00000000       0.00000000          1
H         4.36428888       3.40944724       4.24022113         0.00000000       0.00000000       0.00000000          1
H         2.68314915       4.22976617       2.16533531         0.00000000       0.00000000       0.00000000          1
H         2.30706898       1.73468343       3.36426267         0.00000000       0.00000000       0.00000000          1
H         3.28730850       1.89623801       0.75326591         0.00000000       0.00000000       0.00000000          1
6
pbc=[F, F, F] list_num_par=6 frozen=false iter=20000 energy=-1.26974174 Lattice="15.00000000 0.00000000 0.00000000 0.00000000 15.00000000 0.00000000 0.00000000 0.00000000 15.00000000" energy_frozen_part=0.00000000 Properties=species:S:1:pos:R:3:velocities:R:3:Z:I:1
H         5.34428905       3.57143992       1.62882811         0.00000000       0.00000000       0.00000000          1
H         4.96888077       1.07635761       2.82796215         0.00000000       0.00000000       0.00000000          1
H         4.36438778       3.40984330       4.23995345         0.00000000       0.00000000       0.00000000          1
H         2.68283631       4.22966375       2.16521605         0.00000000       0.00000000       0.00000000          1
H         2.30742966       1.73458029       3.36434988         0.00000000       0.00000000       0.00000000          1
H         3.28731892       1.89617913       0.75322029         0.00000000       0.00000000       0.00000000          1
6
pbc=[F, F, F] list_num_par=6 frozen=false iter=20000 energy=-1.26974174 Lattice="15.00000000 0.00000000 0.00000000 0.00000000 15.00000000 0.00000000 0.00000000 0.00000000 15.00000000" energy_frozen_part=0.00000000 Properties=species:S:1:pos:R:3:velocities:R:3:Z:I:1
H         5.36880020       3.55765124       1.63196035         0.00000000       0.00000000       0.00000000          1
H         4.96481946       1.05880833       2.81385706         0.00000000       0.00000000       0.00000000          1
H         4.39178718       3.38933531       4.24374191         0.00000000       0.00000000       0.00000000          1
H         2.71667027       4.24477366       2.17818989         0.00000000       0.00000000       0.00000000          1
H         2.31268505       1.74593266       3.36008671         0.00000000       0.00000000       0.00000000          1
H         3.28969895       1.91424367       0.74831273         0.00000000       0.00000000       0.00000000          1
6
pbc=[F, F, F] list_num_par=6 frozen=false iter=20000 energy=-1.26974174 Lattice="15.00000000 0.00000000 0.00000000 0.00000000 15.00000000 0.00000000 0.00000000 0.00000000 15.00000000" energy_frozen_part=0.00000000 Properties=species:S:1:pos:R:3:velocities:R:3:Z:I:1
H         5.34424275       3.57148219       1.62882055         0.00000000       0.00000000       0.00000000          1
H         4.96893561       1.07642894       2.82803075         0.00000000       0.00000000       0.00000000          1
H         4.36447465       3.40993584       4.24000183         0.00000000       0.00000000       0.00000000          1
H         2.68281003       4.22968209       2.16532158         0.00000000       0.00000000       0.00000000          1
H         2.30749609       1.73461775       3.36452738         0.00000000       0.00000000       0.00000000          1
H         3.28725970       1.89617089       0.75335234         0.00000000       0.00000000       0.00000000          1
6
pbc=[F, F, F] list_num_par=6 frozen=false iter=20000 energy=-1.26974174 Lattice="15.00000000 0.00000000 0.00000000 0.00000000 15.00000000 0.00000000 0.00000000 0.00000000 15.00000000" energy_frozen_part=0.00000000 Properties=species:S:1:pos:R:3:velocities:R:3:Z:I:1
H         5.34423508       3.57149587       1.62883468         0.00000000       0.00000000       0.00000000          1
H         4.96892083       1.07643324       2.82802582         0.00000000       0.00000000       0.00000000          1
H         4.36446966       3.40994013       4.24000670         0.00000000       0.00000000       0.00000000          1
H         2.68280281       4.22969373       2.16533500         0.00000000       0.00000000       0.00000000          1
H         2.30749351       1.73462783       3.36453317         0.00000000       0.00000000       0.00000000          1
H         3.28725400       1.89619115       0.75335222         0.00000000       0.00000000       0.00000000          1
6
pbc=[F, F, F] list_num_par=6 frozen=false iter=20000 energy=-1.26974174 Lattice="15.00000000 0.00000000 0.00000000 0.00000000 15.00000000 0.00000000 0.00000000 0.00000000 15.00000000" energy_frozen_part=0.00000000 Properties=species:S:1:pos:R:3:velocities:R:3:Z:I:1
H         5.36879669       3.55759320       1.63196363         0.00000000       0.00000000       0.00000000          1
H         4.96477155       1.05874519       2.81383382         0.00000000       0.00000000       0.00000000          1
H         4.39184553       3.38926109       4.24376324         0.00000000       0.00000000       0.00000000          1
H         2.71670201       4.24477853       2.17826551         0.00000000       0.00000000       0.00000000          1
H         2.31267318       1.74593496       3.36013298         0.00000000       0.00000000       0.00000000          1
H         3.28962840       1.91425534       0.74833134         0.00000000       0.00000000       0.00000000          1
6
pbc=[F, F, F] list_num_par=6 frozen=false iter=20000 energy=-1.26974174 Lattice="15.00000000 0.00000000 0.00000000 0.00000000 15.00000000 0.00000000 0.00000000 0.00000000 15.00000000" energy_frozen_part=0.00000000 Properties=species:S:1:pos:R:3:velocities:R:3:Z:I:1
H         5.34425800       3.57154438       1.62880082         0.00000000       0.00000000       0.00000000          1
H         4.96891244       1.07643538       2.82788482         0.00000000       0.00000000       0.00000000          1
H         4.36440635       3.40987645       4.23994168         0.00000000       0.00000000       0.00000000          1
H         2.68280563       4.22970618       2.16524280         0.00000000       0.00000000       0.00000000          1
H         2.30746254       1.73458976       3.36432552         0.00000000       0.00000000       0.00000000          1
H         3.28731074       1.89626552       0.75318285         0.00000000       0.00000000       0.00000000          1
6
pbc=[F, F, F] list_num_par=6 frozen=false iter=20000 energy=-1.26974174 Lattice="15.00000000 0.00000000 0.00000000 0.00000000 15.00000000 0.00000000 0.00000000 0.00000000 15.00000000" energy_frozen_part=0.00000000 Properties=species:S:1:pos:R:3:velocities:R:3:Z:I:1
H         5.36715571       3.55782980       1.62850496         0.00000000       0.00000000       0.00000000          1
H         4.96445262       1.05995614       2.81288772         0.00000000       0.00000000       0.00000000          1
H         4.39373067       3.39166705       4.24176315         0.00000000       0.00000000       0.00000000          1
H         2.71588649       4.24574909       2.17787352         0.00000000       0.00000000       0.00000000          1
H         2.31317564       1.74787708       3.36224979         0.00000000       0.00000000       0.00000000          1
H         3.28660303       1.91404455       0.74899101         0.00000000       0.00000000       0.00000000          1
6
pbc=[F, F, F] list_num_par=6 frozen=false iter=20000 energy=-1.26974174 Lattice="15.00000000 0.00000000 0.00000000 0.00000000 15.00000000 0.00000000 0.00000000 0.00000000 15.00000000" energy_frozen_part=0.00000000 Properties=species:S:1:pos:R:3:velocities:R:3:Z:I:1
H         5.34427668       3.57144181       1.62880383         0.00000000       0.00000000       0.00000000          1
H         4.96887643       1.07637625       2.82795746         0.00000000       0.00000000       0.00000000          1
H         4.36439125       3.40986921       4.23993916         0.00000000       0.00000000       0.00000000          1
H         2.68283102       4.22966971       2.16520019         0.00000000       0.00000000       0.00000000          1
H         2.30742622       1.73459732       3.36434950         0.00000000       0.00000000       0.00000000          1
H         3.28730642       1.89617200       0.75321945         0.00000000       0.00000000       0.00000000          1
6
pbc=[F, F, F] list_num_par=6 frozen=false iter=20000 energy=-1.26974174 Lattice="15.00000000 0.00000000 0.00000000 0.00000000 15.00000000 0.00000000 0.00000000 0.00000000 15.00000000" energy_frozen_part=0.00000000 Properties=species:S:1:pos:R:3:velocities:R:3:Z:I:1
H         5.34425028       3.57157313       1.62884403         0.00000000       0.00000000       0.00000000          1
H         4.96895872       1.07649142       2.82801792         0.00000000       0.00000000       0.00000000          1
H         4.36446678       3.40997995       4.24000795         0.00000000       0.00000000       0.00000000          1
H         2.68280389       4.22972749       2.16531619         0.00000000       0.00000000       0.00000000          1
H         2.30751292       1.73465760       3.36450068         0.00000000       0.00000000       0.00000000          1
H         3.28730422       1.89623910       0.75333301         0.00000000       0.00000000       0.00000000          1
6
pbc=[F, F, F] list_num_par=6 frozen=false iter=20000 energy=-1.26974174 Lattice="15.00000000 0.00000000 0.00000000 0.00000000 15.00000000 0.00000000 0.00000000 0.00000000 15.00000000" energy_frozen_part=0.00000000 Properties=species:S:1:pos:R:3:velocities:R:3:Z:I:1
H         5.36878957       3.55759853       1.63195605         0.00000000       0.00000000       0.00000000          1
H         4.96475236       1.05879521       2.81390298         0.00000000       0.00000000       0.00000000          1
H         4.39175104       3.38936563       4.24373686         0.00000000       0.00000000       0.00000000          1
H         2.71666929       4.24478197       2.17815069         0.00000000       0.00000000       0.00000000          1
H         2.31263392       1.74597445       3.36009415         0.00000000       0.00000000       0.00000000          1
H         3.28966427       1.91421011       0.74831905         0.00000000       0.00000000       0.00000000          1
6
pbc=[F, F, F] list_num_par=6 frozen=false iter=20000 energy=-1.26974174 Lattice="15.00000000 0.00000000 0.00000000 0.00000000 15.00000000 0.00000000 0.00000000 0.00000000 15.00000000" energy_frozen_part=0.00000000 Properties=species:S:1:pos:R:3:velocities:R:3:Z:I:1
H         5.34450458       3.57102965       1.62921904         0.00000000       0.00000000       0.00000000          1
H         4.96845015       1.07594905       2.82815646         0.00000000       0.00000000       0.00000000          1
H         4.36427948       3.40946661       4.24022400         0.00000000       0.00000000       0.00000000          1
H         2.68312878       4.22976728       2.16534221         0.00000000       0.00000000       0.00000000          1
H         2.30707391       1.73468490       3.36426979         0.00000000       0.00000000       0.00000000          1
H         3.28729719       1.89624080       0.75327227         0.00000000       0.00000000       0.00000000          1
6
pbc=[F, F, F] list_num_par=6 frozen=false iter=20000 energy=-1.26974174 Lattice="15.00000000 0.00000000 0.00000000 0.00000000 15.00000000 0.00000000 0.00000000 0.00000000 15.00000000" energy_frozen_part=0.00000000 Properties=species:S:1:pos:R:3:velocities:R:3:Z:I:1
H         5.34459269       3.57092594       1.62929706         0.00000000       0.00000000       0.00000000          1
H         4.96837069       1.07589260       2.82827162         0.00000000       0.00000000       0.00000000          1
H         4.36420624       3.40947577       4.24024553         0.00000000       0.00000000       0.00000000          1
H         2.68321496       4.22978981       2.16524487         0.00000000       0.00000000       0.00000000          1
H         2.30699003       1.73474785       3.36421969         0.00000000       0.00000000       0.00000000          1
H         3.28737629       1.89620477       0.75327215         0.00000000       0.00000000       0.00000000          1
6
pbc=[F, F, F] list_num_par=6 frozen=false iter=20000 energy=-1.26974174 Lattice="15.00000000 0.00000000 0.00000000 0.00000000 15.00000000 0.00000000 0.00000000 0.00000000 15.00000000" energy_frozen_part=0.00000000 Properties=species:S:1:pos:R:3:velocities:R:3:Z:I:1
H         5.34425548       3.57149793       1.62882149         0.00000000       0.00000000       0.00000000          1
H         4.96894584       1.07643167       2.82800454         0.00000000       0.00000000       0.00000000          1
H         4.36449078       3.40992332       4.23999771         0.00000000       0.00000000       0.00000000          1
H         2.68282070       4.22969436       2.16532644         0.00000000       0.00000000       0.00000000          1
H         2.30751061       1.73462558       3.36451564         0.00000000       0.00000000       0.00000000          1
H         3.28727018       1.89619998       0.75333448         0.00000000       0.00000000       0.00000000          1
6
pbc=[F, F, F] list_num_par=6 frozen=false iter=20000 energy=-1.26974174 Lattice="15.00000000 0.00000000 0.00000000 0.00000000 15.00000000 0.00000000 0.00000000 0.00000000 15.00000000" energy_frozen_part=0.00000000 Properties=species:S:1:pos:R:3:velocities:R:3:Z:I:1
H         5.34428537       3.57144677       1.62883792         0.00000000       0.00000000       0.00000000          1
H         4.96888851       1.07636256       2.82796979         0.00000000       0.00000000       0.00000000          1
H         4.36439533       3.40984345       4.23996190         0.00000000       0.00000000       0.00000000          1
H         2.68283773       4.22966685       2.16521734         0.00000000       0.00000000       0.00000000          1
H         2.30743602       1.73458382       3.36434603         0.00000000       0.00000000       0.00000000          1
H         3.28733137       1.89617849       0.75322175         0.00000000       0.00000000       0.00000000          1
6
pbc=[F, F, F] list_num_par=6 frozen=false iter=20000 energy=-1.26974174 Lattice="15.00000000 0.00000000 0.00000000 0.00000000 15.00000000 0.00000000 0.00000000 0.00000000 15.00000000" energy_frozen_part=0.00000000 Properties=species:S:1:pos:R:3:velocities:R:3:Z:I:1
H         5.34450296       3.57102196       1.62924106         0.00000000       0.00000000       0.00000000          1
H         4.96845120       1.07597757       2.82825047         0.00000000       0.00000000       0.00000000          1
H         4.36423537       3.40953389       4.24023368         0.00000000       0.00000000       0.00000000          1
H         2.68310931       4.22974976       2.16530021         0.00000000       0.00000000       0.00000000          1
H         2.30705677       1.73469741       3.36430229         0.00000000       0.00000000       0.00000000          1
H         3.28732762       1.89619153       0.75330884         0.00000000       0.00000000       0.00000000          1
6
pbc=[F, F, F] list_num_par=6 frozen=false iter=20000 energy=-1.26974174 Lattice="15.00000000 0.00000000 0.00000000 0.00000000 15.00000000 0.00000000 0.00000000 0.00000000 15.00000000" energy_frozen_part=0.00000000 Properties=species:S:1:pos:R:3:velocities:R:3:Z:I:1
H         5.34427953       3.57143669       1.62880893         0.00000000       0.00000000       0.00000000          1
H         4.96887448       1.07636693       2.82795851         0.00000000       0.00000000       0.00000000          1
H         4.36438432       3.40985868       4.23993865         0.00000000       0.00000000       0.00000000          1
H         2.68282586       4.22967008       2.16519940         0.00000000       0.00000000       0.00000000          1
H         2.30742267       1.73459064       3.36434022         0.00000000       0.00000000       0.00000000          1
H         3.28731254       1.89617403       0.75321695         0.00000000       0.00000000       0.00000000          1
6
pbc=[F, F, F] list_num_par=6 frozen=false iter=20000 energy=-1.26974174 Lattice="15.00000000 0.00000000 0.00000000 0.00000000 15.00000000 0.00000000 0.00000000 0.00000000 15.00000000" energy_frozen_part=0.00000000 Properties=species:S:1:pos:R:3:velocities:R:3:Z:I:1
H         5.36875762       3.55758805       1.63192076         0.00000000       0.00000000       0.00000000          1
H         4.96471967       1.05876305       2.81382955         0.00000000       0.00000000       0.00000000          1
H         4.39181046       3.38930776       4.24373213         0.00000000       0.00000000       0.00000000          1
H         2.71666877       4.24480875       2.17823154         0.00000000       0.00000000       0.00000000          1
H         2.31262945       1.74597463       3.36012652         0.00000000       0.00000000       0.00000000          1
H         3.28957874       1.91426269       0.74832383         0.00000000       0.00000000       0.00000000          1
6
pbc=[F, F, F] list_num_par=6 frozen=false iter=20000 energy=-1.26974174 Lattice="15.00000000 0.00000000 0.00000000 0.00000000 15.00000000 0.00000000 0.00000000 0.00000000 15.00000000" energy_frozen_part=0.00000000 Properties=species:S:1:pos:R:3:velocities:R:3:Z:I:1
H         5.34424532       3.57156465       1.62886622         0.00000000       0.00000000       0.00000000          1
H         4.96889143       1.07645079       2.82795695         0.00000000       0.00000000       0.00000000          1
H         4.36440411       3.40989766       4.24000689         0.00000000       0.00000000       0.00000000          1
H         2.68280292       4.22974490       2.16531054         0.00000000       0.00000000       0.00000000          1
H         2.30744348       1.73463725       3.36439706         0.00000000       0.00000000       0.00000000          1
H         3.28729513       1.89629669       0.75325901         0.00000000       0.00000000       0.00000000          1
6
pbc=[F, F, F] list_num_par=6 frozen=false iter=20000 energy=-1.26974174 Lattice="15.00000000 0.00000000 0.00000000 0.00000000 15.00000000 0.00000000 0.00000000 0.00000000 15.00000000" energy_frozen_part=0.00000000 Properties=species:S:1:pos:R:3:velocities:R:3:Z:I:1
H         5.34424109       3.57149424       1.62882718         0.00000000       0.00000000       0.00000000          1
H         4.96893025       1.07642227       2.82802007         0.00000000       0.00000000       0.00000000          1
H         4.36448007       3.40992289       4.24000416         0.00000000       0.00000000       0.00000000          1
H         2.68281428       4.22968756       2.16532665         0.00000000       0.00000000       0.00000000          1
H         2.30749509       1.73462342       3.36452359         0.00000000       0.00000000       0.00000000          1
H         3.28726140       1.89618727       0.75334531         0.00000000       0.00000000       0.00000000          1
6
pbc=[F, F, F] list_num_par=6 frozen=false iter=20000 energy=-1.26974174 Lattice="15.00000000 0.00000000 0.00000000 0.00000000 15.00000000 0.00000000 0.00000000 0.00000000 15.00000000" energy_frozen_part=0.00000000 Properties=species:S:1:pos:R:3:velocities:R:3:Z:I:1
H         5.34426339       3.57152963       1.62880309         0.00000000       0.00000000       0.00000000          1
H         4.96891542       1.07641806       2.82789575         0.00000000       0.00000000       0.00000000          1
H         4.36440505       3.40986776       4.23993748         0.00000000       0.00000000       0.00000000          1
H         2.68280926       4.22970465       2.16523537         0.00000000       0.00000000       0.00000000          1
H         2.30745948       1.73459208       3.36432346         0.00000000       0.00000000       0.00000000          1
H         3.28732214       1.89625194       0.75318481         0.00000000       0.00000000       0.00000000          1
6
pbc=[F, F, F] list_num_par=6 frozen=false iter=20000 energy=-1.26974174 Lattice="15.00000000 0.00000000 0.00000000 0.00000000 15.00000000 0.00000000 0.00000000 0.00000000 15.00000000" energy_frozen_part=0.00000000 Properties=species:S:1:pos:R:3:velocities:R:3:Z:I:1
H         5.34449383       3.57103799       1.62921312         0.00000000       0.00000000       0.00000000          1
H         4.96844432       1.07595104       2.82813628         0.00000000       0.00000000       0.00000000          1
H         4.36426289       3.40946797       4.24021694         0.00000000       0.00000000       0.00000000          1
H         2.68311798       4.22977046       2.16532645         0.00000000       0.00000000       0.00000000          1
H         2.30706600       1.73468391       3.36425443         0.00000000       0.00000000       0.00000000          1
H         3.28729345       1.89625609       0.75325304         0.00000000       0.00000000       0.00000000          1
6
pbc=[F, F, F] list_num_par=6 frozen=false iter=20000 energy=-1.26974174 Lattice="15.00000000 0.00000000 0.00000000 0.00000000 15.00000000 0.00000000 0.00000000 0.00000000 15.00000000" energy_frozen_part=0.00000000 Properties=species:S:1:pos:R:3:velocities:R:3:Z:I:1
H         5.34427428       3.57144831       1.62880073         0.00000000       0.00000000       0.00000000          1
H         4.96887952       1.07637456       2.82795011         0.00000000       0.00000000       0.00000000          1
H         4.36440219       3.40986465       4.23993296         0.00000000       0.00000000       0.00000000          1
H         2.68282986       4.22966482       2.16519929         0.00000000       0.00000000       0.00000000          1
H         2.30743502       1.73459481       3.36434598         0.00000000       0.00000000       0.00000000          1
H         3.28731404       1.89617498       0.75321170         0.00000000       0.00000000       0.00000000          1
6
pbc=[F, F, F] list_num_par=6 frozen=false iter=20000 energy=-1.26974174 Lattice="15.00000000 0.00000000 0.00000000 0.00000000 15.00000000 0.00000000 0.00000000 0.00000000 15.00000000" energy_frozen_part=0.00000000 Properties=species:S:1:pos:R:3:velocities:R:3:Z:I:1
H         5.34451126       3.57103197       1.62922123         0.00000000       0.00000000       0.00000000          1
H         4.96845170       1.07595259       2.82815277         0.00000000       0.00000000       0.00000000          1
H         4.36428087       3.40947006       4.24022488         0.00000000       0.00000000       0.00000000          1
H         2.68313358       4.22976970       2.16534646         0.00000000       0.00000000       0.00000000          1
H         2.30707273       1.73468364       3.36427304         0.00000000       0.00000000       0.00000000          1
H         3.28729989       1.89624458       0.75327382         0.00000000       0.00000000       0.00000000          1
6
pbc=[F, F, F] list_num_par=6 frozen=false iter=20000 energy=-1.26974174 Lattice="15.00000000 0.00000000 0.00000000 0.00000000 15.00000000 0.00000000 0.00000000 0.00000000 15.00000000" energy_frozen_part=0.00000000 Properties=species:S:1:pos:R:3:velocities:R:3:Z:I:1
H         5.36884594       3.55763729       1.63198236         0.00000000       0.00000000       0.00000000          1
H         4.96480538       1.05881528       2.81390099         0.00000000       0.00000000       0.00000000          1
H         4.39181555       3.38937387       4.24375565         0.00000000       0.00000000       0.00000000          1
H         2.71672303       4.24481462       2.17818840         0.00000000       0.00000000       0.00000000          1
H         2.31268401       1.74599731       3.36010991         0.00000000       0.00000000       0.00000000          1
H         3.28971693       1.91426352       0.74833556         0.00000000       0.00000000       0.00000000          1
6
pbc=[F, F, F] list_num_par=6 frozen=false iter=20000 energy=-1.26974174 Lattice="15.00000000 0.00000000 0.00000000 0.00000000 15.00000000 0.00000000 0.00000000 0.00000000 15.00000000" energy_frozen_part=0.00000000 Properties=species:S:1:pos:R:3:velocities:R:3:Z:I:1
H         5.34424102       3.57158495       1.62883042         0.00000000       0.00000000       0.00000000          1
H         4.96888753       1.07648550       2.82794526         0.00000000       0.00000000       0.00000000          1
H         4.36438660       3.40994566       4.23997314         0.00000000       0.00000000       0.00000000          1
H         2.68278651       4.22976793       2.16527236         0.00000000       0.00000000       0.00000000          1
H         2.30743043       1.73466818       3.36438022         0.00000000       0.00000000       0.00000000          1
H         3.28728428       1.89630529       0.75324126         0.00000000       0.00000000       0.00000000          1
6
pbc=[F, F, F] list_num_par=6 frozen=false iter=20000 energy=-1.26974174 Lattice="15.00000000 0.00000000 0.00000000 0.00000000 15.00000000 0.00000000 0.00000000 0.00000000 15.00000000" energy_frozen_part=0.00000000 Properties=species:S:1:pos:R:3:velocities:R:3:Z:I:1
H         5.36884327       3.55763220       1.63197369         0.00000000       0.00000000       0.00000000          1
H         4.96480767       1.05881732       2.81389576         0.00000000       0.00000000       0.00000000          1
H         4.39182117       3.38936458       4.24375642         0.00000000       0.00000000       0.00000000          1
H         2.71672537       4.24480941       2.17819594         0.00000000       0.00000000       0.00000000          1
H         2.31269009       1.74598917       3.36011549         0.00000000       0.00000000       0.00000000          1
H         3.28971327       1.91426556       0.74833007         0.00000000       0.00000000       0.00000000          1
6
pbc=[F, F, F] list_num_par=6 frozen=false iter=20000 energy=-1.26974174 Lattice="15.00000000 0.00000000 0.00000000 0.00000000 15.00000000 0.00000000 0.00000000 0.00000000 15.00000000" energy_frozen_part=0.00000000 Properties=species:S:1:pos:R:3:velocities:R:3:Z:I:1
H         5.34424081       3.57156407       1.62882283         0.00000000       0.00000000       0.00000000          1
H         4.96899249       1.07647280       2.82798617         0.00000000       0.00000000       0.00000000          1
H         4.36447257       3.40994453       4.23999065         0.00000000       0.00000000       0.00000000          1
H         2.68279396       4.22968247       2.16531864         0.00000000       0.00000000       0.00000000          1
H         2.30753791       1.73459490       3.36448052         0.00000000       0.00000000       0.00000000          1
H         3.28731103       1.89621647       0.75331050         0.00000000       0.00000000       0.00000000          1
6
pbc=[F, F, F] list_num_par=6 frozen=false iter=20000 energy=-1.26974174 Lattice="15.00000000 0.00000000 0.00000000 0.00000000 15.00000000 0.00000000 0.00000000 0.00000000 15.00000000" energy_frozen_part=0.00000000 Properties=species:S:1:pos:R:3:velocities:R:3:Z:I:1
H         5.36877850       3.55766063       1.63194512         0.00000000       0.00000000       0.00000000          1
H         4.96478857       1.05883240       2.81385829         0.00000000       0.00000000       0.00000000          1
H         4.39177494       3.38936713       4.24372895         0.00000000       0.00000000       0.00000000          1
H         2.71665949       4.24479932       2.17817509         0.00000000       0.00000000       0.00000000          1
H         2.31266785       1.74596670       3.36008907         0.00000000       0.00000000       0.00000000          1
H         3.28966937       1.91425760       0.74830920         0.00000000       0.00000000       0.00000000          1
6
pbc=[F, F, F] list_num_par=6 frozen=false iter=20000 energy=-1.26974174 Lattice="15.00000000 0.00000000 0.00000000 0.00000000 15.00000000 0.00000000 0.00000000 0.00000000 15.00000000" energy_frozen_part=0.00000000 Properties=species:S:1:pos:R:3:velocities:R:3:Z:I:1
H         5.36715500       3.55783454       1.62850289         0.00000000       0.00000000       0.00000000          1
H         4.96445754       1.05996900       2.81288866         0.00000000       0.00000000       0.00000000          1
H         4.39373150       3.39168381       4.24176382         0.00000000       0.00000000       0.00000000          1
H         2.71588292       4.24575780       2.17786687         0.00000000       0.00000000       0.00000000          1
H         2.31318524       1.74788630       3.36224852         0.00000000       0.00000000       0.00000000          1
H         3.28660694       1.91403745       0.74899324         0.00000000       0.00000000       0.00000000          1
6
pbc=[F, F, F] list_num_par=6 frozen=false iter=20000 energy=-1.26974174 Lattice="15.00000000 0.00000000 0.00000000 0.00000000 15.00000000 0.00000000 0.00000000 0.00000000 15.00000000" energy_frozen_part=0.00000000 Properties=species:S:1:pos:R:3:velocities:R:3:Z:I:1
H         5.34430205       3.57152820       1.62883878         0.00000000       0.00000000       0.00000000          1
H         4.96890766       1.07643939       2.82795970         0.00000000       0.00000000       0.00000000          1
H         4.36442128       3.40991814       4.23997445         0.00000000       0.00000000       0.00000000          1
H         2.68285457       4.22974227       2.16525067         0.00000000       0.00000000       0.00000000          1
H         2.30746025       1.73465260       3.36437571         0.00000000       0.00000000       0.00000000          1
H         3.28733055       1.89626542       0.75324110         0.00000000       0.00000000       0.00000000          1
6
pbc=[F, F, F] list_num_par=6 frozen=false iter=20000 energy=-1.26974174 Lattice="15.00000000 0.00000000 0.00000000 0.00000000 15.00000000 0.00000000 0.00000000 0.00000000 15.00000000" energy_frozen_part=0.00000000 Properties=species:S:1:pos:R:3:velocities:R:3:Z:I:1
H         5.34425749       3.57155998       1.62883943         0.00000000       0.00000000       0.00000000          1
H         4.96896274       1.07648737       2.82801815         0.00000000       0.00000000       0.00000000          1
H         4.36446048       3.40996934       4.24000656         0.00000000       0.00000000       0.00000000          1
H         2.68281136       4.22971911       2.16531506         0.00000000       0.00000000       0.00000000          1
H         2.30751316       1.73464720       3.36449872         0.00000000       0.00000000       0.00000000          1
H         3.28730516       1.89622840       0.75333160         0.00000000       0.00000000       0.00000000          1
6
pbc=[F, F, F] list_num_par=6 frozen=false iter=20000 energy=-1.26974174 Lattice="15.00000000 0.00000000 0.00000000 0.00000000 15.00000000 0.00000000 0.00000000 0.00000000 15.00000000" energy_frozen_part=0.00000000 Properties=species:S:1:pos:R:3:velocities:R:3:Z:I:1
H         5.34448470       3.57103080       1.62924569         0.00000000       0.00000000       0.00000000          1
H         4.96845043       1.07598683       2.82825633         0.00000000       0.00000000       0.00000000          1
H         4.36421051       3.40954281       4.24024196         0.00000000       0.00000000       0.00000000          1
H         2.68308767       4.22974057       2.16530401         0.00000000       0.00000000       0.00000000          1
H         2.30705447       1.73469424       3.36430803         0.00000000       0.00000000       0.00000000          1
H         3.28732082       1.89618926       0.75331781         0.00000000       0.00000000       0.00000000          1
6
pbc=[F, F, F] list_num_par=6 frozen=false iter=20000 energy=-1.26974174 Lattice="15.00000000 0.00000000 0.00000000 0.00000000 15.00000000 0.00000000 0.00000000 0.00000000 15.00000000" energy_frozen_part=0.00000000 Properties=species:S:1:pos:R:3:velocities:R:3:Z:I:1
H         5.34450005       3.57101777       1.62923878         0.00000000       0.00000000       0.00000000          1
H         4.96845022       1.07597648       2.82826480         0.00000000       0.00000000       0.00000000          1
H         4.36423466       3.40955312       4.24022841         0.00000000       0.00000000       0.00000000          1
H         2.68310982       4.22974801       2.16528456         0.00000000       0.00000000       0.00000000          1
H         2.30706436       1.73471153       3.36431790         0.00000000       0.00000000       0.00000000          1
H         3.28732556       1.89617623       0.75332150         0.00000000       0.00000000       0.00000000          1
6
pbc=[F, F, F] list_num_par=6 frozen=false iter=20000 energy=-1.26974174 Lattice="15.00000000 0.00000000 0.00000000 0.00000000 15.00000000 0.00000000 0.00000000 0.00000000 15.00000000" energy_frozen_part=0.00000000 Properties=species:S:1:pos:R:3:velocities:R:3:Z:I:1
H         5.34461749       3.57091014       1.62930350         0.00000000       0.00000000       0.00000000          1
H         4.96838095       1.07589362       2.82831148         0.00000000       0.00000000       0.00000000          1
H         4.36422088       3.40949275       4.24025514         0.00000000       0.00000000       0.00000000          1
H         2.68323323       4.22977554       2.16523418         0.00000000       0.00000000       0.00000000          1
H         2.30700221       1.73475841       3.36423618         0.00000000       0.00000000       0.00000000          1
H         3.28739223       1.89617554       0.75329020         0.00000000       0.00000000       0.00000000          1
6
pbc=[F, F, F] list_num_par=6 frozen=false iter=20000 energy=-1.26974174 Lattice="15.00000000 0.00000000 0.00000000 0.00000000 15.00000000 0.00000000 0.00000000 0.00000000 15.00000000" energy_frozen_part=0.00000000 Properties=species:S:1:pos:R:3:velocities:R:3:Z:I:1
H         5.36716588       3.55779696       1.62848728         0.00000000       0.00000000       0.00000000          1
H         4.96444563       1.05993607       2.81288851         0.00000000       0.00000000       0.00000000          1
H         4.39374404       3.39166093       4.24175067         0.00000000       0.00000000       0.00000000          1
H         2.71589971       4.24573896       2.17784817         0.00000000       0.00000000       0.00000000          1
H         2.31318456       1.74787874       3.36224768         0.00000000       0.00000000       0.00000000          1
H         3.28660050       1.91401187       0.74898804         0.00000000       0.00000000       0.00000000          1
6
pbc=[F, F, F] list_num_par=6 frozen=false iter=20000 energy=-1.26974174 Lattice="15.00000000 0.00000000 0.00000000 0.00000000 15.00000000 0.00000000 0.00000000 0.00000000 15.00000000" energy_frozen_part=0.00000000 Properties=species:S:1:pos:R:3:velocities:R:3:Z:I:1
H         5.34424602       3.57158052       1.62883793         0.00000000       0.00000000       0.00000000          1
H         4.96889278       1.07647479       2.82793771         0.00000000       0.00000000       0.00000000          1
H         4.36440143       3.40993505       4.23997737         0.00000000       0.00000000       0.00000000          1
H         2.68279389       4.22976154       2.16527846         0.00000000       0.00000000       0.00000000          1
H         2.30744228       1.73466094       3.36438762         0.00000000       0.00000000       0.00000000          1
H         3.28728355       1.89629897       0.75324498         0.00000000       0.00000000       0.00000000          1
6
pbc=[F, F, F] list_num_par=6 frozen=false iter=20000 energy=-1.26974174 Lattice="15.00000000 0.00000000 0.00000000 0.00000000 15.00000000 0.00000000 0.00000000 0.00000000 15.00000000" energy_frozen_part=0.00000000 Properties=species:S:1:pos:R:3:velocities:R:3:Z:I:1
H         5.36879608       3.55765865       1.63196502         0.00000000       0.00000000       0.00000000          1
H         4.96482661       1.05881063       2.81385853         0.00000000       0.00000000       0.00000000          1
H         4.39178353       3.38933056       4.24374621         0.00000000       0.00000000       0.00000000          1
H         2.71666462       4.24476719       2.17819475         0.00000000       0.00000000       0.00000000          1
H         2.31268889       1.74592519       3.36008252         0.00000000       0.00000000       0.00000000          1
H         3.28970611       1.91424209       0.74830819         0.00000000       0.00000000       0.00000000          1
6
pbc=[F, F, F] list_num_par=6 frozen=false iter=20000 energy=-1.26974174 Lattice="15.00000000 0.00000000 0.00000000 0.00000000 15.00000000 0.00000000 0.00000000 0.00000000 15.00000000" energy_frozen_part=0.00000000 Properties=species:S:1:pos:R:3:velocities:R:3:Z:I:1
H         5.36876559       3.55759741       1.63189949         0.00000000       0.00000000       0.00000000          1
H         4.96474090       1.05878581       2.81383485         0.00000000       0.00000000       0.00000000          1
H         4.39183682       3.38934106       4.24371482         0.00000000       0.00000000       0.00000000          1
H         2.71667440       4.24480789       2.17821324         0.00000000       0.00000000       0.00000000          1
H         2.31264937       1.74599137       3.36014888         0.00000000       0.00000000       0.00000000          1
H         3.28957930       1.91425342       0.74833608         0.00000000       0.00000000       0.00000000          1
6
pbc=[F, F, F] list_num_par=6 frozen=false iter=20000 energy=-1.26974174 Lattice="15.00000000 0.00000000 0.00000000 0.00000000 15.00000000 0.00000000 0.00000000 0.00000000 15.00000000" energy_frozen_part=0.00000000 Properties=species:S:1:pos:R:3:velocities:R:3:Z:I:1
H         5.34460576       3.57094948       1.62926988         0.00000000       0.00000000       0.00000000          1
H         4.96838581       1.07589672       2.82821757         0.00000000       0.00000000       0.00000000          1
H         4.36423579       3.40946627       4.24022391         0.00000000       0.00000000       0.00000000          1
H         2.68322776       4.22979858       2.16524097         0.00000000       0.00000000       0.00000000          1
H         2.30701496       1.73474774       3.36418859         0.00000000       0.00000000       0.00000000          1
H         3.28738067       1.89623142       0.75323225         0.00000000       0.00000000       0.00000000          1
6
pbc=[F, F, F] list_num_par=6 frozen=false iter=20000 energy=-1.26974174 Lattice="15.00000000 0.00000000 0.00000000 0.00000000 15.00000000 0.00000000 0.00000000 0.00000000 15.00000000" energy_frozen_part=0.00000000 Properties=species:S:1:pos:R:3:velocities:R:3:Z:I:1
H         5.34449342       3.57101785       1.62924856         0.00000000       0.00000000       0.00000000          1
H         4.96844790       1.07597418       2.82825727         0.00000000       0.00000000       0.00000000          1
H         4.36422375       3.40953210       4.24023646         0.00000000       0.00000000       0.00000000          1
H         2.68310182       4.22974340       2.16530154         0.00000000       0.00000000       0.00000000          1
H         2.30705793       1.73469773       3.36430837         0.00000000       0.00000000       0.00000000          1
H         3.28732301       1.89618156       0.75331966         0.00000000       0.00000000       0.00000000          1
6
pbc=[F, F, F] list_num_par=6 frozen=false iter=20000 energy=-1.26974174 Lattice="15.00000000 0.00000000 0.00000000 0.00000000 15.00000000 0.00000000 0.00000000 0.00000000 15.00000000" energy_frozen_part=0.00000000 Properties=species:S:1:pos:R:3:velocities:R:3:Z:I:1
H         5.36884007       3.55763743       1.63197487         0.00000000       0.00000000       0.00000000          1
H         4.96480730       1.05881652       2.81389477         0.00000000       0.00000000       0.00000000          1
H         4.39181724       3.38936372       4.24376004         0.00000000       0.00000000       0.00000000          1
H         2.71672892       4.24481075       2.17819500         0.00000000       0.00000000       0.00000000          1
H         2.31268763       1.74599275       3.36010435         0.00000000       0.00000000       0.00000000          1
H         3.28971535       1.91426244       0.74832663         0.00000000       0.00000000       0.00000000          1
6
pbc=[F, F, F] list_num_par=6 frozen=false iter=20000 energy=-1.26974174 Lattice="15.00000000 0.00000000 0.00000000 0.00000000 15.00000000 0.00000000 0.00000000 0.00000000 15.00000000" energy_frozen_part=0.00000000 Properties=species:S:1:pos:R:3:velocities:R:3:Z:I:1
H         5.34426954       3.57159586       1.62884383         0.00000000       0.00000000       0.00000000          1
H         4.96891971       1.07648047       2.82793539         0.00000000       0.00000000       0.00000000          1
H         4.36440472       3.40993512       4.23997586         0.00000000       0.00000000       0.00000000          1
H         2.68281313       4.22976047       2.16526950         0.00000000       0.00000000       0.00000000          1
H         2.30746485       1.73465233       3.36436309         0.00000000       0.00000000       0.00000000          1
H         3.28732443       1.89630679       0.75323269         0.00000000       0.00000000       0.00000000          1
6
pbc=[F, F, F] list_num_par=6 frozen=false iter=20000 energy=-1.26974174 Lattice="15.00000000 0.00000000 0.00000000 0.00000000 15.00000000 0.00000000 0.00000000 0.00000000 15.00000000" energy_frozen_part=0.00000000 Properties=species:S:1:pos:R:3:velocities:R:3:Z:I:1
H         5.34423885       3.57160053       1.62883354         0.00000000       0.00000000       0.00000000          1
H         4.96891258       1.07648528       2.82792328         0.00000000       0.00000000       0.00000000          1
H         4.36440152       3.40993078       4.23997685         0.00000000       0.00000000       0.00000000          1
H         2.68278836       4.22975143       2.16528064         0.00000000       0.00000000       0.00000000          1
H         2.30745745       1.73463481       3.36437132         0.00000000       0.00000000       0.00000000          1
H         3.28729818       1.89630870       0.75323312         0.00000000       0.00000000       0.00000000          1
6
pbc=[F, F, F] list_num_par=6 frozen=false iter=20000 energy=-1.26974174 Lattice="15.00000000 0.00000000 0.00000000 0.00000000 15.00000000 0.00000000 0.00000000 0.00000000 15.00000000" energy_frozen_part=0.00000000 Properties=species:S:1:pos:R:3:velocities:R:3:Z:I:1
H         5.34459416       3.57093678       1.62930329         0.00000000       0.00000000       0.00000000          1
H         4.96836853       1.07590203       2.82827275         0.00000000       0.00000000       0.00000000          1
H         4.36420529       3.40947180       4.24025090         0.00000000       0.00000000       0.00000000          1
H         2.68321075       4.22979235       2.16524748         0.00000000       0.00000000       0.00000000          1
H         2.30698560       1.73475190       3.36421387         0.00000000       0.00000000       0.00000000          1
H         3.28737519       1.89621140       0.75326942         0.00000000       0.00000000       0.00000000          1
6
pbc=[F, F, F] list_num_par=6 frozen=false iter=20000 energy=-1.26974174 Lattice="15.00000000 0.00000000 0.00000000 0.00000000 15.00000000 0.00000000 0.00000000 0.00000000 15.00000000" energy_frozen_part=0.00000000 Properties=species:S:1:pos:R:3:velocities:R:3:Z:I:1
H         5.36884520       3.55761115       1.63199209         0.00000000       0.00000000       0.00000000          1
H         4.96478725       1.05879016       2.81391113         0.00000000       0.00000000       0.00000000          1
H         4.39180373       3.38934668       4.24376833         0.00000000       0.00000000       0.00000000          1
H         2.71673577       4.24480802       2.17818470         0.00000000       0.00000000       0.00000000          1
H         2.31267087       1.74599226       3.36010348         0.00000000       0.00000000       0.00000000          1
H         3.28971231       1.91425105       0.74833066         0.00000000       0.00000000       0.00000000          1
6
pbc=[F, F, F] list_num_par=6 frozen=false iter=20000 energy=-1.26974174 Lattice="15.00000000 0.00000000 0.00000000 0.00000000 15.00000000 0.00000000 0.00000000 0.00000000 15.00000000" energy_frozen_part=0.00000000 Properties=species:S:1:pos:R:3:velocities:R:3:Z:I:1
H         5.34429055       3.57155316       1.62884635         0.00000000       0.00000000       0.00000000          1
H         4.96892918       1.07646132       2.82796961         0.00000000       0.00000000       0.00000000          1
H         4.36441948       3.40992292       4.23998355         0.00000000       0.00000000       0.00000000          1
H         2.68283838       4.22974038       2.16526277         0.00000000       0.00000000       0.00000000          1
H         2.30747471       1.73464472       3.36438620         0.00000000       0.00000000       0.00000000          1
H         3.28734187       1.89626707       0.75325078         0.00000000       0.00000000       0.00000000          1
6
pbc=[F, F, F] list_num_par=6 frozen=false iter=20000 energy=-1.26974174 Lattice="15.00000000 0.00000000 0.00000000 0.00000000 15.00000000 0.00000000 0.00000000 0.00000000 15.00000000" energy_frozen_part=0.00000000 Properties=species:S:1:pos:R:3:velocities:R:3:Z:I:1
H         5.34426861       3.57152812       1.62879921         0.00000000       0.00000000       0.00000000          1
H         4.96893447       1.07641139       2.82788017         0.00000000       0.00000000       0.00000000          1
H         4.36441677       3.40985090       4.23993171         0.00000000       0.00000000       0.00000000          1
H         2.68281306       4.22967996       2.16522768         0.00000000       0.00000000       0.00000000          1
H         2.30748112       1.73456457       3.36432088         0.00000000       0.00000000       0.00000000          1
H         3.28733041       1.89623741       0.75318277         0.00000000       0.00000000       0.00000000          1
6
pbc=[F, F, F] list_num_par=6 frozen=false iter=20000 energy=-1.26974174 Lattice="15.00000000 0.00000000 0.00000000 0.00000000 15.00000000 0.00000000 0.00000000 0.00000000 15.00000000" energy_frozen_part=0.00000000 Properties=species:S:1:pos:R:3:velocities:R:3:Z:I:1
H         5.36877399       3.55765913       1.63195135         0.00000000       0.00000000       0.00000000          1
H         4.96479583       1.05882648       2.81386669         0.00000000       0.00000000       0.00000000          1
H         4.39176546       3.38936315       4.24373575         0.00000000       0.00000000       0.00000000          1
H         2.71664918       4.24478968       2.17817687         0.00000000       0.00000000       0.00000000          1
H         2.31266275       1.74595553       3.36009090         0.00000000       0.00000000       0.00000000          1
H         3.28967717       1.91424910       0.74830701         0.00000000       0.00000000       0.00000000          1
6
pbc=[F, F, F] list_num_par=6 frozen=false iter=20000 energy=-1.26974174 Lattice="15.00000000 0.00000000 0.00000000 0.00000000 15.00000000 0.00000000 0.00000000 0.00000000 15.00000000" energy_frozen_part=0.00000000 Properties=species:S:1:pos:R:3:velocities:R:3:Z:I:1
H         5.34462036       3.57091362       1.62930058         0.00000000       0.00000000       0.00000000          1
H         4.96838200       1.07589280       2.82830988         0.00000000       0.00000000       0.00000000          1
H         4.36421517       3.40949006       4.24024798         0.00000000       0.00000000       0.00000000          1
H         2.68323274       4.22977606       2.16522587         0.00000000       0.00000000       0.00000000          1
H         2.30699593       1.73475537       3.36422380         0.00000000       0.00000000       0.00000000          1
H         3.28740257       1.89618005       0.75328532         0.00000000       0.00000000       0.00000000          1
6
pbc=[F, F, F] list_num_par=6 frozen=false iter=20000 energy=-1.26974174 Lattice="15.00000000 0.00000000 0.00000000 0.00000000 15.00000000 0.00000000 0.00000000 0.00000000 15.00000000" energy_frozen_part=0.00000000 Properties=species:S:1:pos:R:3:velocities:R:3:Z:I:1
H         5.36877073       3.55761436       1.63195266         0.00000000       0.00000000       0.00000000          1
H         4.96475058       1.05879993       2.81389271         0.00000000       0.00000000       0.00000000          1
H         4.39175039       3.38936273       4.24373443         0.00000000       0.00000000       0.00000000          1
H         2.71664511       4.24477451       2.17815579         0.00000000       0.00000000       0.00000000          1
H         2.31263353       1.74596342       3.36010363         0.00000000       0.00000000       0.00000000          1
H         3.28965600       1.91421206       0.74832111         0.00000000       0.00000000       0.00000000          1
6
pbc=[F, F, F] list_num_par=6 frozen=false iter=20000 energy=-1.26974174 Lattice="15.00000000 0.00000000 0.00000000 0.00000000 15.00000000 0.00000000 0.00000000 0.00000000 15.00000000" energy_frozen_part=0.00000000 Properties=species:S:1:pos:R:3:velocities:R:3:Z:I:1
H         5.34426050       3.57154731       1.62878981         0.00000000       0.00000000       0.00000000          1
H         4.96891474       1.07643726       2.82788118         0.00000000       0.00000000       0.00000000          1
H         4.36440638       3.40988241       4.23992797         0.00000000       0.00000000       0.00000000          1
H         2.68280379       4.22970950       2.16523375         0.00000000       0.00000000       0.00000000          1
H         2.30746020       1.73459659       3.36432259         0.00000000       0.00000000       0.00000000          1
H         3.28731898       1.89626627       0.75318373         0.00000000       0.00000000       0.00000000          1
6
pbc=[F, F, F] list_num_par=6 frozen=false iter=20000 energy=-1.26974174 Lattice="15.00000000 0.00000000 0.00000000 0.00000000 15.00000000 0.00000000 0.00000000 0.00000000 15.00000000" energy_frozen_part=0.00000000 Properties=species:S:1:pos:R:3:velocities:R:3:Z:I:1
H         5.36880411       3.55764457       1.63193106         0.00000000       0.00000000       0.00000000          1
H         4.96478384       1.05883093       2.81386749         0.00000000       0.00000000       0.00000000          1
H         4.39178519       3.38938162       4.24371918         0.00000000       0.00000000       0.00000000          1
H         2.71668577       4.24480467       2.17815086         0.00000000       0.00000000       0.00000000          1
H         2.31266683       1.74598636       3.36007723         0.00000000       0.00000000       0.00000000          1
H         3.28968746       1.91425326       0.74829319         0.00000000       0.00000000       0.00000000          1
6
pbc=[F, F, F] list_num_par=6 frozen=false iter=20000 energy=-1.26974174 Lattice="15.00000000 0.00000000 0.00000000 0.00000000 15.00000000 0.00000000 0.00000000 0.00000000 15.00000000" energy_frozen_part=0.00000000 Properties=species:S:1:pos:R:3:velocities:R:3:Z:I:1
H         5.36879505       3.55766819       1.63195723         0.00000000       0.00000000       0.00000000          1
H         4.96479774       1.05883704       2.81386387         0.00000000       0.00000000       0.00000000          1
H         4.39176875       3.38937102       4.24373789         0.00000000       0.00000000       0.00000000          1
H         2.71666540       4.24479785       2.17817000         0.00000000       0.00000000       0.00000000          1
H         2.31267193       1.74596738       3.36008251         0.00000000       0.00000000       0.00000000          1
H         3.28969723       1.91426711       0.74829721         0.00000000       0.00000000       0.00000000          1
6
pbc=[F, F, F] list_num_par=6 frozen=false iter=20000 energy=-1.26974174 Lattice="15.00000000 0.00000000 0.00000000 0.00000000 15.00000000 0.00000000 0.00000000 0.00000000 15.00000000" energy_frozen_part=0.00000000 Properties=species:S:1:pos:R:3:velocities:R:3:Z:I:1
H         5.34460733       3.57090338       1.62930902         0.00000000       0.00000000       0.00000000          1
H         4.96837315       1.07588096       2.82830175         0.00000000       0.00000000       0.00000000          1
H         4.36421012       3.40947500       4.24026072         0.00000000       0.00000000       0.00000000          1
H         2.68322771       4.22976471       2.16524500         0.00000000       0.00000000       0.00000000          1
H         2.30699367       1.73474483       3.36423305         0.00000000       0.00000000       0.00000000          1
H         3.28738884       1.89617338       0.75328542         0.00000000       0.00000000       0.00000000          1
6
pbc=[F, F, F] list_num_par=6 frozen=false iter=20000 energy=-1.26974174 Lattice="15.00000000 0.00000000 0.00000000 0.00000000 15.00000000 0.00000000 0.00000000 0.00000000 15.00000000" energy_frozen_part=0.00000000 Properties=species:S:1:pos:R:3:velocities:R:3:Z:I:1
H         5.36878007       3.55760136       1.63196790         0.00000000       0.00000000       0.00000000          1
H         4.96475350       1.05879464       2.81390746         0.00000000       0.00000000       0.00000000          1
H         4.39174512       3.38935606       4.24374348         0.00000000       0.00000000       0.00000000          1
H         2.71665635       4.24476492       2.17816042         0.00000000       0.00000000       0.00000000          1
H         2.31262569       1.74595757       3.36010669         0.00000000       0.00000000       0.00000000          1
H         3.28966381       1.91420460       0.74832809         0.00000000       0.00000000       0.00000000          1
6
pbc=[F, F, F] list_num_par=6 frozen=false iter=20000 energy=-1.26974174 Lattice="15.00000000 0.00000000 0.00000000 0.00000000 15.00000000 0.00000000 0.00000000 0.00000000 15.00000000" energy_frozen_part=0.00000000 Properties=species:S:1:pos:R:3:velocities:R:3:Z:I:1
H         5.36877606       3.55766779       1.63194568         0.00000000       0.00000000       0.00000000          1
H         4.96480456       1.05883674       2.81386522         0.00000000       0.00000000       0.00000000          1
H         4.39176299       3.38937695       4.24373216         0.00000000       0.00000000       0.00000000          1
H         2.71664422       4.24477983       2.17817400         0.00000000       0.00000000       0.00000000          1
H         2.31267508       1.74595130       3.36009540         0.00000000       0.00000000       0.00000000          1
H         3.28967667       1.91424390       0.74830805         0.00000000       0.00000000       0.00000000          1
6
pbc=[F, F, F] list_num_par=6 frozen=false iter=20000 energy=-1.26974174 Lattice="15.00000000 0.00000000 0.00000000 0.00000000 15.00000000 0.00000000 0.00000000 0.00000000 15.00000000" energy_frozen_part=0.00000000 Properties=species:S:1:pos:R:3:velocities:R:3:Z:I:1
H         5.36879559       3.55765444       1.63195312         0.00000000       0.00000000       0.00000000          1
H         4.96481568       1.05881393       2.81385153         0.00000000       0.00000000       0.00000000          1
H         4.39179312       3.38934448       4.24374104         0.00000000       0.00000000       0.00000000          1
H         2.71667392       4.24478112       2.17818956         0.00000000       0.00000000       0.00000000          1
H         2.31268822       1.74594437       3.36008685         0.00000000       0.00000000       0.00000000          1
H         3.28969090       1.91425219       0.74830086         0.00000000       0.00000000       0.00000000          1
6
pbc=[F, F, F] list_num_par=6 frozen=false iter=20000 energy=-1.26974174 Lattice="15.00000000 0.00000000 0.00000000 0.00000000 15.00000000 0.00000000 0.00000000 0.00000000 15.00000000" energy_frozen_part=0.00000000 Properties=species:S:1:pos:R:3:velocities:R:3:Z:I:1
H         5.34424532       3.57157481       1.62883443         0.00000000       0.00000000       0.00000000          1
H         4.96899116       1.07647785       2.82799158         0.00000000       0.00000000       0.00000000          1
H         4.36445793       3.40994898       4.23999779         0.00000000       0.00000000       0.00000000          1
H         2.68278232       4.22968881       2.16532294         0.00000000       0.00000000       0.00000000          1
H         2.30753283       1.73459533       3.36448250         0.00000000       0.00000000       0.00000000          1
H         3.28731884       1.89622730       0.75331656         0.00000000       0.00000000       0.00000000          1
6
pbc=[F, F, F] list_num_par=6 frozen=false iter=20000 energy=-1.26974174 Lattice="15.00000000 0.00000000 0.00000000 0.00000000 15.00000000 0.00000000 0.00000000 0.00000000 15.00000000" energy_frozen_part=0.00000000 Properties=species:S:1:pos:R:3:velocities:R:3:Z:I:1
H         5.34461334       3.57090128       1.62930866         0.00000000       0.00000000       0.00000000          1
H         4.96839207       1.07587647       2.82830376         0.00000000       0.00000000       0.00000000          1
H         4.36422574       3.40946592       4.24026241         0.00000000       0.00000000       0.00000000          1
H         2.68323169       4.22975649       2.16525042         0.00000000       0.00000000       0.00000000          1
H         2.30700451       1.73473753       3.36423987         0.00000000       0.00000000       0.00000000          1
H         3.28739961       1.89616541       0.75329250         0.00000000       0.00000000       0.00000000          1
6
pbc=[F, F, F] list_num_par=6 frozen=false iter=20000 energy=-1.26974174 Lattice="15.00000000 0.00000000 0.00000000 0.00000000 15.00000000 0.00000000 0.00000000 0.00000000 15.00000000" energy_frozen_part=0.00000000 Properties=species:S:1:pos:R:3:velocities:R:3:Z:I:1
H         5.34461067       3.57091020       1.62929552         0.00000000       0.00000000       0.00000000          1
H         4.96837744       1.07588812       2.82829854         0.00000000       0.00000000       0.00000000          1
H         4.36421757       3.40948754       4.24023916         0.00000000       0.00000000       0.00000000          1
H         2.68322934       4.22977845       2.16522768         0.00000000       0.00000000       0.00000000          1
H         2.30699513       1.73475516       3.36422504         0.00000000       0.00000000       0.00000000          1
H         3.28739825       1.89617833       0.75327895         0.00000000       0.00000000       0.00000000          1
6
pbc=[F, F, F] list_num_par=6 frozen=false iter=20000 energy=-1.26974174 Lattice="15.00000000 0.00000000 0.00000000 0.00000000 15.00000000 0.00000000 0.00000000 0.00000000 15.00000000" energy_frozen_part=0.00000000 Properties=species:S:1:pos:R:3:velocities:R:3:Z:I:1
H         5.34458723       3.57093660       1.62930336         0.00000000       0.00000000       0.00000000          1
H         4.96836711       1.07590058       2.82826947         0.00000000       0.00000000       0.00000000          1
H         4.36420955       3.40947728       4.24025540         0.00000000       0.00000000       0.00000000          1
H         2.68320614       4.22979369       2.16526220         0.00000000       0.00000000       0.00000000          1
H         2.30698675       1.73475772       3.36422367         0.00000000       0.00000000       0.00000000          1
H         3.28736335       1.89621485       0.75327084         0.00000000       0.00000000       0.00000000          1
6
pbc=[F, F, F] list_num_par=6 frozen=false iter=20000 energy=-1.26974174 Lattice="15.00000000 0.00000000 0.00000000 0.00000000 15.00000000 0.00000000 0.00000000 0.00000000 15.00000000" energy_frozen_part=0.00000000 Properties=species:S:1:pos:R:3:velocities:R:3:Z:I:1
H         5.36883855       3.55763339       1.63199316         0.00000000       0.00000000       0.00000000          1
H         4.96478921       1.05880373       2.81389878         0.00000000       0.00000000       0.00000000          1
H         4.39178739       3.38935011       4.24376516         0.00000000       0.00000000       0.00000000          1
H         2.71671489       4.24480266       2.17818059         0.00000000       0.00000000       0.00000000          1
H         2.31266870       1.74597908       3.36009352         0.00000000       0.00000000       0.00000000          1
H         3.28971666       1.91426095       0.74831898         0.00000000       0.00000000       0.00000000          1
6
pbc=[F, F, F] list_num_par=6 frozen=false iter=20000 energy=-1.26974174 Lattice="15.00000000 0.00000000 0.00000000 0.00000000 15.00000000 0.00000000 0.00000000 0.00000000 15.00000000" energy_frozen_part=0.00000000 Properties=species:S:1:pos:R:3:velocities:R:3:Z:I:1
H         5.34424643       3.57157525       1.62882680         0.00000000       0.00000000       0.00000000          1
H         4.96899014       1.07648155       2.82798292         0.00000000       0.00000000       0.00000000          1
H         4.36447457       3.40994074       4.23999947         0.00000000       0.00000000       0.00000000          1
H         2.68279343       4.22969854       2.16533751         0.00000000       0.00000000       0.00000000          1
H         2.30753636       1.73459507       3.36448695         0.00000000       0.00000000       0.00000000          1
H         3.28730475       1.89623290       0.75332006         0.00000000       0.00000000       0.00000000          1
6
pbc=[F, F, F] list_num_par=6 frozen=false iter=20000 energy=-1.26974174 Lattice="15.00000000 0.00000000 0.00000000 0.00000000 15.00000000 0.00000000 0.00000000 0.00000000 15.00000000" energy_frozen_part=0.00000000 Properties=species:S:1:pos:R:3:velocities:R:3:Z:I:1
H         5.34460570       3.57091878       1.62931406         0.00000000       0.00000000       0.00000000          1
H         4.96838377       1.07589414       2.82830967         0.00000000       0.00000000       0.00000000          1
H         4.36420153       3.40948598       4.24026064         0.00000000       0.00000000       0.00000000          1
H         2.68321570       4.22976639       2.16524288         0.00000000       0.00000000       0.00000000          1
H         2.30699570       1.73474333       3.36424012         0.00000000       0.00000000       0.00000000          1
H         3.28739523       1.89617525       0.75329923         0.00000000       0.00000000       0.00000000          1
6
pbc=[F, F, F] list_num_par=6 frozen=false iter=20000 energy=-1.26974174 Lattice="15.00000000 0.00000000 0.00000000 0.00000000 15.00000000 0.00000000 0.00000000 0.00000000 15.00000000" energy_frozen_part=0.00000000 Properties=species:S:1:pos:R:3:velocities:R:3:Z:I:1
H         5.34461128       3.57090340       1.62930586         0.00000000       0.00000000       0.00000000          1
H         4.96838893       1.07588031       2.82830000         0.00000000       0.00000000       0.00000000          1
H         4.36421599       3.40946825       4.24025140         0.00000000       0.00000000       0.00000000          1
H         2.68322610       4.22975920       2.16524630         0.00000000       0.00000000       0.00000000          1
H         2.30700431       1.73472905       3.36423440         0.00000000       0.00000000       0.00000000          1
H         3.28740019       1.89616980       0.75328745         0.00000000       0.00000000       0.00000000          1
6
pbc=[F, F, F] list_num_par=6 frozen=false iter=20000 energy=-1.26974174 Lattice="15.00000000 0.00000000 0.00000000 0.00000000 15.00000000 0.00000000 0.00000000 0.00000000 15.00000000" energy_frozen_part=0.00000000 Properties=species:S:1:pos:R:3:velocities:R:3:Z:I:1
H         5.34458678       3.57094789       1.62930762         0.00000000       0.00000000       0.00000000          1
H         4.96836389       1.07590233       2.82827141         0.00000000       0.00000000       0.00000000          1
H         4.36419178       3.40947133       4.24025257         0.00000000       0.00000000       0.00000000          1
H         2.68320064       4.22978671       2.16524431         0.00000000       0.00000000       0.00000000          1
H         2.30697575       1.73474959       3.36420713         0.00000000       0.00000000       0.00000000          1
H         3.28737853       1.89621113       0.75326294         0.00000000       0.00000000       0.00000000          1
6
pbc=[F, F, F] list_num_par=6 frozen=false iter=20000 energy=-1.26974174 Lattice="15.00000000 0.00000000 0.00000000 0.00000000 15.00000000 0.00000000 0.00000000 0.00000000 15.00000000" energy_frozen_part=0.00000000 Properties=species:S:1:pos:R:3:velocities:R:3:Z:I:1
H         5.34426946       3.57153268       1.62879719         0.00000000       0.00000000       0.00000000          1
H         4.96892279       1.07641659       2.82787877         0.00000000       0.00000000       0.00000000          1
H         4.36441574       3.40985972       4.23993421         0.00000000       0.00000000       0.00000000          1
H         2.68281433       4.22969371       2.16523159         0.00000000       0.00000000       0.00000000          1
H         2.30746755       1.73457882       3.36431624         0.00000000       0.00000000       0.00000000          1
H         3.28732081       1.89624765       0.75318412         0.00000000       0.00000000       0.00000000          1
6
pbc=[F, F, F] list_num_par=6 frozen=false iter=20000 energy=-1.26974174 Lattice="15.00000000 0.00000000 0.00000000 0.00000000 15.00000000 0.00000000 0.00000000 0.00000000 15.00000000" energy_frozen_part=0.00000000 Properties=species:S:1:pos:R:3:velocities:R:3:Z:I:1
H         5.36878145       3.55759935       1.63195441         0.00000000       0.00000000       0.00000000          1
H         4.96474373       1.05879366       2.81391003         0.00000000       0.00000000       0.00000000          1
H         4.39175503       3.38936337       4.24373307         0.00000000       0.00000000       0.00000000          1
H         2.71665888       4.24477860       2.17815435         0.00000000       0.00000000       0.00000000          1
H         2.31262194       1.74597586       3.36011063         0.00000000       0.00000000       0.00000000          1
H         3.28965764       1.91421161       0.74832790         0.00000000       0.00000000       0.00000000          1
6
pbc=[F, F, F] list_num_par=6 frozen=false iter=20000 energy=-1.26974174 Lattice="15.00000000 0.00000000 0.00000000 0.00000000 15.00000000 0.00000000 0.00000000 0.00000000 15.00000000" energy_frozen_part=0.00000000 Properties=species:S:1:pos:R:3:velocities:R:3:Z:I:1
H         5.36716518       3.55781610       1.62850389         0.00000000       0.00000000       0.00000000          1
H         4.96444038       1.05994979       2.81289417         0.00000000       0.00000000       0.00000000          1
H         4.39372571       3.39166447       4.24176303         0.00000000       0.00000000       0.00000000          1
H         2.71589298       4.24574912       2.17785344         0.00000000       0.00000000       0.00000000          1
H         2.31316519       1.74788385       3.36224285         0.00000000       0.00000000       0.00000000          1
H         3.28661040       1.91402910       0.74898988         0.00000000       0.00000000       0.00000000          1
6
pbc=[F, F, F] list_num_par=6 frozen=false iter=20000 energy=-1.26974174 Lattice="15.00000000 0.00000000 0.00000000 0.00000000 15.00000000 0.00000000 0.00000000 0.00000000 15.00000000" energy_frozen_part=0.00000000 Properties=species:S:1:pos:R:3:velocities:R:3:Z:I:1
H         5.36880023       3.55760294       1.63196356         0.00000000       0.00000000       0.00000000          1
H         4.96478192       1.05875230       2.81382912         0.00000000       0.00000000       0.00000000          1
H         4.39184057       3.38926989       4.24376227         0.00000000       0.00000000       0.00000000          1
H         2.71669552       4.24478193       2.17826127         0.00000000       0.00000000       0.00000000          1
H         2.31268242       1.74592979       3.36012730         0.00000000       0.00000000       0.00000000          1
H         3.28963930       1.91426734       0.74833112         0.00000000       0.00000000       0.00000000          1
6
pbc=[F, F, F] list_num_par=6 frozen=false iter=20000 energy=-1.26974174 Lattice="15.00000000 0.00000000 0.00000000 0.00000000 15.00000000 0.00000000 0.00000000 0.00000000 15.00000000" energy_frozen_part=0.00000000 Properties=species:S:1:pos:R:3:velocities:R:3:Z:I:1
H         5.34451732       3.57101431       1.62921561         0.00000000       0.00000000       0.00000000          1
H         4.96845230       1.07594294       2.82815713         0.00000000       0.00000000       0.00000000          1
H         4.36427484       3.40947047       4.24021748         0.00000000       0.00000000       0.00000000          1
H         2.68314482       4.22976186       2.16531778         0.00000000       0.00000000       0.00000000          1
H         2.30707187       1.73469096       3.36426000         0.00000000       0.00000000       0.00000000          1
H         3.28731301       1.89623515       0.75325968         0.00000000       0.00000000       0.00000000          1
6
pbc=[F, F, F] list_num_par=6 frozen=false iter=20000 energy=-1.26974174 Lattice="15.00000000 0.00000000 0.00000000 0.00000000 15.00000000 0.00000000 0.00000000 0.00000000 15.00000000" energy_frozen_part=0.00000000 Properties=species:S:1:pos:R:3:velocities:R:3:Z:I:1
H         5.34452511       3.57101063       1.62921750         0.00000000       0.00000000       0.00000000          1
H         4.96844311       1.07594757       2.82816902         0.00000000       0.00000000       0.00000000          1
H         4.36428738       3.40948261       4.24022451         0.00000000       0.00000000       0.00000000          1
H         2.68315315       4.22977781       2.16532475         0.00000000       0.00000000       0.00000000          1
H         2.30706972       1.73470999       3.36427443         0.00000000       0.00000000       0.00000000          1
H         3.28731102       1.89624203       0.75327278         0.00000000       0.00000000       0.00000000          1
6
pbc=[F, F, F] list_num_par=6 frozen=false iter=20000 energy=-1.26974174 Lattice="15.00000000 0.00000000 0.00000000 0.00000000 15.00000000 0.00000000 0.00000000 0.00000000 15.00000000" energy_frozen_part=0.00000000 Properties=species:S:1:pos:R:3:velocities:R:3:Z:I:1
H         5.34424453       3.57156743       1.62882276         0.00000000       0.00000000       0.00000000          1
H         4.96898988       1.07647466       2.82798247         0.00000000       0.00000000       0.00000000          1
H         4.36448444       3.40994410       4.23999708         0.00000000       0.00000000       0.00000000          1
H         2.68279373       4.22969568       2.16533305         0.00000000       0.00000000       0.00000000          1
H         2.30754353       1.73460204       3.36449165         0.00000000       0.00000000       0.00000000          1
H         3.28730699       1.89623311       0.75331553         0.00000000       0.00000000       0.00000000          1
6
pbc=[F, F, F] list_num_par=6 frozen=false iter=20000 energy=-1.26974174 Lattice="15.00000000 0.00000000 0.00000000 0.00000000 15.00000000 0.00000000 0.00000000 0.00000000 15.00000000" energy_frozen_part=0.00000000 Properties=species:S:1:pos:R:3:velocities:R:3:Z:I:1
H         5.34424954       3.57149070       1.62881841         0.00000000       0.00000000       0.00000000          1
H         4.96893565       1.07642501       2.82800986         0.00000000       0.00000000       0.00000000          1
H         4.36448419       3.40992366       4.24000109         0.00000000       0.00000000       0.00000000          1
H         2.68281990       4.22968634       2.16532239         0.00000000       0.00000000       0.00000000          1
H         2.30750580       1.73462157       3.36451718         0.00000000       0.00000000       0.00000000          1
H         3.28726783       1.89618863       0.75333825         0.00000000       0.00000000       0.00000000          1
6
pbc=[F, F, F] list_num_par=6 frozen=false iter=20000 energy=-1.26974174 Lattice="15.00000000 0.00000000 0.00000000 0.00000000 15.00000000 0.00000000 0.00000000 0.00000000 15.00000000" energy_frozen_part=0.00000000 Properties=species:S:1:pos:R:3:velocities:R:3:Z:I:1
H         5.36716752       3.55781402       1.62849313         0.00000000       0.00000000       0.00000000          1
H         4.96444276       1.05994562       2.81287093         0.00000000       0.00000000       0.00000000          1
H         4.39373080       3.39165278       4.24175324         0.00000000       0.00000000       0.00000000          1
H         2.71590155       4.24575465       2.17784765         0.00000000       0.00000000       0.00000000          1
H         2.31317215       1.74788646       3.36222565         0.00000000       0.00000000       0.00000000          1
H         3.28660872       1.91403870       0.74897092         0.00000000       0.00000000       0.00000000          1
6
pbc=[F, F, F] list_num_par=6 frozen=false iter=20000 energy=-1.26974174 Lattice="15.00000000 0.00000000 0.00000000 0.00000000 15.00000000 0.00000000 0.00000000 0.00000000 15.00000000" energy_frozen_part=0.00000000 Properties=species:S:1:pos:R:3:velocities:R:3:Z:I:1
H         5.36875737       3.55760088       1.63192995         0.00000000       0.00000000       0.00000000          1
H         4.96472114       1.05876883       2.81382555         0.00000000       0.00000000       0.00000000          1
H         4.39181826       3.38931016       4.24373643         0.00000000       0.00000000       0.00000000          1
H         2.71666744       4.24480564       2.17823577         0.00000000       0.00000000       0.00000000          1
H         2.31263511       1.74597971       3.36013400         0.00000000       0.00000000       0.00000000          1
H         3.28958076       1.91426518       0.74832042         0.00000000       0.00000000       0.00000000          1
6
pbc=[F, F, F] list_num_par=6 frozen=false iter=20000 energy=-1.26974174 Lattice="15.00000000 0.00000000 0.00000000 0.00000000 15.00000000 0.00000000 0.00000000 0.00000000 15.00000000" energy_frozen_part=0.00000000 Properties=species:S:1:pos:R:3:velocities:R:3:Z:I:1
H         5.34449868       3.57103344       1.62921889         0.00000000       0.00000000       0.00000000          1
H         4.96845106       1.07595047       2.82814894         0.00000000       0.00000000       0.00000000          1
H         4.36427765       3.40946311       4.24022831         0.00000000       0.00000000       0.00000000          1
H         2.68312132       4.22976046       2.16535219         0.00000000       0.00000000       0.00000000          1
H         2.30707781       1.73466960       3.36427727         0.00000000       0.00000000       0.00000000          1
H         3.28729518       1.89624875       0.75327254         0.00000000       0.00000000       0.00000000          1
6
pbc=[F, F, F] list_num_par=6 frozen=false iter=20000 energy=-1.26974174 Lattice="15.00000000 0.00000000 0.00000000 0.00000000 15.00000000 0.00000000 0.00000000 0.00000000 15.00000000" energy_frozen_part=0.00000000 Properties=species:S:1:pos:R:3:velocities:R:3:Z:I:1
H         5.34459118       3.57093190       1.62930325         0.00000000       0.00000000       0.00000000          1
H         4.96836894       1.07589293       2.82826375         0.00000000       0.00000000       0.00000000          1
H         4.36420391       3.40947110       4.24025005         0.00000000       0.00000000       0.00000000          1
H         2.68320872       4.22978499       2.16525203         0.00000000       0.00000000       0.00000000          1
H         2.30698838       1.73474994       3.36422166         0.00000000       0.00000000       0.00000000          1
H         3.28736994       1.89620947       0.75327211         0.00000000       0.00000000       0.00000000          1
6
pbc=[F, F, F] list_num_par=6 frozen=false iter=20000 energy=-1.26974174 Lattice="15.00000000 0.00000000 0.00000000 0.00000000 15.00000000 0.00000000 0.00000000 0.00000000 15.00000000" energy_frozen_part=0.00000000 Properties=species:S:1:pos:R:3:velocities:R:3:Z:I:1
H         5.34429314       3.57152951       1.62883766         0.00000000       0.00000000       0.00000000          1
H         4.96890819       1.07643816       2.82795490         0.00000000       0.00000000       0.00000000          1
H         4.36442302       3.40991217       4.23997043         0.00000000       0.00000000       0.00000000          1
H         2.68285172       4.22974176       2.16524359         0.00000000       0.00000000       0.00000000          1
H         2.30745915       1.73465367       3.36436026         0.00000000       0.00000000       0.00000000          1
H         3.28733633       1.89626256       0.75322947         0.00000000       0.00000000       0.00000000          1
6
pbc=[F, F, F] list_num_par=6 frozen=false iter=20000 energy=-1.26974174 Lattice="15.00000000 0.00000000 0.00000000 0.00000000 15.00000000 0.00000000 0.00000000 0.00000000 15.00000000" energy_frozen_part=0.00000000 Properties=species:S:1:pos:R:3:velocities:R:3:Z:I:1
H         5.36878946       3.55759105       1.63193344         0.00000000       0.00000000       0.00000000          1
H         4.96476649       1.05875804       2.81382831         0.00000000       0.00000000       0.00000000          1
H         4.39185546       3.38929493       4.24374793         0.00000000       0.00000000       0.00000000          1
H         2.71669941       4.24478406       2.17825496         0.00000000       0.00000000       0.00000000          1
H         2.31268002       1.74595551       3.36014915         0.00000000       0.00000000       0.00000000          1
H         3.28961510       1.91425222       0.74833501         0.00000000       0.00000000       0.00000000          1
6
pbc=[F, F, F] list_num_par=6 frozen=false iter=20000 energy=-1.26974174 Lattice="15.00000000 0.00000000 0.00000000 0.00000000 15.00000000 0.00000000 0.00000000 0.00000000 15.00000000" energy_frozen_part=0.00000000 Properties=species:S:1:pos:R:3:velocities:R:3:Z:I:1
H         5.34423320       3.57160253       1.62882890         0.00000000       0.00000000       0.00000000          1
H         4.96890475       1.07650143       2.82793496         0.00000000       0.00000000       0.00000000          1
H         4.36439257       3.40995522       4.23997125         0.00000000       0.00000000       0.00000000          1
H         2.68277742       4.22976129       2.16527694         0.00000000       0.00000000       0.00000000          1
H         2.30745474       1.73465120       3.36438321         0.00000000       0.00000000       0.00000000          1
H         3.28728628       1.89630760       0.75323959         0.00000000       0.00000000       0.00000000          1
6
pbc=[F, F, F] list_num_par=6 frozen=false iter=20000 energy=-1.26974174 Lattice="15.00000000 0.00000000 0.00000000 0.00000000 15.00000000 0.00000000 0.00000000 0.00000000 15.00000000" energy_frozen_part=0.00000000 Properties=species:S:1:pos:R:3:velocities:R:3:Z:I:1
H         5.36878267       3.55760078       1.63195165         0.00000000       0.00000000       0.00000000          1
H         4.96474768       1.05879556       2.81390723         0.00000000       0.00000000       0.00000000          1
H         4.39175286       3.38936430       4.24372784         0.00000000       0.00000000       0.00000000          1
H         2.71666391       4.24477644       2.17814786         0.00000000       0.00000000       0.00000000          1
H         2.31262876       1.74597587       3.36010559         0.00000000       0.00000000       0.00000000          1
H         3.28965659       1.91421002       0.74832312         0.00000000       0.00000000       0.00000000          1
6
pbc=[F, F, F] list_num_par=6 frozen=false iter=20000 energy=-1.26974174 Lattice="15.00000000 0.00000000 0.00000000 0.00000000 15.00000000 0.00000000 0.00000000 0.00000000 15.00000000" energy_frozen_part=0.00000000 Properties=species:S:1:pos:R:3:velocities:R:3:Z:I:1
H         5.36880293       3.55764349       1.63193619         0.00000000       0.00000000       0.00000000          1
H         4.96478149       1.05882888       2.81386338         0.00000000       0.00000000       0.00000000          1
H         4.39178416       3.38937620       4.24371814         0.00000000       0.00000000       0.00000000          1
H         2.71667899       4.24480690       2.17815255         0.00000000       0.00000000       0.00000000          1
H         2.31266189       1.74598795       3.36008615         0.00000000       0.00000000       0.00000000          1
H         3.28967677       1.91425419       0.74830060         0.00000000       0.00000000       0.00000000          1
6
pbc=[F, F, F] list_num_par=6 frozen=false iter=20000 energy=-1.26974174 Lattice="15.00000000 0.00000000 0.00000000 0.00000000 15.00000000 0.00000000 0.00000000 0.00000000 15.00000000" energy_frozen_part=0.00000000 Properties=species:S:1:pos:R:3:velocities:R:3:Z:I:1
H         5.34422722       3.57160668       1.62881817         0.00000000       0.00000000       0.00000000          1
H         4.96891574       1.07649836       2.82792567         0.00000000       0.00000000       0.00000000          1
H         4.36439553       3.40994297       4.23996608         0.00000000       0.00000000       0.00000000          1
H         2.68276993       4.22974854       2.16528032         0.00000000       0.00000000       0.00000000          1
H         2.30746104       1.73463469       3.36438533         0.00000000       0.00000000       0.00000000          1
H         3.28729354       1.89630052       0.75323648         0.00000000       0.00000000       0.00000000          1
6
pbc=[F, F, F] list_num_par=6 frozen=false iter=20000 energy=-1.26974174 Lattice="15.00000000 0.00000000 0.00000000 0.00000000 15.00000000 0.00000000 0.00000000 0.00000000 15.00000000" energy_frozen_part=0.00000000 Properties=species:S:1:pos:R:3:velocities:R:3:Z:I:1
H         5.34424980       3.57157967       1.62883640         0.00000000       0.00000000       0.00000000          1
H         4.96888403       1.07647860       2.82793899         0.00000000       0.00000000       0.00000000          1
H         4.36439501       3.40993992       4.23997420         0.00000000       0.00000000       0.00000000          1
H         2.68280000       4.22977029       2.16527075         0.00000000       0.00000000       0.00000000          1
H         2.30743740       1.73466182       3.36437475         0.00000000       0.00000000       0.00000000          1
H         3.28728750       1.89631569       0.75323425         0.00000000       0.00000000       0.00000000          1
6
pbc=[F, F, F] list_num_par=6 frozen=false iter=20000 energy=-1.26974174 Lattice="15.00000000 0.00000000 0.00000000 0.00000000 15.00000000 0.00000000 0.00000000 0.00000000 15.00000000" energy_frozen_part=0.00000000 Properties=species:S:1:pos:R:3:velocities:R:3:Z:I:1
H         5.34424248       3.57150075       1.62882456         0.00000000       0.00000000       0.00000000          1
H         4.96892599       1.07643734       2.82802601         0.00000000       0.00000000       0.00000000          1
H         4.36446785       3.40993922       4.24000278         0.00000000       0.00000000       0.00000000          1
H         2.68280558       4.22969885       2.16532299         0.00000000       0.00000000       0.00000000          1
H         2.30748921       1.73463674       3.36452633         0.00000000       0.00000000       0.00000000          1
H         3.28725914       1.89619187       0.75335310         0.00000000       0.00000000       0.00000000          1
6
pbc=[F, F, F] list_num_par=6 frozen=false iter=20000 energy=-1.26974174 Lattice="15.00000000 0.00000000 0.00000000 0.00000000 15.00000000 0.00000000 0.00000000 0.00000000 15.00000000" energy_frozen_part=0.00000000 Properties=species:S:1:pos:R:3:velocities:R:3:Z:I:1
H         5.34452131       3.57101681       1.62921857         0.00000000       0.00000000       0.00000000          1
H         4.96844785       1.07594213       2.82815837         0.00000000       0.00000000       0.00000000          1
H         4.36428300       3.40947398       4.24021882         0.00000000       0.00000000       0.00000000          1
H         2.68314549       4.22976942       2.16533158         0.00000000       0.00000000       0.00000000          1
H         2.30707348       1.73469459       3.36427537         0.00000000       0.00000000       0.00000000          1
H         3.28729993       1.89624102       0.75327164         0.00000000       0.00000000       0.00000000          1
6
pbc=[F, F, F] list_num_par=6 frozen=false iter=20000 energy=-1.26974174 Lattice="15.00000000 0.00000000 0.00000000 0.00000000 15.00000000 0.00000000 0.00000000 0.00000000 15.00000000" energy_frozen_part=0.00000000 Properties=species:S:1:pos:R:3:velocities:R:3:Z:I:1
H         5.34429418       3.57154504       1.62885713         0.00000000       0.00000000       0.00000000          1
H         4.96892355       1.07645328       2.82797348         0.00000000       0.00000000       0.00000000          1
H         4.36442801       3.40992079       4.23999263         0.00000000       0.00000000       0.00000000          1
H         2.68284010       4.22973365       2.16527189         0.00000000       0.00000000       0.00000000          1
H         2.30747640       1.73464375       3.36439878         0.00000000       0.00000000       0.00000000          1
H         3.28733899       1.89626735       0.75325972         0.00000000       0.00000000       0.00000000          1
6
pbc=[F, F, F] list_num_par=6 frozen=false iter=20000 energy=-1.26974174 Lattice="15.00000000 0.00000000 0.00000000 0.00000000 15.00000000 0.00000000 0.00000000 0.00000000 15.00000000" energy_frozen_part=0.00000000 Properties=species:S:1:pos:R:3:velocities:R:3:Z:I:1
H         5.34424117       3.57149611       1.62881840         0.00000000       0.00000000       0.00000000          1
H         4.96893012       1.07643251       2.82801875         0.00000000       0.00000000       0.00000000          1
H         4.36448124       3.40993304       4.23999564         0.00000000       0.00000000       0.00000000          1
H         2.68280912       4.22969569       2.16532909         0.00000000       0.00000000       0.00000000          1
H         2.30750019       1.73463110       3.36452434         0.00000000       0.00000000       0.00000000          1
H         3.28725396       1.89619013       0.75334742         0.00000000       0.00000000       0.00000000          1
6
pbc=[F, F, F] list_num_par=6 frozen=false iter=20000 energy=-1.26974174 Lattice="15.00000000 0.00000000 0.00000000 0.00000000 15.00000000 0.00000000 0.00000000 0.00000000 15.00000000" energy_frozen_part=0.00000000 Properties=species:S:1:pos:R:3:velocities:R:3:Z:I:1
H         5.36876260       3.55759566       1.63191301         0.00000000       0.00000000       0.00000000          1
H         4.96473770       1.05877854       2.81383630         0.00000000       0.00000000       0.00000000          1
H         4.39183239       3.38933165       4.24372603         0.00000000       0.00000000       0.00000000          1
H         2.71667407       4.24480902       2.17822477         0.00000000       0.00000000       0.00000000          1
H         2.31265109       1.74599326       3.36014608         0.00000000       0.00000000       0.00000000          1
H         3.28958487       1.91425553       0.74833230         0.00000000       0.00000000       0.00000000          1
6
pbc=[F, F, F] list_num_par=6 frozen=false iter=20000 energy=-1.26974174 Lattice="15.00000000 0.00000000 0.00000000 0.00000000 15.00000000 0.00000000 0.00000000 0.00000000 15.00000000" energy_frozen_part=0.00000000 Properties=species:S:1:pos:R:3:velocities:R:3:Z:I:1
H         5.34424915       3.57155953       1.62884277         0.00000000       0.00000000       0.00000000          1
H         4.96896414       1.07648548       2.82802659         0.00000000       0.00000000       0.00000000          1
H         4.36446448       3.40997074       4.24000856         0.00000000       0.00000000       0.00000000          1
H         2.68280278       4.22971364       2.16532076         0.00000000       0.00000000       0.00000000          1
H         2.30751434       1.73463938       3.36449890         0.00000000       0.00000000       0.00000000          1
H         3.28730857       1.89622933       0.75333350         0.00000000       0.00000000       0.00000000          1
6
pbc=[F, F, F] list_num_par=6 frozen=false iter=20000 energy=-1.26974174 Lattice="15.00000000 0.00000000 0.00000000 0.00000000 15.00000000 0.00000000 0.00000000 0.00000000 15.00000000" energy_frozen_part=0.00000000 Properties=species:S:1:pos:R:3:velocities:R:3:Z:I:1
H         5.34423560       3.57157850       1.62883260         0.00000000       0.00000000       0.00000000          1
H         4.96897088       1.07648492       2.82799666         0.00000000       0.00000000       0.00000000          1
H         4.36444546       3.40995643       4.23999778         0.00000000       0.00000000       0.00000000          1
H         2.68277578       4.22970063       2.16531851         0.00000000       0.00000000       0.00000000          1
H         2.30751642       1.73460925       3.36448100         0.00000000       0.00000000       0.00000000          1
H         3.28730062       1.89622740       0.75331794         0.00000000       0.00000000       0.00000000          1
6
pbc=[F, F, F] list_num_par=6 frozen=false iter=20000 energy=-1.26974174 Lattice="15.00000000 0.00000000 0.00000000 0.00000000 15.00000000 0.00000000 0.00000000 0.00000000 15.00000000" energy_frozen_part=0.00000000 Properties=species:S:1:pos:R:3:velocities:R:3:Z:I:1
H         5.36880671       3.55765087       1.63196580         0.00000000       0.00000000       0.00000000          1
H         4.96481287       1.05880923       2.81386197         0.00000000       0.00000000       0.00000000          1
H         4.39179053       3.38933520       4.24374360         0.00000000       0.00000000       0.00000000          1
H         2.71668014       4.24477476       2.17819119         0.00000000       0.00000000       0.00000000          1
H         2.31268575       1.74594105       3.36008394         0.00000000       0.00000000       0.00000000          1
H         3.28970860       1.91425203       0.74830449         0.00000000       0.00000000       0.00000000          1
6
pbc=[F, F, F] list_num_par=6 frozen=false iter=20000 energy=-1.26974174 Lattice="15.00000000 0.00000000 0.00000000 0.00000000 15.00000000 0.00000000 0.00000000 0.00000000 15.00000000" energy_frozen_part=0.00000000 Properties=species:S:1:pos:R:3:velocities:R:3:Z:I:1
H         5.34426968       3.57150105       1.62883002         0.00000000       0.00000000       0.00000000          1
H         4.96894061       1.07644088       2.82803184         0.00000000       0.00000000       0.00000000          1
H         4.36448161       3.40994358       4.23999808         0.00000000       0.00000000       0.00000000          1
H         2.68283106       4.22970103       2.16531098         0.00000000       0.00000000       0.00000000          1
H         2.30750510       1.73464230       3.36451156         0.00000000       0.00000000       0.00000000          1
H         3.28729271       1.89619122       0.75334264         0.00000000       0.00000000       0.00000000          1
6
pbc=[F, F, F] list_num_par=6 frozen=false iter=20000 energy=-1.26974174 Lattice="15.00000000 0.00000000 0.00000000 0.00000000 15.00000000 0.00000000 0.00000000 0.00000000 15.00000000" energy_frozen_part=0.00000000 Properties=species:S:1:pos:R:3:velocities:R:3:Z:I:1
H         5.34424957       3.57155361       1.62880457         0.00000000       0.00000000       0.00000000          1
H         4.96891616       1.07643014       2.82788062         0.00000000       0.00000000       0.00000000          1
H         4.36440628       3.40986685       4.23994185         0.00000000       0.00000000       0.00000000          1
H         2.68279585       4.22970673       2.16525234         0.00000000       0.00000000       0.00000000          1
H         2.30745997       1.73458381       3.36432054         0.00000000       0.00000000       0.00000000          1
H         3.28731028       1.89626793       0.75318410         0.00000000       0.00000000       0.00000000          1
6
pbc=[F, F, F] list_num_par=6 frozen=false iter=20000 energy=-1.26974174 Lattice="15.00000000 0.00000000 0.00000000 0.00000000 15.00000000 0.00000000 0.00000000 0.00000000 15.00000000" energy_frozen_part=0.00000000 Properties=species:S:1:pos:R:3:velocities:R:3:Z:I:1
H         5.36883939       3.55762851       1.63198627         0.00000000       0.00000000       0.00000000          1
H         4.96479369       1.05880396       2.81389749         0.00000000       0.00000000       0.00000000          1
H         4.39180171       3.38934843       4.24376650         0.00000000       0.00000000       0.00000000          1
H         2.71672097       4.24480802       2.17820192         0.00000000       0.00000000       0.00000000          1
H         2.31267557       1.74598034       3.36010383         0.00000000       0.00000000       0.00000000          1
H         3.28970806       1.91426675       0.74832810         0.00000000       0.00000000       0.00000000          1
6
pbc=[F, F, F] list_num_par=6 frozen=false iter=20000 energy=-1.26974174 Lattice="15.00000000 0.00000000 0.00000000 0.00000000 15.00000000 0.00000000 0.00000000 0.00000000 15.00000000" energy_frozen_part=0.00000000 Properties=species:S:1:pos:R:3:velocities:R:3:Z:I:1
H         5.36716411       3.55782916       1.62849341         0.00000000       0.00000000       0.00000000          1
H         4.96445384       1.05995497       2.81287301         0.00000000       0.00000000       0.00000000          1
H         4.39373945       3.39166553       4.24175160         0.00000000       0.00000000       0.00000000          1
H         2.71589513       4.24575024       2.17786544         0.00000000       0.00000000       0.00000000          1
H         2.31318424       1.74787847       3.36223957         0.00000000       0.00000000       0.00000000          1
H         3.28660996       1.91404237       0.74898257         0.00000000       0.00000000       0.00000000          1
6
pbc=[F, F, F] list_num_par=6 frozen=false iter=20000 energy=-1.26974174 Lattice="15.00000000 0.00000000 0.00000000 0.00000000 15.00000000 0.00000000 0.00000000 0.00000000 15.00000000" energy_frozen_part=0.00000000 Properties=species:S:1:pos:R:3:velocities:R:3:Z:I:1
H         5.34425110       3.57158104       1.62885793         0.00000000       0.00000000       0.00000000          1
H         4.96889833       1.07646626       2.82793604         0.00000000       0.00000000       0.00000000          1
H         4.36440092       3.40991432       4.23999372         0.00000000       0.00000000       0.00000000          1
H         2.68280235       4.22975930       2.16529452         0.00000000       0.00000000       0.00000000          1
H         2.30744746       1.73464841       3.36437981         0.00000000       0.00000000       0.00000000          1
H         3.28730113       1.89631459       0.75324398         0.00000000       0.00000000       0.00000000          1
6
pbc=[F, F, F] list_num_par=6 frozen=false iter=20000 energy=-1.26974174 Lattice="15.00000000 0.00000000 0.00000000 0.00000000 15.00000000 0.00000000 0.00000000 0.00000000 15.00000000" energy_frozen_part=0.00000000 Properties=species:S:1:pos:R:3:velocities:R:3:Z:I:1
H         5.34425359       3.57152839       1.62879918         0.00000000       0.00000000       0.00000000          1
H         4.96892340       1.07641216       2.82788237         0.00000000       0.00000000       0.00000000          1
H         4.36440865       3.40984813       4.23993732         0.00000000       0.00000000       0.00000000          1
H         2.68280077       4.22968485       2.16524405         0.00000000       0.00000000       0.00000000          1
H         2.30747089       1.73456324       3.36432770         0.00000000       0.00000000       0.00000000          1
H         3.28731113       1.89624412       0.75318870         0.00000000       0.00000000       0.00000000          1
6
pbc=[F, F, F] list_num_par=6 frozen=false iter=20000 energy=-1.26974174 Lattice="15.00000000 0.00000000 0.00000000 0.00000000 15.00000000 0.00000000 0.00000000 0.00000000 15.00000000" energy_frozen_part=0.00000000 Properties=species:S:1:pos:R:3:velocities:R:3:Z:I:1
H         5.34424225       3.57158920       1.62882390         0.00000000       0.00000000       0.00000000          1
H         4.96890599       1.07648572       2.82792688         0.00000000       0.00000000       0.00000000          1
H         4.36440683       3.40993473       4.23996959         0.00000000       0.00000000       0.00000000          1
H         2.68279171       4.22976199       2.16527970         0.00000000       0.00000000       0.00000000          1
H         2.30745520       1.73465243       3.36438449         0.00000000       0.00000000       0.00000000          1
H         3.28729165       1.89630725       0.75323660         0.00000000       0.00000000       0.00000000          1
6
pbc=[F, F, F] list_num_par=6 frozen=false iter=20000 energy=-1.26974174 Lattice="15.00000000 0.00000000 0.00000000 0.00000000 15.00000000 0.00000000 0.00000000 0.00000000 15.00000000" energy_frozen_part=0.00000000 Properties=species:S:1:pos:R:3:velocities:R:3:Z:I:1
H         5.34459831       3.57092458       1.62930128         0.00000000       0.00000000       0.00000000          1
H         4.96836016       1.07589086       2.82827466         0.00000000       0.00000000       0.00000000          1
H         4.36420953       3.40947405       4.24024926         0.00000000       0.00000000       0.00000000          1
H         2.68321606       4.22979152       2.16524297         0.00000000       0.00000000       0.00000000          1
H         2.30698111       1.73475613       3.36421721         0.00000000       0.00000000       0.00000000          1
H         3.28736981       1.89620836       0.75327266         0.00000000       0.00000000       0.00000000          1
6
pbc=[F, F, F] list_num_par=6 frozen=false iter=20000 energy=-1.26974174 Lattice="15.00000000 0.00000000 0.00000000 0.00000000 15.00000000 0.00000000 0.00000000 0.00000000 15.00000000" energy_frozen_part=0.00000000 Properties=species:S:1:pos:R:3:velocities:R:3:Z:I:1
H         5.36878788       3.55766834       1.63195292         0.00000000       0.00000000       0.00000000          1
H         4.96479239       1.05884596       2.81387434         0.00000000       0.00000000       0.00000000          1
H         4.39177706       3.38938123       4.24373647         0.00000000       0.00000000       0.00000000          1
H         2.71666557       4.24480279       2.17817546         0.00000000       0.00000000       0.00000000          1
H         2.31266677       1.74598154       3.36009484         0.00000000       0.00000000       0.00000000          1
H         3.28968120       1.91426449       0.74831148         0.00000000       0.00000000       0.00000000          1
