6
pbc=[F, F, F] list_num_par=6 frozen=false iter=20000 energy=-1.26974174 Lattice="15.00000000 0.00000000 0.00000000 0.00000000 15.00000000 0.00000000 0.00000000 0.00000000 15.00000000" energy_frozen_part=0.00000000 Properties=species:S:1:pos:R:3:velocities:R:3:Z:I:1
H         3.63617736       8.78499697      10.64510506         0.00000000       0.00000000       0.00000000          1
H         3.06614086       6.59363425      12.28134584         0.00000000       0.00000000       0.00000000          1
H         0.70102770       7.82785755      13.11034019         0.00000000       0.00000000       0.00000000          1
H         1.27106786      10.01922480      11.47409664         0.00000000       0.00000000       0.00000000          1
H         3.13958035       9.16633967      13.36765258         0.00000000       0.00000000       0.00000000          1
H         1.19762920       7.44650946      10.38779678         0.00000000       0.00000000       0.00000000          1
6
pbc=[F, F, F] list_num_par=6 frozen=false iter=20000 energy=-1.26974174 Lattice="15.00000000 0.00000000 0.00000000 0.00000000 15.00000000 0.00000000 0.00000000 0.00000000 15.00000000" energy_frozen_part=0.00000000 Properties=species:S:1:pos:R:3:velocities:R:3:Z:I:1
H         3.63620638       8.78489483      10.64502809         0.00000000       0.00000000       0.00000000          1
H         3.06613701       6.59366590      12.28143226         0.00000000       0.00000000       0.00000000          1
H         0.70107195       7.82802455      13.11037630         0.00000000       0.00000000       0.00000000          1
H         1.27114102      10.01924896      11.47396154         0.00000000       0.00000000       0.00000000          1
H         3.13966265       9.16646025      13.36754880         0.00000000       0.00000000       0.00000000          1
H         1.19761450       7.44645722      10.38785049         0.00000000       0.00000000       0.00000000          1
6
pbc=[F, F, F] list_num_par=6 frozen=false iter=20000 energy=-1.26974174 Lattice="15.00000000 0.00000000 0.00000000 0.00000000 15.00000000 0.00000000 0.00000000 0.00000000 15.00000000" energy_frozen_part=0.00000000 Properties=species:S:1:pos:R:3:velocities:R:3:Z:I:1
H         3.64958341       8.75275700      10.64541967         0.00000000       0.00000000       0.00000000          1
H         3.02189386       6.57683193      12.28114751         0.00000000       0.00000000       0.00000000          1
H         0.66795900       7.85378866      13.07654824         0.00000000       0.00000000       0.00000000          1
H         1.29564999      10.02972052      11.44081939         0.00000000       0.00000000       0.00000000          1
H         3.12554385       9.15149396      13.36032232         0.00000000       0.00000000       0.00000000          1
H         1.19200083       7.45505359      10.36164601         0.00000000       0.00000000       0.00000000          1
6
pbc=[F, F, F] list_num_par=6 frozen=false iter=20000 energy=-1.26974174 Lattice="15.00000000 0.00000000 0.00000000 0.00000000 15.00000000 0.00000000 0.00000000 0.00000000 15.00000000" energy_frozen_part=0.00000000 Properties=species:S:1:pos:R:3:velocities:R:3:Z:I:1
H         3.64960612       8.75275680      10.64543442         0.00000000       0.00000000       0.00000000          1
H         3.02192079       6.57683335      12.28116952         0.00000000       0.00000000       0.00000000          1
H         0.66799389       7.85379088      13.07656027         0.00000000       0.00000000       0.00000000          1
H         1.29568005      10.02971814      11.44082781         0.00000000       0.00000000       0.00000000          1
H         3.12557333       9.15150541      13.36033508         0.00000000       0.00000000       0.00000000          1
H         1.19202430       7.45504403      10.36166031         0.00000000       0.00000000       0.00000000          1
6
pbc=[F, F, F] list_num_par=6 frozen=false iter=20000 energy=-1.26974174 Lattice="15.00000000 0.00000000 0.00000000 0.00000000 15.00000000 0.00000000 0.00000000 0.00000000 15.00000000" energy_frozen_part=0.00000000 Properties=species:S:1:pos:R:3:velocities:R:3:Z:I:1
H         3.64326162       8.76694076      10.63755440         0.00000000       0.00000000       0.00000000          1
H         3.02909915       6.58717478      12.27331295         0.00000000       0.00000000       0.00000000          1
H         0.67612763       7.85729074      13.08239566         0.00000000       0.00000000       0.00000000          1
H         1.29029264      10.03706949      11.44664421         0.00000000       0.00000000       0.00000000          1
H         3.13196836       9.16055330      13.35562761         0.00000000       0.00000000       0.00000000          1
H         1.18742203       7.46368444      10.36432333         0.00000000       0.00000000       0.00000000          1
6
pbc=[F, F, F] list_num_par=6 frozen=false iter=20000 energy=-1.26974174 Lattice="15.00000000 0.00000000 0.00000000 0.00000000 15.00000000 0.00000000 0.00000000 0.00000000 15.00000000" energy_frozen_part=0.00000000 Properties=species:S:1:pos:R:3:velocities:R:3:Z:I:1
H         3.64330077       8.76698526      10.63760454         0.00000000       0.00000000       0.00000000          1
H         3.02905396       6.58714254      12.27323693         0.00000000       0.00000000       0.00000000          1
H         0.67609686       7.85728532      13.08233608         0.00000000       0.00000000       0.00000000          1
H         1.29034671      10.03712010      11.44670713         0.00000000       0.00000000       0.00000000          1
H         3.13196407       9.16046273      13.35568668         0.00000000       0.00000000       0.00000000          1
H         1.18744200       7.46379358      10.36425736         0.00000000       0.00000000       0.00000000          1
6
pbc=[F, F, F] list_num_par=6 frozen=false iter=20000 energy=-1.26974174 Lattice="15.00000000 0.00000000 0.00000000 0.00000000 15.00000000 0.00000000 0.00000000 0.00000000 15.00000000" energy_frozen_part=0.00000000 Properties=species:S:1:pos:R:3:velocities:R:3:Z:I:1
H         3.64330720       8.76691195      10.63757426         0.00000000       0.00000000       0.00000000          1
H         3.02908881       6.58716155      12.27333854         0.00000000       0.00000000       0.00000000          1
H         0.67611142       7.85730973      13.08236858         0.00000000       0.00000000       0.00000000          1
H         1.29033547      10.03705728      11.44661146         0.00000000       0.00000000       0.00000000          1
H         3.13196198       9.16054469      13.35563740         0.00000000       0.00000000       0.00000000          1
H         1.18746158       7.46367555      10.36430514         0.00000000       0.00000000       0.00000000          1
6
pbc=[F, F, F] list_num_par=6 frozen=false iter=20000 energy=-1.26974174 Lattice="15.00000000 0.00000000 0.00000000 0.00000000 15.00000000 0.00000000 0.00000000 0.00000000 15.00000000" energy_frozen_part=0.00000000 Properties=species:S:1:pos:R:3:velocities:R:3:Z:I:1
H         3.64328289       8.76692951      10.63756731         0.00000000       0.00000000       0.00000000          1
H         3.02908018       6.58717007      12.27331454         0.00000000       0.00000000       0.00000000          1
H         0.67610694       7.85731100      13.08237247         0.00000000       0.00000000       0.00000000          1
H         1.29031413      10.03707359      11.44662551         0.00000000       0.00000000       0.00000000          1
H         3.13195346       9.16055226      13.35563399         0.00000000       0.00000000       0.00000000          1
H         1.18743222       7.46369392      10.36430524         0.00000000       0.00000000       0.00000000          1
6
pbc=[F, F, F] list_num_par=6 frozen=false iter=20000 energy=-1.26974174 Lattice="15.00000000 0.00000000 0.00000000 0.00000000 15.00000000 0.00000000 0.00000000 0.00000000 15.00000000" energy_frozen_part=0.00000000 Properties=species:S:1:pos:R:3:velocities:R:3:Z:I:1
H         3.64329680       8.76691543      10.63757273         0.00000000       0.00000000       0.00000000          1
H         3.02908305       6.58716060      12.27332645         0.00000000       0.00000000       0.00000000          1
H         0.67612158       7.85730651      13.08237606         0.00000000       0.00000000       0.00000000          1
H         1.29032789      10.03706585      11.44661398         0.00000000       0.00000000       0.00000000          1
H         3.13196570       9.16054202      13.35563488         0.00000000       0.00000000       0.00000000          1
H         1.18744646       7.46368317      10.36431086         0.00000000       0.00000000       0.00000000          1
6
pbc=[F, F, F] list_num_par=6 frozen=false iter=20000 energy=-1.26974174 Lattice="15.00000000 0.00000000 0.00000000 0.00000000 15.00000000 0.00000000 0.00000000 0.00000000 15.00000000" energy_frozen_part=0.00000000 Properties=species:S:1:pos:R:3:velocities:R:3:Z:I:1
H         3.63618061       8.78502312      10.64513230         0.00000000       0.00000000       0.00000000          1
H         3.06608329       6.59366353      12.28135888         0.00000000       0.00000000       0.00000000          1
H         0.70101523       7.82794487      13.11036289         0.00000000       0.00000000       0.00000000          1
H         1.27110818      10.01930841      11.47414403         0.00000000       0.00000000       0.00000000          1
H         3.13960128       9.16636195      13.36768093         0.00000000       0.00000000       0.00000000          1
H         1.19758901       7.44661531      10.38781684         0.00000000       0.00000000       0.00000000          1
6
pbc=[F, F, F] list_num_par=6 frozen=false iter=20000 energy=-1.26974174 Lattice="15.00000000 0.00000000 0.00000000 0.00000000 15.00000000 0.00000000 0.00000000 0.00000000 15.00000000" energy_frozen_part=0.00000000 Properties=species:S:1:pos:R:3:velocities:R:3:Z:I:1
H         3.64331401       8.76700620      10.63760797         0.00000000       0.00000000       0.00000000          1
H         3.02905223       6.58717949      12.27324728         0.00000000       0.00000000       0.00000000          1
H         0.67610041       7.85732087      13.08232363         0.00000000       0.00000000       0.00000000          1
H         1.29035556      10.03714620      11.44668065         0.00000000       0.00000000       0.00000000          1
H         3.13196448       9.16050553      13.35568690         0.00000000       0.00000000       0.00000000          1
H         1.18745162       7.46381446      10.36424472         0.00000000       0.00000000       0.00000000          1
6
pbc=[F, F, F] list_num_par=6 frozen=false iter=20000 energy=-1.26974174 Lattice="15.00000000 0.00000000 0.00000000 0.00000000 15.00000000 0.00000000 0.00000000 0.00000000 15.00000000" energy_frozen_part=0.00000000 Properties=species:S:1:pos:R:3:velocities:R:3:Z:I:1
H         3.63046615       8.78419438      10.64352927         0.00000000       0.00000000       0.00000000          1
H         3.06644495       6.59471388      12.28437866         0.00000000       0.00000000       0.00000000          1
H         0.70183517       7.82763066      13.11672296         0.00000000       0.00000000       0.00000000          1
H         1.26584972      10.01710580      11.47588156         0.00000000       0.00000000       0.00000000          1
H         3.13948626       9.16915927      13.36658557         0.00000000       0.00000000       0.00000000          1
H         1.19281723       7.44265599      10.39367016         0.00000000       0.00000000       0.00000000          1
6
pbc=[F, F, F] list_num_par=6 frozen=false iter=20000 energy=-1.26974174 Lattice="15.00000000 0.00000000 0.00000000 0.00000000 15.00000000 0.00000000 0.00000000 0.00000000 15.00000000" energy_frozen_part=0.00000000 Properties=species:S:1:pos:R:3:velocities:R:3:Z:I:1
H         3.63622198       8.78483502      10.64511615         0.00000000       0.00000000       0.00000000          1
H         3.06604790       6.59364692      12.28153493         0.00000000       0.00000000       0.00000000          1
H         0.70099012       7.82805995      13.11039905         0.00000000       0.00000000       0.00000000          1
H         1.27116773      10.01925446      11.47397895         0.00000000       0.00000000       0.00000000          1
H         3.13960792       9.16644771      13.36762585         0.00000000       0.00000000       0.00000000          1
H         1.19760000       7.44646018      10.38788942         0.00000000       0.00000000       0.00000000          1
6
pbc=[F, F, F] list_num_par=6 frozen=false iter=20000 energy=-1.26974174 Lattice="15.00000000 0.00000000 0.00000000 0.00000000 15.00000000 0.00000000 0.00000000 0.00000000 15.00000000" energy_frozen_part=0.00000000 Properties=species:S:1:pos:R:3:velocities:R:3:Z:I:1
H         3.65232618       8.75948668      10.64634524         0.00000000       0.00000000       0.00000000          1
H         3.03915291       6.58196118      12.28545923         0.00000000       0.00000000       0.00000000          1
H         0.68048850       7.84775819      13.08468981         0.00000000       0.00000000       0.00000000          1
H         1.29366247      10.02528313      11.44556850         0.00000000       0.00000000       0.00000000          1
H         3.13207422       9.15814773      13.36197919         0.00000000       0.00000000       0.00000000          1
H         1.20073848       7.44909406      10.36905404         0.00000000       0.00000000       0.00000000          1
6
pbc=[F, F, F] list_num_par=6 frozen=false iter=20000 energy=-1.26974174 Lattice="15.00000000 0.00000000 0.00000000 0.00000000 15.00000000 0.00000000 0.00000000 0.00000000 15.00000000" energy_frozen_part=0.00000000 Properties=species:S:1:pos:R:3:velocities:R:3:Z:I:1
H         3.64323580       8.76696170      10.63753581         0.00000000       0.00000000       0.00000000          1
H         3.02908630       6.58718911      12.27329536         0.00000000       0.00000000       0.00000000          1
H         0.67611414       7.85729449      13.08239074         0.00000000       0.00000000       0.00000000          1
H         1.29025920      10.03706452      11.44662011         0.00000000       0.00000000       0.00000000          1
H         3.13193938       9.16057393      13.35561353         0.00000000       0.00000000       0.00000000          1
H         1.18740489       7.46368147      10.36431148         0.00000000       0.00000000       0.00000000          1
6
pbc=[F, F, F] list_num_par=6 frozen=false iter=20000 energy=-1.26974174 Lattice="15.00000000 0.00000000 0.00000000 0.00000000 15.00000000 0.00000000 0.00000000 0.00000000 15.00000000" energy_frozen_part=0.00000000 Properties=species:S:1:pos:R:3:velocities:R:3:Z:I:1
H         3.63621297       8.78500573      10.64511837         0.00000000       0.00000000       0.00000000          1
H         3.06610826       6.59365299      12.28134300         0.00000000       0.00000000       0.00000000          1
H         0.70104071       7.82794548      13.11035834         0.00000000       0.00000000       0.00000000          1
H         1.27114953      10.01930133      11.47413693         0.00000000       0.00000000       0.00000000          1
H         3.13964686       9.16634224      13.36767022         0.00000000       0.00000000       0.00000000          1
H         1.19760771       7.44660420      10.38780892         0.00000000       0.00000000       0.00000000          1
6
pbc=[F, F, F] list_num_par=6 frozen=false iter=20000 energy=-1.26974174 Lattice="15.00000000 0.00000000 0.00000000 0.00000000 15.00000000 0.00000000 0.00000000 0.00000000 15.00000000" energy_frozen_part=0.00000000 Properties=species:S:1:pos:R:3:velocities:R:3:Z:I:1
H         3.63048066       8.78418336      10.64354384         0.00000000       0.00000000       0.00000000          1
H         3.06640432       6.59462615      12.28426173         0.00000000       0.00000000       0.00000000          1
H         0.70178160       7.82751543      13.11661871         0.00000000       0.00000000       0.00000000          1
H         1.26585836      10.01707196      11.47589565         0.00000000       0.00000000       0.00000000          1
H         3.13943800       9.16901461      13.36660025         0.00000000       0.00000000       0.00000000          1
H         1.19282693       7.44268391      10.39355233         0.00000000       0.00000000       0.00000000          1
6
pbc=[F, F, F] list_num_par=6 frozen=false iter=20000 energy=-1.26974174 Lattice="15.00000000 0.00000000 0.00000000 0.00000000 15.00000000 0.00000000 0.00000000 0.00000000 15.00000000" energy_frozen_part=0.00000000 Properties=species:S:1:pos:R:3:velocities:R:3:Z:I:1
H         3.64331895       8.76699824      10.63762607         0.00000000       0.00000000       0.00000000          1
H         3.02905524       6.58717459      12.27326833         0.00000000       0.00000000       0.00000000          1
H         0.67608504       7.85731728      13.08231994         0.00000000       0.00000000       0.00000000          1
H         1.29035312      10.03713741      11.44668241         0.00000000       0.00000000       0.00000000          1
H         3.13194716       9.16051367      13.35569895         0.00000000       0.00000000       0.00000000          1
H         1.18746193       7.46380539      10.36424693         0.00000000       0.00000000       0.00000000          1
6
pbc=[F, F, F] list_num_par=6 frozen=false iter=20000 energy=-1.26974174 Lattice="15.00000000 0.00000000 0.00000000 0.00000000 15.00000000 0.00000000 0.00000000 0.00000000 15.00000000" energy_frozen_part=0.00000000 Properties=species:S:1:pos:R:3:velocities:R:3:Z:I:1
H         3.63613808       8.78492106      10.64509543         0.00000000       0.00000000       0.00000000          1
H         3.06609583       6.59368615      12.28150279         0.00000000       0.00000000       0.00000000          1
H         0.70106338       7.82805217      13.11050993         0.00000000       0.00000000       0.00000000          1
H         1.27111096      10.01928577      11.47410545         0.00000000       0.00000000       0.00000000          1
H         3.13967689       9.16646159      13.36763808         0.00000000       0.00000000       0.00000000          1
H         1.19752964       7.44650509      10.38796534         0.00000000       0.00000000       0.00000000          1
6
pbc=[F, F, F] list_num_par=6 frozen=false iter=20000 energy=-1.26974174 Lattice="15.00000000 0.00000000 0.00000000 0.00000000 15.00000000 0.00000000 0.00000000 0.00000000 15.00000000" energy_frozen_part=0.00000000 Properties=species:S:1:pos:R:3:velocities:R:3:Z:I:1
H         3.64330005       8.76691053      10.63757216         0.00000000       0.00000000       0.00000000          1
H         3.02908668       6.58716065      12.27333261         0.00000000       0.00000000       0.00000000          1
H         0.67612097       7.85731015      13.08237304         0.00000000       0.00000000       0.00000000          1
H         1.29032993      10.03705839      11.44661712         0.00000000       0.00000000       0.00000000          1
H         3.13196928       9.16054675      13.35563889         0.00000000       0.00000000       0.00000000          1
H         1.18745215       7.46366807      10.36430486         0.00000000       0.00000000       0.00000000          1
6
pbc=[F, F, F] list_num_par=6 frozen=false iter=20000 energy=-1.26974174 Lattice="15.00000000 0.00000000 0.00000000 0.00000000 15.00000000 0.00000000 0.00000000 0.00000000 15.00000000" energy_frozen_part=0.00000000 Properties=species:S:1:pos:R:3:velocities:R:3:Z:I:1
H         3.63620739       8.78488167      10.64502275         0.00000000       0.00000000       0.00000000          1
H         3.06612720       6.59366226      12.28143166         0.00000000       0.00000000       0.00000000          1
H         0.70107112       7.82802328      13.11036347         0.00000000       0.00000000       0.00000000          1
H         1.27115599      10.01924703      11.47396105         0.00000000       0.00000000       0.00000000          1
H         3.13967288       9.16644491      13.36755318         0.00000000       0.00000000       0.00000000          1
H         1.19761200       7.44645757      10.38784273         0.00000000       0.00000000       0.00000000          1
6
pbc=[F, F, F] list_num_par=6 frozen=false iter=20000 energy=-1.26974174 Lattice="15.00000000 0.00000000 0.00000000 0.00000000 15.00000000 0.00000000 0.00000000 0.00000000 15.00000000" energy_frozen_part=0.00000000 Properties=species:S:1:pos:R:3:velocities:R:3:Z:I:1
H         3.64923594       8.74579023      10.65085567         0.00000000       0.00000000       0.00000000          1
H         3.01398273       6.57470021      12.29009404         0.00000000       0.00000000       0.00000000          1
H         0.66642279       7.86280282      13.08637444         0.00000000       0.00000000       0.00000000          1
H         1.30167675      10.03388492      11.44713138         0.00000000       0.00000000       0.00000000          1
H         3.12987168       9.15029803      13.36580137         0.00000000       0.00000000       0.00000000          1
H         1.18579117       7.45829018      10.37142917         0.00000000       0.00000000       0.00000000          1
6
pbc=[F, F, F] list_num_par=6 frozen=false iter=20000 energy=-1.26974174 Lattice="15.00000000 0.00000000 0.00000000 0.00000000 15.00000000 0.00000000 0.00000000 0.00000000 15.00000000" energy_frozen_part=0.00000000 Properties=species:S:1:pos:R:3:velocities:R:3:Z:I:1
H         3.64961340       8.75275786      10.64543547         0.00000000       0.00000000       0.00000000          1
H         3.02192905       6.57682422      12.28116931         0.00000000       0.00000000       0.00000000          1
H         0.66799241       7.85379104      13.07655508         0.00000000       0.00000000       0.00000000          1
H         1.29567165      10.02972050      11.44081907         0.00000000       0.00000000       0.00000000          1
H         3.12556728       9.15150475      13.36032775         0.00000000       0.00000000       0.00000000          1
H         1.19203170       7.45504569      10.36166380         0.00000000       0.00000000       0.00000000          1
6
pbc=[F, F, F] list_num_par=6 frozen=false iter=20000 energy=-1.26974174 Lattice="15.00000000 0.00000000 0.00000000 0.00000000 15.00000000 0.00000000 0.00000000 0.00000000 15.00000000" energy_frozen_part=0.00000000 Properties=species:S:1:pos:R:3:velocities:R:3:Z:I:1
H         3.63621656       8.78498879      10.64512342         0.00000000       0.00000000       0.00000000          1
H         3.06610695       6.59365078      12.28135681         0.00000000       0.00000000       0.00000000          1
H         0.70104818       7.82795462      13.11036549         0.00000000       0.00000000       0.00000000          1
H         1.27115768      10.01930374      11.47413277         0.00000000       0.00000000       0.00000000          1
H         3.13964927       9.16634636      13.36767142         0.00000000       0.00000000       0.00000000          1
H         1.19760979       7.44659795      10.38781688         0.00000000       0.00000000       0.00000000          1
6
pbc=[F, F, F] list_num_par=6 frozen=false iter=20000 energy=-1.26974174 Lattice="15.00000000 0.00000000 0.00000000 0.00000000 15.00000000 0.00000000 0.00000000 0.00000000 15.00000000" energy_frozen_part=0.00000000 Properties=species:S:1:pos:R:3:velocities:R:3:Z:I:1
H         3.64326739       8.76692336      10.63757889         0.00000000       0.00000000       0.00000000          1
H         3.02907175       6.58715730      12.27332710         0.00000000       0.00000000       0.00000000          1
H         0.67610237       7.85730419      13.08238223         0.00000000       0.00000000       0.00000000          1
H         1.29030050      10.03706564      11.44663574         0.00000000       0.00000000       0.00000000          1
H         3.13195181       9.16053545      13.35564907         0.00000000       0.00000000       0.00000000          1
H         1.18742190       7.46368204      10.36431042         0.00000000       0.00000000       0.00000000          1
6
pbc=[F, F, F] list_num_par=6 frozen=false iter=20000 energy=-1.26974174 Lattice="15.00000000 0.00000000 0.00000000 0.00000000 15.00000000 0.00000000 0.00000000 0.00000000 15.00000000" energy_frozen_part=0.00000000 Properties=species:S:1:pos:R:3:velocities:R:3:Z:I:1
H         3.64327666       8.76692794      10.63757419         0.00000000       0.00000000       0.00000000          1
H         3.02908050       6.58716460      12.27331800         0.00000000       0.00000000       0.00000000          1
H         0.67611100       7.85730202      13.08237084         0.00000000       0.00000000       0.00000000          1
H         1.29030293      10.03706412      11.44662620         0.00000000       0.00000000       0.00000000          1
H         3.13195535       9.16055123      13.35564177         0.00000000       0.00000000       0.00000000          1
H         1.18743342       7.46368400      10.36430139         0.00000000       0.00000000       0.00000000          1
6
pbc=[F, F, F] list_num_par=6 frozen=false iter=20000 energy=-1.26974174 Lattice="15.00000000 0.00000000 0.00000000 0.00000000 15.00000000 0.00000000 0.00000000 0.00000000 15.00000000" energy_frozen_part=0.00000000 Properties=species:S:1:pos:R:3:velocities:R:3:Z:I:1
H         3.63048202       8.78415391      10.64360453         0.00000000       0.00000000       0.00000000          1
H         3.06636949       6.59464478      12.28436609         0.00000000       0.00000000       0.00000000          1
H         0.70177139       7.82760363      13.11670512         0.00000000       0.00000000       0.00000000          1
H         1.26588581      10.01711279      11.47594851         0.00000000       0.00000000       0.00000000          1
H         3.13946117       9.16905976      13.36665729         0.00000000       0.00000000       0.00000000          1
H         1.19279492       7.44270475      10.39364801         0.00000000       0.00000000       0.00000000          1
6
pbc=[F, F, F] list_num_par=6 frozen=false iter=20000 energy=-1.26974174 Lattice="15.00000000 0.00000000 0.00000000 0.00000000 15.00000000 0.00000000 0.00000000 0.00000000 15.00000000" energy_frozen_part=0.00000000 Properties=species:S:1:pos:R:3:velocities:R:3:Z:I:1
H         3.64327250       8.76695325      10.63756530         0.00000000       0.00000000       0.00000000          1
H         3.02911699       6.58719383      12.27332871         0.00000000       0.00000000       0.00000000          1
H         0.67612914       7.85728822      13.08238778         0.00000000       0.00000000       0.00000000          1
H         1.29028398      10.03705262      11.44662725         0.00000000       0.00000000       0.00000000          1
H         3.13195693       9.16057529      13.35563279         0.00000000       0.00000000       0.00000000          1
H         1.18744684       7.46367162      10.36431355         0.00000000       0.00000000       0.00000000          1
6
pbc=[F, F, F] list_num_par=6 frozen=false iter=20000 energy=-1.26974174 Lattice="15.00000000 0.00000000 0.00000000 0.00000000 15.00000000 0.00000000 0.00000000 0.00000000 15.00000000" energy_frozen_part=0.00000000 Properties=species:S:1:pos:R:3:velocities:R:3:Z:I:1
H         3.63618361       8.78500588      10.64510170         0.00000000       0.00000000       0.00000000          1
H         3.06613824       6.59364049      12.28134090         0.00000000       0.00000000       0.00000000          1
H         0.70103303       7.82786792      13.11034300         0.00000000       0.00000000       0.00000000          1
H         1.27108013      10.01923319      11.47410713         0.00000000       0.00000000       0.00000000          1
H         3.13958889       9.16634227      13.36765455         0.00000000       0.00000000       0.00000000          1
H         1.19762349       7.44652435      10.38779680         0.00000000       0.00000000       0.00000000          1
6
pbc=[F, F, F] list_num_par=6 frozen=false iter=20000 energy=-1.26974174 Lattice="15.00000000 0.00000000 0.00000000 0.00000000 15.00000000 0.00000000 0.00000000 0.00000000 15.00000000" energy_frozen_part=0.00000000 Properties=species:S:1:pos:R:3:velocities:R:3:Z:I:1
H         3.63617614       8.78501276      10.64511144         0.00000000       0.00000000       0.00000000          1
H         3.06614412       6.59363900      12.28134012         0.00000000       0.00000000       0.00000000          1
H         0.70102927       7.82785381      13.11033863         0.00000000       0.00000000       0.00000000          1
H         1.27106063      10.01922647      11.47411017         0.00000000       0.00000000       0.00000000          1
H         3.13957647       9.16634751      13.36765228         0.00000000       0.00000000       0.00000000          1
H         1.19762550       7.44652951      10.38779246         0.00000000       0.00000000       0.00000000          1
6
pbc=[F, F, F] list_num_par=6 frozen=false iter=20000 energy=-1.26974174 Lattice="15.00000000 0.00000000 0.00000000 0.00000000 15.00000000 0.00000000 0.00000000 0.00000000 15.00000000" energy_frozen_part=0.00000000 Properties=species:S:1:pos:R:3:velocities:R:3:Z:I:1
H         3.64961651       8.75274121      10.64543342         0.00000000       0.00000000       0.00000000          1
H         3.02189494       6.57681654      12.28116178         0.00000000       0.00000000       0.00000000          1
H         0.66797661       7.85381868      13.07654777         0.00000000       0.00000000       0.00000000          1
H         1.29570559      10.02973973      11.44081322         0.00000000       0.00000000       0.00000000          1
H         3.12557448       9.15148870      13.36033275         0.00000000       0.00000000       0.00000000          1
H         1.19201580       7.45506118      10.36165126         0.00000000       0.00000000       0.00000000          1
6
pbc=[F, F, F] list_num_par=6 frozen=false iter=20000 energy=-1.26974174 Lattice="15.00000000 0.00000000 0.00000000 0.00000000 15.00000000 0.00000000 0.00000000 0.00000000 15.00000000" energy_frozen_part=0.00000000 Properties=species:S:1:pos:R:3:velocities:R:3:Z:I:1
H         3.63618941       8.78498762      10.64513752         0.00000000       0.00000000       0.00000000          1
H         3.06611783       6.59363585      12.28137387         0.00000000       0.00000000       0.00000000          1
H         0.70101786       7.82787441      13.11036288         0.00000000       0.00000000       0.00000000          1
H         1.27108723      10.01923388      11.47412863         0.00000000       0.00000000       0.00000000          1
H         3.13958502       9.16633910      13.36768509         0.00000000       0.00000000       0.00000000          1
H         1.19762337       7.44653521      10.38781543         0.00000000       0.00000000       0.00000000          1
6
pbc=[F, F, F] list_num_par=6 frozen=false iter=20000 energy=-1.26974174 Lattice="15.00000000 0.00000000 0.00000000 0.00000000 15.00000000 0.00000000 0.00000000 0.00000000 15.00000000" energy_frozen_part=0.00000000 Properties=species:S:1:pos:R:3:velocities:R:3:Z:I:1
H         3.63618400       8.78501869      10.64513227         0.00000000       0.00000000       0.00000000          1
H         3.06610250       6.59365208      12.28134695         0.00000000       0.00000000       0.00000000          1
H         0.70102592       7.82792372      13.11035850         0.00000000       0.00000000       0.00000000          1
H         1.27111027      10.01929301      11.47414752         0.00000000       0.00000000       0.00000000          1
H         3.13961128       9.16634934      13.36768101         0.00000000       0.00000000       0.00000000          1
H         1.19759491       7.44660224      10.38781300         0.00000000       0.00000000       0.00000000          1
6
pbc=[F, F, F] list_num_par=6 frozen=false iter=20000 energy=-1.26974174 Lattice="15.00000000 0.00000000 0.00000000 0.00000000 15.00000000 0.00000000 0.00000000 0.00000000 15.00000000" energy_frozen_part=0.00000000 Properties=species:S:1:pos:R:3:velocities:R:3:Z:I:1
H         3.64327697       8.76694179      10.63756814         0.00000000       0.00000000       0.00000000          1
H         3.02908892       6.58717895      12.27331330         0.00000000       0.00000000       0.00000000          1
H         0.67611759       7.85730738      13.08236651         0.00000000       0.00000000       0.00000000          1
H         1.29030994      10.03707239      11.44661758         0.00000000       0.00000000       0.00000000          1
H         3.13195511       9.16055710      13.35563656         0.00000000       0.00000000       0.00000000          1
H         1.18743490       7.46369622      10.36429927         0.00000000       0.00000000       0.00000000          1
6
pbc=[F, F, F] list_num_par=6 frozen=false iter=20000 energy=-1.26974174 Lattice="15.00000000 0.00000000 0.00000000 0.00000000 15.00000000 0.00000000 0.00000000 0.00000000 15.00000000" energy_frozen_part=0.00000000 Properties=species:S:1:pos:R:3:velocities:R:3:Z:I:1
H         3.64959031       8.75275362      10.64543498         0.00000000       0.00000000       0.00000000          1
H         3.02189548       6.57682376      12.28116689         0.00000000       0.00000000       0.00000000          1
H         0.66796049       7.85378182      13.07655936         0.00000000       0.00000000       0.00000000          1
H         1.29564896      10.02971132      11.44081720         0.00000000       0.00000000       0.00000000          1
H         3.12553838       9.15149518      13.36032791         0.00000000       0.00000000       0.00000000          1
H         1.19201126       7.45503802      10.36165897         0.00000000       0.00000000       0.00000000          1
6
pbc=[F, F, F] list_num_par=6 frozen=false iter=20000 energy=-1.26974174 Lattice="15.00000000 0.00000000 0.00000000 0.00000000 15.00000000 0.00000000 0.00000000 0.00000000 15.00000000" energy_frozen_part=0.00000000 Properties=species:S:1:pos:R:3:velocities:R:3:Z:I:1
H         3.65156985       8.75854228      10.64640753         0.00000000       0.00000000       0.00000000          1
H         3.03802256       6.58102804      12.28539505         0.00000000       0.00000000       0.00000000          1
H         0.67944571       7.84706106      13.08448034         0.00000000       0.00000000       0.00000000          1
H         1.29299155      10.02456842      11.44548903         0.00000000       0.00000000       0.00000000          1
H         3.13115209       9.15716695      13.36201745         0.00000000       0.00000000       0.00000000          1
H         1.19986565       7.44842444      10.36887297         0.00000000       0.00000000       0.00000000          1
6
pbc=[F, F, F] list_num_par=6 frozen=false iter=20000 energy=-1.26974174 Lattice="15.00000000 0.00000000 0.00000000 0.00000000 15.00000000 0.00000000 0.00000000 0.00000000 15.00000000" energy_frozen_part=0.00000000 Properties=species:S:1:pos:R:3:velocities:R:3:Z:I:1
H         3.63618423       8.78501528      10.64513661         0.00000000       0.00000000       0.00000000          1
H         3.06609681       6.59366122      12.28136069         0.00000000       0.00000000       0.00000000          1
H         0.70101767       7.82794922      13.11036364         0.00000000       0.00000000       0.00000000          1
H         1.27110770      10.01930289      11.47413883         0.00000000       0.00000000       0.00000000          1
H         3.13960321       9.16635975      13.36768488         0.00000000       0.00000000       0.00000000          1
H         1.19759973       7.44659982      10.38782064         0.00000000       0.00000000       0.00000000          1
6
pbc=[F, F, F] list_num_par=6 frozen=false iter=20000 energy=-1.26974174 Lattice="15.00000000 0.00000000 0.00000000 0.00000000 15.00000000 0.00000000 0.00000000 0.00000000 15.00000000" energy_frozen_part=0.00000000 Properties=species:S:1:pos:R:3:velocities:R:3:Z:I:1
H         3.64329769       8.76699011      10.63760763         0.00000000       0.00000000       0.00000000          1
H         3.02905109       6.58714450      12.27324221         0.00000000       0.00000000       0.00000000          1
H         0.67609805       7.85728190      13.08234397         0.00000000       0.00000000       0.00000000          1
H         1.29033997      10.03712617      11.44671482         0.00000000       0.00000000       0.00000000          1
H         3.13196224       9.16046529      13.35569556         0.00000000       0.00000000       0.00000000          1
H         1.18743540       7.46380358      10.36426134         0.00000000       0.00000000       0.00000000          1
6
pbc=[F, F, F] list_num_par=6 frozen=false iter=20000 energy=-1.26974174 Lattice="15.00000000 0.00000000 0.00000000 0.00000000 15.00000000 0.00000000 0.00000000 0.00000000 15.00000000" energy_frozen_part=0.00000000 Properties=species:S:1:pos:R:3:velocities:R:3:Z:I:1
H         3.64329556       8.76690509      10.63756854         0.00000000       0.00000000       0.00000000          1
H         3.02909000       6.58714591      12.27332129         0.00000000       0.00000000       0.00000000          1
H         0.67613256       7.85730211      13.08237211         0.00000000       0.00000000       0.00000000          1
H         1.29033506      10.03706171      11.44661699         0.00000000       0.00000000       0.00000000          1
H         3.13198514       9.16053310      13.35563382         0.00000000       0.00000000       0.00000000          1
H         1.18744676       7.46367925      10.36430299         0.00000000       0.00000000       0.00000000          1
6
pbc=[F, F, F] list_num_par=6 frozen=false iter=20000 energy=-1.26974174 Lattice="15.00000000 0.00000000 0.00000000 0.00000000 15.00000000 0.00000000 0.00000000 0.00000000 15.00000000" energy_frozen_part=0.00000000 Properties=species:S:1:pos:R:3:velocities:R:3:Z:I:1
H         3.64329792       8.76697553      10.63760666         0.00000000       0.00000000       0.00000000          1
H         3.02905193       6.58714355      12.27324718         0.00000000       0.00000000       0.00000000          1
H         0.67609565       7.85728572      13.08233583         0.00000000       0.00000000       0.00000000          1
H         1.29034876      10.03712254      11.44670133         0.00000000       0.00000000       0.00000000          1
H         3.13196312       9.16047695      13.35568754         0.00000000       0.00000000       0.00000000          1
H         1.18743607       7.46379184      10.36425762         0.00000000       0.00000000       0.00000000          1
6
pbc=[F, F, F] list_num_par=6 frozen=false iter=20000 energy=-1.26974174 Lattice="15.00000000 0.00000000 0.00000000 0.00000000 15.00000000 0.00000000 0.00000000 0.00000000 15.00000000" energy_frozen_part=0.00000000 Properties=species:S:1:pos:R:3:velocities:R:3:Z:I:1
H         3.64961695       8.75274684      10.64543689         0.00000000       0.00000000       0.00000000          1
H         3.02190508       6.57681720      12.28115379         0.00000000       0.00000000       0.00000000          1
H         0.66797873       7.85380186      13.07654363         0.00000000       0.00000000       0.00000000          1
H         1.29569634      10.02973512      11.44082137         0.00000000       0.00000000       0.00000000          1
H         3.12556839       9.15148120      13.36033277         0.00000000       0.00000000       0.00000000          1
H         1.19202042       7.45506741      10.36165164         0.00000000       0.00000000       0.00000000          1
6
pbc=[F, F, F] list_num_par=6 frozen=false iter=20000 energy=-1.26974174 Lattice="15.00000000 0.00000000 0.00000000 0.00000000 15.00000000 0.00000000 0.00000000 0.00000000 15.00000000" energy_frozen_part=0.00000000 Properties=species:S:1:pos:R:3:velocities:R:3:Z:I:1
H         3.63617769       8.78502357      10.64512621         0.00000000       0.00000000       0.00000000          1
H         3.06615114       6.59365147      12.28135482         0.00000000       0.00000000       0.00000000          1
H         0.70103642       7.82786594      13.11034704         0.00000000       0.00000000       0.00000000          1
H         1.27106486      10.01923159      11.47411609         0.00000000       0.00000000       0.00000000          1
H         3.13958746       9.16635828      13.36766980         0.00000000       0.00000000       0.00000000          1
H         1.19763685       7.44652259      10.38780470         0.00000000       0.00000000       0.00000000          1
6
pbc=[F, F, F] list_num_par=6 frozen=false iter=20000 energy=-1.26974174 Lattice="15.00000000 0.00000000 0.00000000 0.00000000 15.00000000 0.00000000 0.00000000 0.00000000 15.00000000" energy_frozen_part=0.00000000 Properties=species:S:1:pos:R:3:velocities:R:3:Z:I:1
H         3.64326543       8.76693582      10.63755449         0.00000000       0.00000000       0.00000000          1
H         3.02906478       6.58716139      12.27329286         0.00000000       0.00000000       0.00000000          1
H         0.67609435       7.85730200      13.08234522         0.00000000       0.00000000       0.00000000          1
H         1.29029359      10.03707565      11.44660985         0.00000000       0.00000000       0.00000000          1
H         3.13193829       9.16054027      13.35561911         0.00000000       0.00000000       0.00000000          1
H         1.18742676       7.46370373      10.36427553         0.00000000       0.00000000       0.00000000          1
6
pbc=[F, F, F] list_num_par=6 frozen=false iter=20000 energy=-1.26974174 Lattice="15.00000000 0.00000000 0.00000000 0.00000000 15.00000000 0.00000000 0.00000000 0.00000000 15.00000000" energy_frozen_part=0.00000000 Properties=species:S:1:pos:R:3:velocities:R:3:Z:I:1
H         3.64960449       8.75273252      10.64545122         0.00000000       0.00000000       0.00000000          1
H         3.02188617       6.57681500      12.28118185         0.00000000       0.00000000       0.00000000          1
H         0.66795948       7.85380537      13.07654875         0.00000000       0.00000000       0.00000000          1
H         1.29567984      10.02971958      11.44081323         0.00000000       0.00000000       0.00000000          1
H         3.12555046       9.15149653      13.36034427         0.00000000       0.00000000       0.00000000          1
H         1.19201256       7.45503992      10.36165978         0.00000000       0.00000000       0.00000000          1
6
pbc=[F, F, F] list_num_par=6 frozen=false iter=20000 energy=-1.26974174 Lattice="15.00000000 0.00000000 0.00000000 0.00000000 15.00000000 0.00000000 0.00000000 0.00000000 15.00000000" energy_frozen_part=0.00000000 Properties=species:S:1:pos:R:3:velocities:R:3:Z:I:1
H         3.64960500       8.75273639      10.64544137         0.00000000       0.00000000       0.00000000          1
H         3.02187531       6.57681388      12.28117778         0.00000000       0.00000000       0.00000000          1
H         0.66795469       7.85380398      13.07655507         0.00000000       0.00000000       0.00000000          1
H         1.29567340      10.02972102      11.44081536         0.00000000       0.00000000       0.00000000          1
H         3.12554591       9.15149065      13.36033329         0.00000000       0.00000000       0.00000000          1
H         1.19201037       7.45504785      10.36165505         0.00000000       0.00000000       0.00000000          1
6
pbc=[F, F, F] list_num_par=6 frozen=false iter=20000 energy=-1.26974174 Lattice="15.00000000 0.00000000 0.00000000 0.00000000 15.00000000 0.00000000 0.00000000 0.00000000 15.00000000" energy_frozen_part=0.00000000 Properties=species:S:1:pos:R:3:velocities:R:3:Z:I:1
H         3.64326035       8.76693290      10.63756019         0.00000000       0.00000000       0.00000000          1
H         3.02909774       6.58717378      12.27331433         0.00000000       0.00000000       0.00000000          1
H         0.67612254       7.85729359      13.08238543         0.00000000       0.00000000       0.00000000          1
H         1.29029023      10.03705973      11.44662612         0.00000000       0.00000000       0.00000000          1
H         3.13196050       9.16055800      13.35562796         0.00000000       0.00000000       0.00000000          1
H         1.18742669       7.46367618      10.36431472         0.00000000       0.00000000       0.00000000          1
6
pbc=[F, F, F] list_num_par=6 frozen=false iter=20000 energy=-1.26974174 Lattice="15.00000000 0.00000000 0.00000000 0.00000000 15.00000000 0.00000000 0.00000000 0.00000000 15.00000000" energy_frozen_part=0.00000000 Properties=species:S:1:pos:R:3:velocities:R:3:Z:I:1
H         3.63046378       8.78415428      10.64357067         0.00000000       0.00000000       0.00000000          1
H         3.06634368       6.59460727      12.28428393         0.00000000       0.00000000       0.00000000          1
H         0.70169589       7.82750228      13.11657182         0.00000000       0.00000000       0.00000000          1
H         1.26581087      10.01704935      11.47585791         0.00000000       0.00000000       0.00000000          1
H         3.13934222       9.16900252      13.36661484         0.00000000       0.00000000       0.00000000          1
H         1.19281467       7.44265360      10.39353002         0.00000000       0.00000000       0.00000000          1
6
pbc=[F, F, F] list_num_par=6 frozen=false iter=20000 energy=-1.26974174 Lattice="15.00000000 0.00000000 0.00000000 0.00000000 15.00000000 0.00000000 0.00000000 0.00000000 15.00000000" energy_frozen_part=0.00000000 Properties=species:S:1:pos:R:3:velocities:R:3:Z:I:1
H         3.63619027       8.78503134      10.64513693         0.00000000       0.00000000       0.00000000          1
H         3.06611808       6.59365760      12.28133928         0.00000000       0.00000000       0.00000000          1
H         0.70105102       7.82791887      13.11037831         0.00000000       0.00000000       0.00000000          1
H         1.27111714      10.01929295      11.47416821         0.00000000       0.00000000       0.00000000          1
H         3.13963250       9.16634773      13.36769151         0.00000000       0.00000000       0.00000000          1
H         1.19760454       7.44660298      10.38782439         0.00000000       0.00000000       0.00000000          1
6
pbc=[F, F, F] list_num_par=6 frozen=false iter=20000 energy=-1.26974174 Lattice="15.00000000 0.00000000 0.00000000 0.00000000 15.00000000 0.00000000 0.00000000 0.00000000 15.00000000" energy_frozen_part=0.00000000 Properties=species:S:1:pos:R:3:velocities:R:3:Z:I:1
H         3.65155842       8.75853190      10.64639467         0.00000000       0.00000000       0.00000000          1
H         3.03802175       6.58103738      12.28540826         0.00000000       0.00000000       0.00000000          1
H         0.67941796       7.84705179      13.08445994         0.00000000       0.00000000       0.00000000          1
H         1.29296400      10.02455179      11.44545596         0.00000000       0.00000000       0.00000000          1
H         3.13111513       9.15718516      13.36200289         0.00000000       0.00000000       0.00000000          1
H         1.19986556       7.44839638      10.36886546         0.00000000       0.00000000       0.00000000          1
6
pbc=[F, F, F] list_num_par=6 frozen=false iter=20000 energy=-1.26974174 Lattice="15.00000000 0.00000000 0.00000000 0.00000000 15.00000000 0.00000000 0.00000000 0.00000000 15.00000000" energy_frozen_part=0.00000000 Properties=species:S:1:pos:R:3:velocities:R:3:Z:I:1
H         3.65158546       8.75854098      10.64640462         0.00000000       0.00000000       0.00000000          1
H         3.03804910       6.58105492      12.28542489         0.00000000       0.00000000       0.00000000          1
H         0.67945867       7.84707919      13.08449306         0.00000000       0.00000000       0.00000000          1
H         1.29299635      10.02457317      11.44547023         0.00000000       0.00000000       0.00000000          1
H         3.13115495       9.15721238      13.36200446         0.00000000       0.00000000       0.00000000          1
H         1.19987912       7.44842004      10.36888707         0.00000000       0.00000000       0.00000000          1
6
pbc=[F, F, F] list_num_par=6 frozen=false iter=20000 energy=-1.26974174 Lattice="15.00000000 0.00000000 0.00000000 0.00000000 15.00000000 0.00000000 0.00000000 0.00000000 15.00000000" energy_frozen_part=0.00000000 Properties=species:S:1:pos:R:3:velocities:R:3:Z:I:1
H         3.64924524       8.74579698      10.65086456         0.00000000       0.00000000       0.00000000          1
H         3.01398286       6.57469606      12.29009671         0.00000000       0.00000000       0.00000000          1
H         0.66642402       7.86280154      13.08636330         0.00000000       0.00000000       0.00000000          1
H         1.30167903      10.03389515      11.44713163         0.00000000       0.00000000       0.00000000          1
H         3.12986342       9.15029892      13.36579940         0.00000000       0.00000000       0.00000000          1
H         1.18580155       7.45829789      10.37142381         0.00000000       0.00000000       0.00000000          1
6
pbc=[F, F, F] list_num_par=6 frozen=false iter=20000 energy=-1.26974174 Lattice="15.00000000 0.00000000 0.00000000 0.00000000 15.00000000 0.00000000 0.00000000 0.00000000 15.00000000" energy_frozen_part=0.00000000 Properties=species:S:1:pos:R:3:velocities:R:3:Z:I:1
H         3.63619148       8.78498418      10.64513886         0.00000000       0.00000000       0.00000000          1
H         3.06610857       6.59362571      12.28137342         0.00000000       0.00000000       0.00000000          1
H         0.70101699       7.82788349      13.11035551         0.00000000       0.00000000       0.00000000          1
H         1.27109654      10.01924057      11.47412535         0.00000000       0.00000000       0.00000000          1
H         3.13959094       9.16632840      13.36768374         0.00000000       0.00000000       0.00000000          1
H         1.19762436       7.44652945      10.38781063         0.00000000       0.00000000       0.00000000          1
6
pbc=[F, F, F] list_num_par=6 frozen=false iter=20000 energy=-1.26974174 Lattice="15.00000000 0.00000000 0.00000000 0.00000000 15.00000000 0.00000000 0.00000000 0.00000000 15.00000000" energy_frozen_part=0.00000000 Properties=species:S:1:pos:R:3:velocities:R:3:Z:I:1
H         3.63049746       8.78415537      10.64360018         0.00000000       0.00000000       0.00000000          1
H         3.06637727       6.59465102      12.28437498         0.00000000       0.00000000       0.00000000          1
H         0.70177691       7.82761445      13.11669877         0.00000000       0.00000000       0.00000000          1
H         1.26590347      10.01711357      11.47592833         0.00000000       0.00000000       0.00000000          1
H         3.13946690       9.16906030      13.36665295         0.00000000       0.00000000       0.00000000          1
H         1.19281416       7.44269949      10.39364142         0.00000000       0.00000000       0.00000000          1
6
pbc=[F, F, F] list_num_par=6 frozen=false iter=20000 energy=-1.26974174 Lattice="15.00000000 0.00000000 0.00000000 0.00000000 15.00000000 0.00000000 0.00000000 0.00000000 15.00000000" energy_frozen_part=0.00000000 Properties=species:S:1:pos:R:3:velocities:R:3:Z:I:1
H         3.63618961       8.78499556      10.64511376         0.00000000       0.00000000       0.00000000          1
H         3.06609438       6.59364511      12.28134289         0.00000000       0.00000000       0.00000000          1
H         0.70103245       7.82794996      13.11037229         0.00000000       0.00000000       0.00000000          1
H         1.27113348      10.01929970      11.47413729         0.00000000       0.00000000       0.00000000          1
H         3.13963882       9.16633658      13.36766658         0.00000000       0.00000000       0.00000000          1
H         1.19758918       7.44660013      10.38782165         0.00000000       0.00000000       0.00000000          1
6
pbc=[F, F, F] list_num_par=6 frozen=false iter=20000 energy=-1.26974174 Lattice="15.00000000 0.00000000 0.00000000 0.00000000 15.00000000 0.00000000 0.00000000 0.00000000 15.00000000" energy_frozen_part=0.00000000 Properties=species:S:1:pos:R:3:velocities:R:3:Z:I:1
H         3.64331908       8.76700058      10.63762807         0.00000000       0.00000000       0.00000000          1
H         3.02904226       6.58717953      12.27327734         0.00000000       0.00000000       0.00000000          1
H         0.67607480       7.85732376      13.08232195         0.00000000       0.00000000       0.00000000          1
H         1.29035707      10.03715050      11.44667410         0.00000000       0.00000000       0.00000000          1
H         3.13193436       9.16051266      13.35570077         0.00000000       0.00000000       0.00000000          1
H         1.18746079       7.46381425      10.36424801         0.00000000       0.00000000       0.00000000          1
6
pbc=[F, F, F] list_num_par=6 frozen=false iter=20000 energy=-1.26974174 Lattice="15.00000000 0.00000000 0.00000000 0.00000000 15.00000000 0.00000000 0.00000000 0.00000000 15.00000000" energy_frozen_part=0.00000000 Properties=species:S:1:pos:R:3:velocities:R:3:Z:I:1
H         3.64330101       8.76691134      10.63758501         0.00000000       0.00000000       0.00000000          1
H         3.02907883       6.58715665      12.27333296         0.00000000       0.00000000       0.00000000          1
H         0.67611165       7.85731123      13.08237403         0.00000000       0.00000000       0.00000000          1
H         1.29033852      10.03706491      11.44662642         0.00000000       0.00000000       0.00000000          1
H         3.13197110       9.16053985      13.35564962         0.00000000       0.00000000       0.00000000          1
H         1.18745015       7.46368977      10.36430574         0.00000000       0.00000000       0.00000000          1
6
pbc=[F, F, F] list_num_par=6 frozen=false iter=20000 energy=-1.26974174 Lattice="15.00000000 0.00000000 0.00000000 0.00000000 15.00000000 0.00000000 0.00000000 0.00000000 15.00000000" energy_frozen_part=0.00000000 Properties=species:S:1:pos:R:3:velocities:R:3:Z:I:1
H         3.64325375       8.76693334      10.63755512         0.00000000       0.00000000       0.00000000          1
H         3.02908413       6.58717302      12.27331822         0.00000000       0.00000000       0.00000000          1
H         0.67611779       7.85730283      13.08240816         0.00000000       0.00000000       0.00000000          1
H         1.29028284      10.03705851      11.44663041         0.00000000       0.00000000       0.00000000          1
H         3.13195789       9.16056063      13.35562662         0.00000000       0.00000000       0.00000000          1
H         1.18740575       7.46367560      10.36433173         0.00000000       0.00000000       0.00000000          1
6
pbc=[F, F, F] list_num_par=6 frozen=false iter=20000 energy=-1.26974174 Lattice="15.00000000 0.00000000 0.00000000 0.00000000 15.00000000 0.00000000 0.00000000 0.00000000 15.00000000" energy_frozen_part=0.00000000 Properties=species:S:1:pos:R:3:velocities:R:3:Z:I:1
H         3.63047519       8.78416063      10.64357689         0.00000000       0.00000000       0.00000000          1
H         3.06635343       6.59461115      12.28429012         0.00000000       0.00000000       0.00000000          1
H         0.70170300       7.82750932      13.11656787         0.00000000       0.00000000       0.00000000          1
H         1.26582833      10.01705616      11.47584579         0.00000000       0.00000000       0.00000000          1
H         3.13934977       9.16900884      13.36661922         0.00000000       0.00000000       0.00000000          1
H         1.19282473       7.44265480      10.39352742         0.00000000       0.00000000       0.00000000          1
6
pbc=[F, F, F] list_num_par=6 frozen=false iter=20000 energy=-1.26974174 Lattice="15.00000000 0.00000000 0.00000000 0.00000000 15.00000000 0.00000000 0.00000000 0.00000000 15.00000000" energy_frozen_part=0.00000000 Properties=species:S:1:pos:R:3:velocities:R:3:Z:I:1
H         3.63617157       8.78500927      10.64513103         0.00000000       0.00000000       0.00000000          1
H         3.06612440       6.59363928      12.28135510         0.00000000       0.00000000       0.00000000          1
H         0.70103899       7.82788917      13.11039212         0.00000000       0.00000000       0.00000000          1
H         1.27108349      10.01925375      11.47415568         0.00000000       0.00000000       0.00000000          1
H         3.13960590       9.16634270      13.36767993         0.00000000       0.00000000       0.00000000          1
H         1.19760032       7.44655712      10.38783162         0.00000000       0.00000000       0.00000000          1
6
pbc=[F, F, F] list_num_par=6 frozen=false iter=20000 energy=-1.26974174 Lattice="15.00000000 0.00000000 0.00000000 0.00000000 15.00000000 0.00000000 0.00000000 0.00000000 15.00000000" energy_frozen_part=0.00000000 Properties=species:S:1:pos:R:3:velocities:R:3:Z:I:1
H         3.63620497       8.78500365      10.64512774         0.00000000       0.00000000       0.00000000          1
H         3.06609662       6.59364984      12.28134964         0.00000000       0.00000000       0.00000000          1
H         0.70103234       7.82796064      13.11036548         0.00000000       0.00000000       0.00000000          1
H         1.27114666      10.01930662      11.47413648         0.00000000       0.00000000       0.00000000          1
H         3.13963503       9.16635234      13.36767312         0.00000000       0.00000000       0.00000000          1
H         1.19760423       7.44660712      10.38781689         0.00000000       0.00000000       0.00000000          1
6
pbc=[F, F, F] list_num_par=6 frozen=false iter=20000 energy=-1.26974174 Lattice="15.00000000 0.00000000 0.00000000 0.00000000 15.00000000 0.00000000 0.00000000 0.00000000 15.00000000" energy_frozen_part=0.00000000 Properties=species:S:1:pos:R:3:velocities:R:3:Z:I:1
H         3.64959392       8.75276363      10.64541282         0.00000000       0.00000000       0.00000000          1
H         3.02192097       6.57682007      12.28113214         0.00000000       0.00000000       0.00000000          1
H         0.66799622       7.85377858      13.07655703         0.00000000       0.00000000       0.00000000          1
H         1.29565936      10.02971844      11.44083757         0.00000000       0.00000000       0.00000000          1
H         3.12557877       9.15148620      13.36031538         0.00000000       0.00000000       0.00000000          1
H         1.19201229       7.45505129      10.36165352         0.00000000       0.00000000       0.00000000          1
6
pbc=[F, F, F] list_num_par=6 frozen=false iter=20000 energy=-1.26974174 Lattice="15.00000000 0.00000000 0.00000000 0.00000000 15.00000000 0.00000000 0.00000000 0.00000000 15.00000000" energy_frozen_part=0.00000000 Properties=species:S:1:pos:R:3:velocities:R:3:Z:I:1
H         3.63047290       8.78417518      10.64355687         0.00000000       0.00000000       0.00000000          1
H         3.06639507       6.59462714      12.28428547         0.00000000       0.00000000       0.00000000          1
H         0.70176177       7.82752049      13.11661885         0.00000000       0.00000000       0.00000000          1
H         1.26584268      10.01707525      11.47589984         0.00000000       0.00000000       0.00000000          1
H         3.13941563       9.16902281      13.36661474         0.00000000       0.00000000       0.00000000          1
H         1.19282384       7.44268082      10.39356154         0.00000000       0.00000000       0.00000000          1
6
pbc=[F, F, F] list_num_par=6 frozen=false iter=20000 energy=-1.26974174 Lattice="15.00000000 0.00000000 0.00000000 0.00000000 15.00000000 0.00000000 0.00000000 0.00000000 15.00000000" energy_frozen_part=0.00000000 Properties=species:S:1:pos:R:3:velocities:R:3:Z:I:1
H         3.65155806       8.75853300      10.64640464         0.00000000       0.00000000       0.00000000          1
H         3.03801148       6.58102463      12.28539628         0.00000000       0.00000000       0.00000000          1
H         0.67943611       7.84705493      13.08448385         0.00000000       0.00000000       0.00000000          1
H         1.29297662      10.02456820      11.44548941         0.00000000       0.00000000       0.00000000          1
H         3.13114042       9.15716652      13.36200792         0.00000000       0.00000000       0.00000000          1
H         1.19985221       7.44842449      10.36887168         0.00000000       0.00000000       0.00000000          1
6
pbc=[F, F, F] list_num_par=6 frozen=false iter=20000 energy=-1.26974174 Lattice="15.00000000 0.00000000 0.00000000 0.00000000 15.00000000 0.00000000 0.00000000 0.00000000 15.00000000" energy_frozen_part=0.00000000 Properties=species:S:1:pos:R:3:velocities:R:3:Z:I:1
H         3.64958661       8.75276528      10.64542091         0.00000000       0.00000000       0.00000000          1
H         3.02193041       6.57682189      12.28113717         0.00000000       0.00000000       0.00000000          1
H         0.66799895       7.85376806      13.07656661         0.00000000       0.00000000       0.00000000          1
H         1.29565668      10.02971101      11.44083937         0.00000000       0.00000000       0.00000000          1
H         3.12557042       9.15149327      13.36032648         0.00000000       0.00000000       0.00000000          1
H         1.19200954       7.45504753      10.36165841         0.00000000       0.00000000       0.00000000          1
6
pbc=[F, F, F] list_num_par=6 frozen=false iter=20000 energy=-1.26974174 Lattice="15.00000000 0.00000000 0.00000000 0.00000000 15.00000000 0.00000000 0.00000000 0.00000000 15.00000000" energy_frozen_part=0.00000000 Properties=species:S:1:pos:R:3:velocities:R:3:Z:I:1
H         3.63618924       8.78501045      10.64512399         0.00000000       0.00000000       0.00000000          1
H         3.06614618       6.59365143      12.28136704         0.00000000       0.00000000       0.00000000          1
H         0.70103041       7.82787149      13.11034128         0.00000000       0.00000000       0.00000000          1
H         1.27106925      10.01923370      11.47411107         0.00000000       0.00000000       0.00000000          1
H         3.13957494       9.16636112      13.36766858         0.00000000       0.00000000       0.00000000          1
H         1.19764057       7.44652788      10.38780010         0.00000000       0.00000000       0.00000000          1
6
pbc=[F, F, F] list_num_par=6 frozen=false iter=20000 energy=-1.26974174 Lattice="15.00000000 0.00000000 0.00000000 0.00000000 15.00000000 0.00000000 0.00000000 0.00000000 15.00000000" energy_frozen_part=0.00000000 Properties=species:S:1:pos:R:3:velocities:R:3:Z:I:1
H         3.63618356       8.78501980      10.64513071         0.00000000       0.00000000       0.00000000          1
H         3.06614965       6.59366210      12.28137111         0.00000000       0.00000000       0.00000000          1
H         0.70102443       7.82787506      13.11035484         0.00000000       0.00000000       0.00000000          1
H         1.27106262      10.01923644      11.47410958         0.00000000       0.00000000       0.00000000          1
H         3.13956960       9.16637412      13.36766686         0.00000000       0.00000000       0.00000000          1
H         1.19764012       7.44652341      10.38781214         0.00000000       0.00000000       0.00000000          1
6
pbc=[F, F, F] list_num_par=6 frozen=false iter=20000 energy=-1.26974174 Lattice="15.00000000 0.00000000 0.00000000 0.00000000 15.00000000 0.00000000 0.00000000 0.00000000 15.00000000" energy_frozen_part=0.00000000 Properties=species:S:1:pos:R:3:velocities:R:3:Z:I:1
H         3.64326727       8.76693016      10.63755555         0.00000000       0.00000000       0.00000000          1
H         3.02906379       6.58716636      12.27329402         0.00000000       0.00000000       0.00000000          1
H         0.67609612       7.85730182      13.08234459         0.00000000       0.00000000       0.00000000          1
H         1.29029848      10.03706895      11.44660916         0.00000000       0.00000000       0.00000000          1
H         3.13193499       9.16054441      13.35562710         0.00000000       0.00000000       0.00000000          1
H         1.18742453       7.46369696      10.36427657         0.00000000       0.00000000       0.00000000          1
6
pbc=[F, F, F] list_num_par=6 frozen=false iter=20000 energy=-1.26974174 Lattice="15.00000000 0.00000000 0.00000000 0.00000000 15.00000000 0.00000000 0.00000000 0.00000000 15.00000000" energy_frozen_part=0.00000000 Properties=species:S:1:pos:R:3:velocities:R:3:Z:I:1
H         3.65157343       8.75853273      10.64639822         0.00000000       0.00000000       0.00000000          1
H         3.03801684       6.58102665      12.28539033         0.00000000       0.00000000       0.00000000          1
H         0.67943470       7.84705760      13.08448584         0.00000000       0.00000000       0.00000000          1
H         1.29299232      10.02456933      11.44549299         0.00000000       0.00000000       0.00000000          1
H         3.13114791       9.15716198      13.36201209         0.00000000       0.00000000       0.00000000          1
H         1.19985751       7.44843295      10.36887242         0.00000000       0.00000000       0.00000000          1
6
pbc=[F, F, F] list_num_par=6 frozen=false iter=20000 energy=-1.26974174 Lattice="15.00000000 0.00000000 0.00000000 0.00000000 15.00000000 0.00000000 0.00000000 0.00000000 15.00000000" energy_frozen_part=0.00000000 Properties=species:S:1:pos:R:3:velocities:R:3:Z:I:1
H         3.63049081       8.78419795      10.64356849         0.00000000       0.00000000       0.00000000          1
H         3.06640107       6.59463973      12.28427920         0.00000000       0.00000000       0.00000000          1
H         0.70176419       7.82751470      13.11660373         0.00000000       0.00000000       0.00000000          1
H         1.26585380      10.01707855      11.47590233         0.00000000       0.00000000       0.00000000          1
H         3.13941932       9.16902658      13.36662477         0.00000000       0.00000000       0.00000000          1
H         1.19283847       7.44269453      10.39354799         0.00000000       0.00000000       0.00000000          1
6
pbc=[F, F, F] list_num_par=6 frozen=false iter=20000 energy=-1.26974174 Lattice="15.00000000 0.00000000 0.00000000 0.00000000 15.00000000 0.00000000 0.00000000 0.00000000 15.00000000" energy_frozen_part=0.00000000 Properties=species:S:1:pos:R:3:velocities:R:3:Z:I:1
H         3.64959520       8.75274084      10.64543674         0.00000000       0.00000000       0.00000000          1
H         3.02189377       6.57682503      12.28118068         0.00000000       0.00000000       0.00000000          1
H         0.66796848       7.85380545      13.07656255         0.00000000       0.00000000       0.00000000          1
H         1.29566551      10.02971760      11.44082171         0.00000000       0.00000000       0.00000000          1
H         3.12555678       9.15150057      13.36033578         0.00000000       0.00000000       0.00000000          1
H         1.19200471       7.45503577      10.36166948         0.00000000       0.00000000       0.00000000          1
6
pbc=[F, F, F] list_num_par=6 frozen=false iter=20000 energy=-1.26974174 Lattice="15.00000000 0.00000000 0.00000000 0.00000000 15.00000000 0.00000000 0.00000000 0.00000000 15.00000000" energy_frozen_part=0.00000000 Properties=species:S:1:pos:R:3:velocities:R:3:Z:I:1
H         3.64943350       8.75279493      10.64545917         0.00000000       0.00000000       0.00000000          1
H         3.02193736       6.57683613      12.28122502         0.00000000       0.00000000       0.00000000          1
H         0.66796273       7.85366079      13.07671530         0.00000000       0.00000000       0.00000000          1
H         1.29545447      10.02962116      11.44094934         0.00000000       0.00000000       0.00000000          1
H         3.12548667       9.15152140      13.36037835         0.00000000       0.00000000       0.00000000          1
H         1.19191284       7.45493984      10.36179283         0.00000000       0.00000000       0.00000000          1
6
pbc=[F, F, F] list_num_par=6 frozen=false iter=20000 energy=-1.26974174 Lattice="15.00000000 0.00000000 0.00000000 0.00000000 15.00000000 0.00000000 0.00000000 0.00000000 15.00000000" energy_frozen_part=0.00000000 Properties=species:S:1:pos:R:3:velocities:R:3:Z:I:1
H         3.64330866       8.76690344      10.63757310         0.00000000       0.00000000       0.00000000          1
H         3.02909779       6.58715168      12.27332468         0.00000000       0.00000000       0.00000000          1
H         0.67613860       7.85730897      13.08237578         0.00000000       0.00000000       0.00000000          1
H         1.29034526      10.03706197      11.44662632         0.00000000       0.00000000       0.00000000          1
H         3.13198787       9.16053384      13.35564268         0.00000000       0.00000000       0.00000000          1
H         1.18745840       7.46368145      10.36430676         0.00000000       0.00000000       0.00000000          1
6
pbc=[F, F, F] list_num_par=6 frozen=false iter=20000 energy=-1.26974174 Lattice="15.00000000 0.00000000 0.00000000 0.00000000 15.00000000 0.00000000 0.00000000 0.00000000 15.00000000" energy_frozen_part=0.00000000 Properties=species:S:1:pos:R:3:velocities:R:3:Z:I:1
H         3.63620092       8.78490836      10.64501393         0.00000000       0.00000000       0.00000000          1
H         3.06611741       6.59365648      12.28138295         0.00000000       0.00000000       0.00000000          1
H         0.70107932       7.82801711      13.11037052         0.00000000       0.00000000       0.00000000          1
H         1.27115665      10.01926793      11.47399885         0.00000000       0.00000000       0.00000000          1
H         3.13968738       9.16642698      13.36754715         0.00000000       0.00000000       0.00000000          1
H         1.19759591       7.44650748      10.38783340         0.00000000       0.00000000       0.00000000          1
6
pbc=[F, F, F] list_num_par=6 frozen=false iter=20000 energy=-1.26974174 Lattice="15.00000000 0.00000000 0.00000000 0.00000000 15.00000000 0.00000000 0.00000000 0.00000000 15.00000000" energy_frozen_part=0.00000000 Properties=species:S:1:pos:R:3:velocities:R:3:Z:I:1
H         3.63047453       8.78418378      10.64355561         0.00000000       0.00000000       0.00000000          1
H         3.06639522       6.59462475      12.28426707         0.00000000       0.00000000       0.00000000          1
H         0.70176403       7.82751471      13.11661679         0.00000000       0.00000000       0.00000000          1
H         1.26584587      10.01706844      11.47589519         0.00000000       0.00000000       0.00000000          1
H         3.13942093       9.16901264      13.36661188         0.00000000       0.00000000       0.00000000          1
H         1.19281586       7.44268403      10.39355730         0.00000000       0.00000000       0.00000000          1
6
pbc=[F, F, F] list_num_par=6 frozen=false iter=20000 energy=-1.26974174 Lattice="15.00000000 0.00000000 0.00000000 0.00000000 15.00000000 0.00000000 0.00000000 0.00000000 15.00000000" energy_frozen_part=0.00000000 Properties=species:S:1:pos:R:3:velocities:R:3:Z:I:1
H         3.64959434       8.75274258      10.64542221         0.00000000       0.00000000       0.00000000          1
H         3.02191331       6.57681512      12.28116691         0.00000000       0.00000000       0.00000000          1
H         0.66798471       7.85377911      13.07656212         0.00000000       0.00000000       0.00000000          1
H         1.29566933      10.02970496      11.44082495         0.00000000       0.00000000       0.00000000          1
H         3.12556870       9.15149006      13.36033014         0.00000000       0.00000000       0.00000000          1
H         1.19201375       7.45502930      10.36166049         0.00000000       0.00000000       0.00000000          1
6
pbc=[F, F, F] list_num_par=6 frozen=false iter=20000 energy=-1.26974174 Lattice="15.00000000 0.00000000 0.00000000 0.00000000 15.00000000 0.00000000 0.00000000 0.00000000 15.00000000" energy_frozen_part=0.00000000 Properties=species:S:1:pos:R:3:velocities:R:3:Z:I:1
H         3.64326110       8.76693877      10.63754810         0.00000000       0.00000000       0.00000000          1
H         3.02908827       6.58717723      12.27330563         0.00000000       0.00000000       0.00000000          1
H         0.67612121       7.85730651      13.08238636         0.00000000       0.00000000       0.00000000          1
H         1.29028809      10.03706578      11.44661894         0.00000000       0.00000000       0.00000000          1
H         3.13196108       9.16056216      13.35561343         0.00000000       0.00000000       0.00000000          1
H         1.18741796       7.46367999      10.36431534         0.00000000       0.00000000       0.00000000          1
6
pbc=[F, F, F] list_num_par=6 frozen=false iter=20000 energy=-1.26974174 Lattice="15.00000000 0.00000000 0.00000000 0.00000000 15.00000000 0.00000000 0.00000000 0.00000000 15.00000000" energy_frozen_part=0.00000000 Properties=species:S:1:pos:R:3:velocities:R:3:Z:I:1
H         3.64959671       8.75276528      10.64543033         0.00000000       0.00000000       0.00000000          1
H         3.02190107       6.57683309      12.28115324         0.00000000       0.00000000       0.00000000          1
H         0.66796365       7.85379911      13.07653256         0.00000000       0.00000000       0.00000000          1
H         1.29565513      10.02972797      11.44080823         0.00000000       0.00000000       0.00000000          1
H         3.12553689       9.15150706      13.36032804         0.00000000       0.00000000       0.00000000          1
H         1.19201762       7.45505873      10.36163923         0.00000000       0.00000000       0.00000000          1
6
pbc=[F, F, F] list_num_par=6 frozen=false iter=20000 energy=-1.26974174 Lattice="15.00000000 0.00000000 0.00000000 0.00000000 15.00000000 0.00000000 0.00000000 0.00000000 15.00000000" energy_frozen_part=0.00000000 Properties=species:S:1:pos:R:3:velocities:R:3:Z:I:1
H         3.63621393       8.78488094      10.64502625         0.00000000       0.00000000       0.00000000          1
H         3.06612353       6.59365604      12.28142966         0.00000000       0.00000000       0.00000000          1
H         0.70106435       7.82802552      13.11036291         0.00000000       0.00000000       0.00000000          1
H         1.27116480      10.01924708      11.47395915         0.00000000       0.00000000       0.00000000          1
H         3.13967282       9.16643677      13.36755052         0.00000000       0.00000000       0.00000000          1
H         1.19761547       7.44646424      10.38784330         0.00000000       0.00000000       0.00000000          1
6
pbc=[F, F, F] list_num_par=6 frozen=false iter=20000 energy=-1.26974174 Lattice="15.00000000 0.00000000 0.00000000 0.00000000 15.00000000 0.00000000 0.00000000 0.00000000 15.00000000" energy_frozen_part=0.00000000 Properties=species:S:1:pos:R:3:velocities:R:3:Z:I:1
H         3.64333002       8.76697896      10.63760614         0.00000000       0.00000000       0.00000000          1
H         3.02906025       6.58715690      12.27325233         0.00000000       0.00000000       0.00000000          1
H         0.67609577       7.85730752      13.08232401         0.00000000       0.00000000       0.00000000          1
H         1.29036449      10.03712808      11.44667234         0.00000000       0.00000000       0.00000000          1
H         3.13195743       9.16048996      13.35567972         0.00000000       0.00000000       0.00000000          1
H         1.18746341       7.46379591      10.36424924         0.00000000       0.00000000       0.00000000          1
6
pbc=[F, F, F] list_num_par=6 frozen=false iter=20000 energy=-1.26974174 Lattice="15.00000000 0.00000000 0.00000000 0.00000000 15.00000000 0.00000000 0.00000000 0.00000000 15.00000000" energy_frozen_part=0.00000000 Properties=species:S:1:pos:R:3:velocities:R:3:Z:I:1
H         3.64960332       8.75274305      10.64543216         0.00000000       0.00000000       0.00000000          1
H         3.02190277       6.57681412      12.28115590         0.00000000       0.00000000       0.00000000          1
H         0.66798292       7.85379467      13.07657181         0.00000000       0.00000000       0.00000000          1
H         1.29568282      10.02972640      11.44083853         0.00000000       0.00000000       0.00000000          1
H         3.12557814       9.15147761      13.36033749         0.00000000       0.00000000       0.00000000          1
H         1.19200665       7.45505782      10.36166886         0.00000000       0.00000000       0.00000000          1
6
pbc=[F, F, F] list_num_par=6 frozen=false iter=20000 energy=-1.26974174 Lattice="15.00000000 0.00000000 0.00000000 0.00000000 15.00000000 0.00000000 0.00000000 0.00000000 15.00000000" energy_frozen_part=0.00000000 Properties=species:S:1:pos:R:3:velocities:R:3:Z:I:1
H         3.64328971       8.76692733      10.63757269         0.00000000       0.00000000       0.00000000          1
H         3.02908284       6.58716684      12.27331819         0.00000000       0.00000000       0.00000000          1
H         0.67611656       7.85730836      13.08237387         0.00000000       0.00000000       0.00000000          1
H         1.29032267      10.03706851      11.44662841         0.00000000       0.00000000       0.00000000          1
H         3.13197298       9.16054278      13.35563957         0.00000000       0.00000000       0.00000000          1
H         1.18744320       7.46368952      10.36430195         0.00000000       0.00000000       0.00000000          1
6
pbc=[F, F, F] list_num_par=6 frozen=false iter=20000 energy=-1.26974174 Lattice="15.00000000 0.00000000 0.00000000 0.00000000 15.00000000 0.00000000 0.00000000 0.00000000 15.00000000" energy_frozen_part=0.00000000 Properties=species:S:1:pos:R:3:velocities:R:3:Z:I:1
H         3.63617964       8.78500975      10.64511454         0.00000000       0.00000000       0.00000000          1
H         3.06608353       6.59365345      12.28134454         0.00000000       0.00000000       0.00000000          1
H         0.70103467       7.82796253      13.11037748         0.00000000       0.00000000       0.00000000          1
H         1.27112961      10.01932042      11.47415334         0.00000000       0.00000000       0.00000000          1
H         3.13964336       9.16635184      13.36767222         0.00000000       0.00000000       0.00000000          1
H         1.19757352       7.44662317      10.38781954         0.00000000       0.00000000       0.00000000          1
6
pbc=[F, F, F] list_num_par=6 frozen=false iter=20000 energy=-1.26974174 Lattice="15.00000000 0.00000000 0.00000000 0.00000000 15.00000000 0.00000000 0.00000000 0.00000000 15.00000000" energy_frozen_part=0.00000000 Properties=species:S:1:pos:R:3:velocities:R:3:Z:I:1
H         3.63047044       8.78419492      10.64352988         0.00000000       0.00000000       0.00000000          1
H         3.06645534       6.59471736      12.28437475         0.00000000       0.00000000       0.00000000          1
H         0.70184084       7.82763533      13.11672262         0.00000000       0.00000000       0.00000000          1
H         1.26586404      10.01711175      11.47587601         0.00000000       0.00000000       0.00000000          1
H         3.13949412       9.16916427      13.36658546         0.00000000       0.00000000       0.00000000          1
H         1.19281396       7.44266478      10.39367299         0.00000000       0.00000000       0.00000000          1
6
pbc=[F, F, F] list_num_par=6 frozen=false iter=20000 energy=-1.26974174 Lattice="15.00000000 0.00000000 0.00000000 0.00000000 15.00000000 0.00000000 0.00000000 0.00000000 15.00000000" energy_frozen_part=0.00000000 Properties=species:S:1:pos:R:3:velocities:R:3:Z:I:1
H         3.63619953       8.78488646      10.64503971         0.00000000       0.00000000       0.00000000          1
H         3.06612183       6.59366106      12.28143791         0.00000000       0.00000000       0.00000000          1
H         0.70105774       7.82801360      13.11038210         0.00000000       0.00000000       0.00000000          1
H         1.27114086      10.01923804      11.47397567         0.00000000       0.00000000       0.00000000          1
H         3.13965600       9.16644041      13.36756334         0.00000000       0.00000000       0.00000000          1
H         1.19759815       7.44645906      10.38785568         0.00000000       0.00000000       0.00000000          1
6
pbc=[F, F, F] list_num_par=6 frozen=false iter=20000 energy=-1.26974174 Lattice="15.00000000 0.00000000 0.00000000 0.00000000 15.00000000 0.00000000 0.00000000 0.00000000 15.00000000" energy_frozen_part=0.00000000 Properties=species:S:1:pos:R:3:velocities:R:3:Z:I:1
H         3.64328528       8.76692657      10.63757551         0.00000000       0.00000000       0.00000000          1
H         3.02907337       6.58716598      12.27332601         0.00000000       0.00000000       0.00000000          1
H         0.67610581       7.85730776      13.08237129         0.00000000       0.00000000       0.00000000          1
H         1.29031434      10.03707115      11.44662580         0.00000000       0.00000000       0.00000000          1
H         3.13195625       9.16055027      13.35564191         0.00000000       0.00000000       0.00000000          1
H         1.18743205       7.46369528      10.36430506         0.00000000       0.00000000       0.00000000          1
6
pbc=[F, F, F] list_num_par=6 frozen=false iter=20000 energy=-1.26974174 Lattice="15.00000000 0.00000000 0.00000000 0.00000000 15.00000000 0.00000000 0.00000000 0.00000000 15.00000000" energy_frozen_part=0.00000000 Properties=species:S:1:pos:R:3:velocities:R:3:Z:I:1
H         3.63617964       8.78502154      10.64510937         0.00000000       0.00000000       0.00000000          1
H         3.06615374       6.59364923      12.28133698         0.00000000       0.00000000       0.00000000          1
H         0.70104261       7.82785549      13.11034141         0.00000000       0.00000000       0.00000000          1
H         1.27106833      10.01923242      11.47411153         0.00000000       0.00000000       0.00000000          1
H         3.13958189       9.16634855      13.36765700         0.00000000       0.00000000       0.00000000          1
H         1.19763184       7.44653220      10.38779304         0.00000000       0.00000000       0.00000000          1
6
pbc=[F, F, F] list_num_par=6 frozen=false iter=20000 energy=-1.26974174 Lattice="15.00000000 0.00000000 0.00000000 0.00000000 15.00000000 0.00000000 0.00000000 0.00000000 15.00000000" energy_frozen_part=0.00000000 Properties=species:S:1:pos:R:3:velocities:R:3:Z:I:1
H         3.63044918       8.78415189      10.64357813         0.00000000       0.00000000       0.00000000          1
H         3.06633682       6.59459457      12.28427841         0.00000000       0.00000000       0.00000000          1
H         0.70168649       7.82748293      13.11656733         0.00000000       0.00000000       0.00000000          1
H         1.26579568      10.01703223      11.47586143         0.00000000       0.00000000       0.00000000          1
H         3.13932716       9.16898105      13.36662549         0.00000000       0.00000000       0.00000000          1
H         1.19280588       7.44264147      10.39351967         0.00000000       0.00000000       0.00000000          1
6
pbc=[F, F, F] list_num_par=6 frozen=false iter=20000 energy=-1.26974174 Lattice="15.00000000 0.00000000 0.00000000 0.00000000 15.00000000 0.00000000 0.00000000 0.00000000 15.00000000" energy_frozen_part=0.00000000 Properties=species:S:1:pos:R:3:velocities:R:3:Z:I:1
H         3.63047875       8.78418869      10.64354366         0.00000000       0.00000000       0.00000000          1
H         3.06640706       6.59462954      12.28425406         0.00000000       0.00000000       0.00000000          1
H         0.70177773       7.82751162      13.11660317         0.00000000       0.00000000       0.00000000          1
H         1.26584635      10.01706839      11.47589641         0.00000000       0.00000000       0.00000000          1
H         3.13943327       9.16902321      13.36660382         0.00000000       0.00000000       0.00000000          1
H         1.19282795       7.44268160      10.39354318         0.00000000       0.00000000       0.00000000          1
6
pbc=[F, F, F] list_num_par=6 frozen=false iter=20000 energy=-1.26974174 Lattice="15.00000000 0.00000000 0.00000000 0.00000000 15.00000000 0.00000000 0.00000000 0.00000000 15.00000000" energy_frozen_part=0.00000000 Properties=species:S:1:pos:R:3:velocities:R:3:Z:I:1
H         3.64332127       8.76699029      10.63759995         0.00000000       0.00000000       0.00000000          1
H         3.02906341       6.58717358      12.27324787         0.00000000       0.00000000       0.00000000          1
H         0.67609816       7.85731329      13.08231855         0.00000000       0.00000000       0.00000000          1
H         1.29036222      10.03713251      11.44667164         0.00000000       0.00000000       0.00000000          1
H         3.13196082       9.16050579      13.35568070         0.00000000       0.00000000       0.00000000          1
H         1.18745541       7.46380484      10.36424447         0.00000000       0.00000000       0.00000000          1
6
pbc=[F, F, F] list_num_par=6 frozen=false iter=20000 energy=-1.26974174 Lattice="15.00000000 0.00000000 0.00000000 0.00000000 15.00000000 0.00000000 0.00000000 0.00000000 15.00000000" energy_frozen_part=0.00000000 Properties=species:S:1:pos:R:3:velocities:R:3:Z:I:1
H         3.64326960       8.76694759      10.63757125         0.00000000       0.00000000       0.00000000          1
H         3.02910767       6.58718351      12.27333666         0.00000000       0.00000000       0.00000000          1
H         0.67612779       7.85729158      13.08239136         0.00000000       0.00000000       0.00000000          1
H         1.29028947      10.03705962      11.44662656         0.00000000       0.00000000       0.00000000          1
H         3.13195890       9.16057152      13.35563797         0.00000000       0.00000000       0.00000000          1
H         1.18744650       7.46366978      10.36432294         0.00000000       0.00000000       0.00000000          1
6
pbc=[F, F, F] list_num_par=6 frozen=false iter=20000 energy=-1.26974174 Lattice="15.00000000 0.00000000 0.00000000 0.00000000 15.00000000 0.00000000 0.00000000 0.00000000 15.00000000" energy_frozen_part=0.00000000 Properties=species:S:1:pos:R:3:velocities:R:3:Z:I:1
H         3.64330309       8.76690515      10.63757684         0.00000000       0.00000000       0.00000000          1
H         3.02908541       6.58715787      12.27334299         0.00000000       0.00000000       0.00000000          1
H         0.67611604       7.85731461      13.08237343         0.00000000       0.00000000       0.00000000          1
H         1.29033923      10.03706223      11.44661562         0.00000000       0.00000000       0.00000000          1
H         3.13196671       9.16054763      13.35564123         0.00000000       0.00000000       0.00000000          1
H         1.18745351       7.46366930      10.36431580         0.00000000       0.00000000       0.00000000          1
6
pbc=[F, F, F] list_num_par=6 frozen=false iter=20000 energy=-1.26974174 Lattice="15.00000000 0.00000000 0.00000000 0.00000000 15.00000000 0.00000000 0.00000000 0.00000000 15.00000000" energy_frozen_part=0.00000000 Properties=species:S:1:pos:R:3:velocities:R:3:Z:I:1
H         3.63619312       8.78501766      10.64512448         0.00000000       0.00000000       0.00000000          1
H         3.06610519       6.59365848      12.28134960         0.00000000       0.00000000       0.00000000          1
H         0.70102942       7.82794291      13.11036487         0.00000000       0.00000000       0.00000000          1
H         1.27111653      10.01930056      11.47413935         0.00000000       0.00000000       0.00000000          1
H         3.13961433       9.16635797      13.36767633         0.00000000       0.00000000       0.00000000          1
H         1.19759935       7.44659828      10.38781437         0.00000000       0.00000000       0.00000000          1
6
pbc=[F, F, F] list_num_par=6 frozen=false iter=20000 energy=-1.26974174 Lattice="15.00000000 0.00000000 0.00000000 0.00000000 15.00000000 0.00000000 0.00000000 0.00000000 15.00000000" energy_frozen_part=0.00000000 Properties=species:S:1:pos:R:3:velocities:R:3:Z:I:1
H         3.64924235       8.74578902      10.65085272         0.00000000       0.00000000       0.00000000          1
H         3.01398070       6.57469749      12.29008937         0.00000000       0.00000000       0.00000000          1
H         0.66641661       7.86279409      13.08636237         0.00000000       0.00000000       0.00000000          1
H         1.30168312      10.03388943      11.44712988         0.00000000       0.00000000       0.00000000          1
H         3.12986293       9.15028760      13.36579782         0.00000000       0.00000000       0.00000000          1
H         1.18579735       7.45829363      10.37141724         0.00000000       0.00000000       0.00000000          1
6
pbc=[F, F, F] list_num_par=6 frozen=false iter=20000 energy=-1.26974174 Lattice="15.00000000 0.00000000 0.00000000 0.00000000 15.00000000 0.00000000 0.00000000 0.00000000 15.00000000" energy_frozen_part=0.00000000 Properties=species:S:1:pos:R:3:velocities:R:3:Z:I:1
H         3.63048221       8.78418659      10.64356479         0.00000000       0.00000000       0.00000000          1
H         3.06638234       6.59464905      12.28428935         0.00000000       0.00000000       0.00000000          1
H         0.70173091       7.82753496      13.11658221         0.00000000       0.00000000       0.00000000          1
H         1.26583575      10.01708063      11.47586249         0.00000000       0.00000000       0.00000000          1
H         3.13938314       9.16904223      13.36661314         0.00000000       0.00000000       0.00000000          1
H         1.19283568       7.44268556      10.39353668         0.00000000       0.00000000       0.00000000          1
6
pbc=[F, F, F] list_num_par=6 frozen=false iter=20000 energy=-1.26974174 Lattice="15.00000000 0.00000000 0.00000000 0.00000000 15.00000000 0.00000000 0.00000000 0.00000000 15.00000000" energy_frozen_part=0.00000000 Properties=species:S:1:pos:R:3:velocities:R:3:Z:I:1
H         3.64958997       8.75272761      10.64543361         0.00000000       0.00000000       0.00000000          1
H         3.02190524       6.57680564      12.28117206         0.00000000       0.00000000       0.00000000          1
H         0.66797785       7.85378102      13.07657373         0.00000000       0.00000000       0.00000000          1
H         1.29565850      10.02970377      11.44082744         0.00000000       0.00000000       0.00000000          1
H         3.12556143       9.15148675      13.36032680         0.00000000       0.00000000       0.00000000          1
H         1.19199935       7.45502310      10.36167471         0.00000000       0.00000000       0.00000000          1
6
pbc=[F, F, F] list_num_par=6 frozen=false iter=20000 energy=-1.26974174 Lattice="15.00000000 0.00000000 0.00000000 0.00000000 15.00000000 0.00000000 0.00000000 0.00000000 15.00000000" energy_frozen_part=0.00000000 Properties=species:S:1:pos:R:3:velocities:R:3:Z:I:1
H         3.63621497       8.78486957      10.64502143         0.00000000       0.00000000       0.00000000          1
H         3.06611468       6.59365581      12.28143612         0.00000000       0.00000000       0.00000000          1
H         0.70106313       7.82803046      13.11036743         0.00000000       0.00000000       0.00000000          1
H         1.27116575      10.01925159      11.47396064         0.00000000       0.00000000       0.00000000          1
H         3.13967105       9.16644400      13.36754803         0.00000000       0.00000000       0.00000000          1
H         1.19760042       7.44646620      10.38784380         0.00000000       0.00000000       0.00000000          1
6
pbc=[F, F, F] list_num_par=6 frozen=false iter=20000 energy=-1.26974174 Lattice="15.00000000 0.00000000 0.00000000 0.00000000 15.00000000 0.00000000 0.00000000 0.00000000 15.00000000" energy_frozen_part=0.00000000 Properties=species:S:1:pos:R:3:velocities:R:3:Z:I:1
H         3.63046564       8.78419120      10.64353794         0.00000000       0.00000000       0.00000000          1
H         3.06645179       6.59471460      12.28437762         0.00000000       0.00000000       0.00000000          1
H         0.70182786       7.82762414      13.11672107         0.00000000       0.00000000       0.00000000          1
H         1.26584822      10.01709455      11.47587802         0.00000000       0.00000000       0.00000000          1
H         3.13947671       9.16915787      13.36659092         0.00000000       0.00000000       0.00000000          1
H         1.19281463       7.44265445      10.39366763         0.00000000       0.00000000       0.00000000          1
6
pbc=[F, F, F] list_num_par=6 frozen=false iter=20000 energy=-1.26974174 Lattice="15.00000000 0.00000000 0.00000000 0.00000000 15.00000000 0.00000000 0.00000000 0.00000000 15.00000000" energy_frozen_part=0.00000000 Properties=species:S:1:pos:R:3:velocities:R:3:Z:I:1
H         3.64326809       8.76693867      10.63754956         0.00000000       0.00000000       0.00000000          1
H         3.02906109       6.58716893      12.27329263         0.00000000       0.00000000       0.00000000          1
H         0.67609228       7.85730227      13.08234292         0.00000000       0.00000000       0.00000000          1
H         1.29029685      10.03707441      11.44660681         0.00000000       0.00000000       0.00000000          1
H         3.13194323       9.16054290      13.35561878         0.00000000       0.00000000       0.00000000          1
H         1.18742738       7.46369564      10.36427412         0.00000000       0.00000000       0.00000000          1
6
pbc=[F, F, F] list_num_par=6 frozen=false iter=20000 energy=-1.26974174 Lattice="15.00000000 0.00000000 0.00000000 0.00000000 15.00000000 0.00000000 0.00000000 0.00000000 15.00000000" energy_frozen_part=0.00000000 Properties=species:S:1:pos:R:3:velocities:R:3:Z:I:1
H         3.64331619       8.76699980      10.63759839         0.00000000       0.00000000       0.00000000          1
H         3.02906243       6.58717963      12.27325419         0.00000000       0.00000000       0.00000000          1
H         0.67609498       7.85731538      13.08232451         0.00000000       0.00000000       0.00000000          1
H         1.29035485      10.03714047      11.44667731         0.00000000       0.00000000       0.00000000          1
H         3.13196132       9.16051038      13.35567873         0.00000000       0.00000000       0.00000000          1
H         1.18745512       7.46380257      10.36425225         0.00000000       0.00000000       0.00000000          1
6
pbc=[F, F, F] list_num_par=6 frozen=false iter=20000 energy=-1.26974174 Lattice="15.00000000 0.00000000 0.00000000 0.00000000 15.00000000 0.00000000 0.00000000 0.00000000 15.00000000" energy_frozen_part=0.00000000 Properties=species:S:1:pos:R:3:velocities:R:3:Z:I:1
H         3.63047014       8.78420013      10.64354360         0.00000000       0.00000000       0.00000000          1
H         3.06640866       6.59463711      12.28425941         0.00000000       0.00000000       0.00000000          1
H         0.70177532       7.82750699      13.11660757         0.00000000       0.00000000       0.00000000          1
H         1.26583674      10.01706993      11.47589088         0.00000000       0.00000000       0.00000000          1
H         3.13941573       9.16903031      13.36660799         0.00000000       0.00000000       0.00000000          1
H         1.19282740       7.44267808      10.39354874         0.00000000       0.00000000       0.00000000          1
6
pbc=[F, F, F] list_num_par=6 frozen=false iter=20000 energy=-1.26974174 Lattice="15.00000000 0.00000000 0.00000000 0.00000000 15.00000000 0.00000000 0.00000000 0.00000000 15.00000000" energy_frozen_part=0.00000000 Properties=species:S:1:pos:R:3:velocities:R:3:Z:I:1
H         3.63622133       8.78498868      10.64512151         0.00000000       0.00000000       0.00000000          1
H         3.06611537       6.59365088      12.28136177         0.00000000       0.00000000       0.00000000          1
H         0.70105639       7.82795740      13.11036099         0.00000000       0.00000000       0.00000000          1
H         1.27115828      10.01930167      11.47412717         0.00000000       0.00000000       0.00000000          1
H         3.13965452       9.16635964      13.36766839         0.00000000       0.00000000       0.00000000          1
H         1.19762101       7.44659307      10.38781399         0.00000000       0.00000000       0.00000000          1
6
pbc=[F, F, F] list_num_par=6 frozen=false iter=20000 energy=-1.26974174 Lattice="15.00000000 0.00000000 0.00000000 0.00000000 15.00000000 0.00000000 0.00000000 0.00000000 15.00000000" energy_frozen_part=0.00000000 Properties=species:S:1:pos:R:3:velocities:R:3:Z:I:1
H         3.63621492       8.78487533      10.64501442         0.00000000       0.00000000       0.00000000          1
H         3.06611343       6.59365034      12.28141566         0.00000000       0.00000000       0.00000000          1
H         0.70107441       7.82803962      13.11036317         0.00000000       0.00000000       0.00000000          1
H         1.27117532      10.01925628      11.47395708         0.00000000       0.00000000       0.00000000          1
H         3.13968451       9.16643448      13.36754321         0.00000000       0.00000000       0.00000000          1
H         1.19760696       7.44647114      10.38783782         0.00000000       0.00000000       0.00000000          1
6
pbc=[F, F, F] list_num_par=6 frozen=false iter=20000 energy=-1.26974174 Lattice="15.00000000 0.00000000 0.00000000 0.00000000 15.00000000 0.00000000 0.00000000 0.00000000 15.00000000" energy_frozen_part=0.00000000 Properties=species:S:1:pos:R:3:velocities:R:3:Z:I:1
H         3.63618898       8.78499094      10.64510266         0.00000000       0.00000000       0.00000000          1
H         3.06614097       6.59363665      12.28133881         0.00000000       0.00000000       0.00000000          1
H         0.70103367       7.82786495      13.11032969         0.00000000       0.00000000       0.00000000          1
H         1.27108230      10.01921795      11.47409174         0.00000000       0.00000000       0.00000000          1
H         3.13958875       9.16633959      13.36764808         0.00000000       0.00000000       0.00000000          1
H         1.19763263       7.44651045      10.38778167         0.00000000       0.00000000       0.00000000          1
6
pbc=[F, F, F] list_num_par=6 frozen=false iter=20000 energy=-1.26974174 Lattice="15.00000000 0.00000000 0.00000000 0.00000000 15.00000000 0.00000000 0.00000000 0.00000000 15.00000000" energy_frozen_part=0.00000000 Properties=species:S:1:pos:R:3:velocities:R:3:Z:I:1
H         3.63045332       8.78415251      10.64356964         0.00000000       0.00000000       0.00000000          1
H         3.06634062       6.59460029      12.28428635         0.00000000       0.00000000       0.00000000          1
H         0.70168992       7.82749775      13.11656643         0.00000000       0.00000000       0.00000000          1
H         1.26581169      10.01704562      11.47585828         0.00000000       0.00000000       0.00000000          1
H         3.13933979       9.16899671      13.36662053         0.00000000       0.00000000       0.00000000          1
H         1.19280735       7.44264749      10.39352150         0.00000000       0.00000000       0.00000000          1
6
pbc=[F, F, F] list_num_par=6 frozen=false iter=20000 energy=-1.26974174 Lattice="15.00000000 0.00000000 0.00000000 0.00000000 15.00000000 0.00000000 0.00000000 0.00000000 15.00000000" energy_frozen_part=0.00000000 Properties=species:S:1:pos:R:3:velocities:R:3:Z:I:1
H         3.64958783       8.75276380      10.64543374         0.00000000       0.00000000       0.00000000          1
H         3.02190034       6.57682180      12.28115071         0.00000000       0.00000000       0.00000000          1
H         0.66796817       7.85378833      13.07654762         0.00000000       0.00000000       0.00000000          1
H         1.29565685      10.02972693      11.44082724         0.00000000       0.00000000       0.00000000          1
H         3.12554864       9.15149020      13.36033628         0.00000000       0.00000000       0.00000000          1
H         1.19200347       7.45505872      10.36164699         0.00000000       0.00000000       0.00000000          1
6
pbc=[F, F, F] list_num_par=6 frozen=false iter=20000 energy=-1.26974174 Lattice="15.00000000 0.00000000 0.00000000 0.00000000 15.00000000 0.00000000 0.00000000 0.00000000 15.00000000" energy_frozen_part=0.00000000 Properties=species:S:1:pos:R:3:velocities:R:3:Z:I:1
H         3.63619073       8.78499840      10.64511359         0.00000000       0.00000000       0.00000000          1
H         3.06614849       6.59363716      12.28134693         0.00000000       0.00000000       0.00000000          1
H         0.70103114       7.82785247      13.11031814         0.00000000       0.00000000       0.00000000          1
H         1.27107581      10.01921766      11.47409663         0.00000000       0.00000000       0.00000000          1
H         3.13957881       9.16634167      13.36765588         0.00000000       0.00000000       0.00000000          1
H         1.19764530       7.44650991      10.38777710         0.00000000       0.00000000       0.00000000          1
6
pbc=[F, F, F] list_num_par=6 frozen=false iter=20000 energy=-1.26974174 Lattice="15.00000000 0.00000000 0.00000000 0.00000000 15.00000000 0.00000000 0.00000000 0.00000000 15.00000000" energy_frozen_part=0.00000000 Properties=species:S:1:pos:R:3:velocities:R:3:Z:I:1
H         3.63620742       8.78490853      10.64501826         0.00000000       0.00000000       0.00000000          1
H         3.06612147       6.59366373      12.28139184         0.00000000       0.00000000       0.00000000          1
H         0.70107764       7.82802398      13.11036823         0.00000000       0.00000000       0.00000000          1
H         1.27115716      10.01927212      11.47399734         0.00000000       0.00000000       0.00000000          1
H         3.13968651       9.16642955      13.36755387         0.00000000       0.00000000       0.00000000          1
H         1.19759270       7.44650864      10.38783515         0.00000000       0.00000000       0.00000000          1
6
pbc=[F, F, F] list_num_par=6 frozen=false iter=20000 energy=-1.26974174 Lattice="15.00000000 0.00000000 0.00000000 0.00000000 15.00000000 0.00000000 0.00000000 0.00000000 15.00000000" energy_frozen_part=0.00000000 Properties=species:S:1:pos:R:3:velocities:R:3:Z:I:1
H         3.63619137       8.78501181      10.64512817         0.00000000       0.00000000       0.00000000          1
H         3.06609388       6.59365694      12.28136190         0.00000000       0.00000000       0.00000000          1
H         0.70102911       7.82794856      13.11036906         0.00000000       0.00000000       0.00000000          1
H         1.27112149      10.01930254      11.47414656         0.00000000       0.00000000       0.00000000          1
H         3.13961976       9.16635599      13.36767847         0.00000000       0.00000000       0.00000000          1
H         1.19759861       7.44660407      10.38782221         0.00000000       0.00000000       0.00000000          1
6
pbc=[F, F, F] list_num_par=6 frozen=false iter=20000 energy=-1.26974174 Lattice="15.00000000 0.00000000 0.00000000 0.00000000 15.00000000 0.00000000 0.00000000 0.00000000 15.00000000" energy_frozen_part=0.00000000 Properties=species:S:1:pos:R:3:velocities:R:3:Z:I:1
H         3.64958459       8.75276669      10.64542534         0.00000000       0.00000000       0.00000000          1
H         3.02189175       6.57683309      12.28115699         0.00000000       0.00000000       0.00000000          1
H         0.66795484       7.85378855      13.07653844         0.00000000       0.00000000       0.00000000          1
H         1.29564914      10.02972161      11.44081491         0.00000000       0.00000000       0.00000000          1
H         3.12553534       9.15150586      13.36032737         0.00000000       0.00000000       0.00000000          1
H         1.19200997       7.45505039      10.36163872         0.00000000       0.00000000       0.00000000          1
6
pbc=[F, F, F] list_num_par=6 frozen=false iter=20000 energy=-1.26974174 Lattice="15.00000000 0.00000000 0.00000000 0.00000000 15.00000000 0.00000000 0.00000000 0.00000000 15.00000000" energy_frozen_part=0.00000000 Properties=species:S:1:pos:R:3:velocities:R:3:Z:I:1
H         3.63617606       8.78499990      10.64511877         0.00000000       0.00000000       0.00000000          1
H         3.06614850       6.59363023      12.28134468         0.00000000       0.00000000       0.00000000          1
H         0.70103070       7.82784204      13.11034406         0.00000000       0.00000000       0.00000000          1
H         1.27106156      10.01921869      11.47412002         0.00000000       0.00000000       0.00000000          1
H         3.13957702       9.16633475      13.36766560         0.00000000       0.00000000       0.00000000          1
H         1.19762235       7.44651365      10.38780094         0.00000000       0.00000000       0.00000000          1
6
pbc=[F, F, F] list_num_par=6 frozen=false iter=20000 energy=-1.26974174 Lattice="15.00000000 0.00000000 0.00000000 0.00000000 15.00000000 0.00000000 0.00000000 0.00000000 15.00000000" energy_frozen_part=0.00000000 Properties=species:S:1:pos:R:3:velocities:R:3:Z:I:1
H         3.64958662       8.75273114      10.64544124         0.00000000       0.00000000       0.00000000          1
H         3.02189705       6.57680592      12.28118100         0.00000000       0.00000000       0.00000000          1
H         0.66797046       7.85378344      13.07657598         0.00000000       0.00000000       0.00000000          1
H         1.29566244      10.02970756      11.44084353         0.00000000       0.00000000       0.00000000          1
H         3.12555984       9.15147681      13.36033697         0.00000000       0.00000000       0.00000000          1
H         1.19200028       7.45502967      10.36168014         0.00000000       0.00000000       0.00000000          1
6
pbc=[F, F, F] list_num_par=6 frozen=false iter=20000 energy=-1.26974174 Lattice="15.00000000 0.00000000 0.00000000 0.00000000 15.00000000 0.00000000 0.00000000 0.00000000 15.00000000" energy_frozen_part=0.00000000 Properties=species:S:1:pos:R:3:velocities:R:3:Z:I:1
H         3.63615453       8.78491626      10.64510487         0.00000000       0.00000000       0.00000000          1
H         3.06609403       6.59368165      12.28150402         0.00000000       0.00000000       0.00000000          1
H         0.70106174       7.82805426      13.11051731         0.00000000       0.00000000       0.00000000          1
H         1.27112352      10.01928611      11.47411078         0.00000000       0.00000000       0.00000000          1
H         3.13968031       9.16645591      13.36764167         0.00000000       0.00000000       0.00000000          1
H         1.19753589       7.44650791      10.38797455         0.00000000       0.00000000       0.00000000          1
6
pbc=[F, F, F] list_num_par=6 frozen=false iter=20000 energy=-1.26974174 Lattice="15.00000000 0.00000000 0.00000000 0.00000000 15.00000000 0.00000000 0.00000000 0.00000000 15.00000000" energy_frozen_part=0.00000000 Properties=species:S:1:pos:R:3:velocities:R:3:Z:I:1
H         3.64332228       8.76698490      10.63760409         0.00000000       0.00000000       0.00000000          1
H         3.02905721       6.58715986      12.27325329         0.00000000       0.00000000       0.00000000          1
H         0.67610316       7.85731631      13.08232769         0.00000000       0.00000000       0.00000000          1
H         1.29036849      10.03713474      11.44667598         0.00000000       0.00000000       0.00000000          1
H         3.13196727       9.16049100      13.35567875         0.00000000       0.00000000       0.00000000          1
H         1.18745848       7.46380372      10.36425109         0.00000000       0.00000000       0.00000000          1
6
pbc=[F, F, F] list_num_par=6 frozen=false iter=20000 energy=-1.26974174 Lattice="15.00000000 0.00000000 0.00000000 0.00000000 15.00000000 0.00000000 0.00000000 0.00000000 15.00000000" energy_frozen_part=0.00000000 Properties=species:S:1:pos:R:3:velocities:R:3:Z:I:1
H         3.65156587       8.75851573      10.64639265         0.00000000       0.00000000       0.00000000          1
H         3.03801659       6.58103117      12.28540826         0.00000000       0.00000000       0.00000000          1
H         0.67941913       7.84705711      13.08445949         0.00000000       0.00000000       0.00000000          1
H         1.29296927      10.02454833      11.44544700         0.00000000       0.00000000       0.00000000          1
H         3.13111995       9.15718364      13.36199724         0.00000000       0.00000000       0.00000000          1
H         1.19986809       7.44839146      10.36885977         0.00000000       0.00000000       0.00000000          1
6
pbc=[F, F, F] list_num_par=6 frozen=false iter=20000 energy=-1.26974174 Lattice="15.00000000 0.00000000 0.00000000 0.00000000 15.00000000 0.00000000 0.00000000 0.00000000 15.00000000" energy_frozen_part=0.00000000 Properties=species:S:1:pos:R:3:velocities:R:3:Z:I:1
H         3.63619377       8.78500975      10.64512413         0.00000000       0.00000000       0.00000000          1
H         3.06609719       6.59365620      12.28134899         0.00000000       0.00000000       0.00000000          1
H         0.70103729       7.82795210      13.11038027         0.00000000       0.00000000       0.00000000          1
H         1.27112826      10.01930447      11.47414928         0.00000000       0.00000000       0.00000000          1
H         3.13963247       9.16635127      13.36767451         0.00000000       0.00000000       0.00000000          1
H         1.19759203       7.44661078      10.38782132         0.00000000       0.00000000       0.00000000          1
6
pbc=[F, F, F] list_num_par=6 frozen=false iter=20000 energy=-1.26974174 Lattice="15.00000000 0.00000000 0.00000000 0.00000000 15.00000000 0.00000000 0.00000000 0.00000000 15.00000000" energy_frozen_part=0.00000000 Properties=species:S:1:pos:R:3:velocities:R:3:Z:I:1
H         3.64958081       8.75276442      10.64542110         0.00000000       0.00000000       0.00000000          1
H         3.02191655       6.57682218      12.28114965         0.00000000       0.00000000       0.00000000          1
H         0.66798269       7.85377579      13.07657040         0.00000000       0.00000000       0.00000000          1
H         1.29565129      10.02971690      11.44083744         0.00000000       0.00000000       0.00000000          1
H         3.12556738       9.15149075      13.36032437         0.00000000       0.00000000       0.00000000          1
H         1.19200287       7.45504607      10.36166338         0.00000000       0.00000000       0.00000000          1
6
pbc=[F, F, F] list_num_par=6 frozen=false iter=20000 energy=-1.26974174 Lattice="15.00000000 0.00000000 0.00000000 0.00000000 15.00000000 0.00000000 0.00000000 0.00000000 15.00000000" energy_frozen_part=0.00000000 Properties=species:S:1:pos:R:3:velocities:R:3:Z:I:1
H         3.64332219       8.76699639      10.63761005         0.00000000       0.00000000       0.00000000          1
H         3.02906879       6.58716999      12.27325390         0.00000000       0.00000000       0.00000000          1
H         0.67610245       7.85731144      13.08232463         0.00000000       0.00000000       0.00000000          1
H         1.29036703      10.03713749      11.44668574         0.00000000       0.00000000       0.00000000          1
H         3.13196867       9.16050037      13.35568983         0.00000000       0.00000000       0.00000000          1
H         1.18746234       7.46380721      10.36424920         0.00000000       0.00000000       0.00000000          1
6
pbc=[F, F, F] list_num_par=6 frozen=false iter=20000 energy=-1.26974174 Lattice="15.00000000 0.00000000 0.00000000 0.00000000 15.00000000 0.00000000 0.00000000 0.00000000 15.00000000" energy_frozen_part=0.00000000 Properties=species:S:1:pos:R:3:velocities:R:3:Z:I:1
H         3.63618426       8.78500710      10.64511756         0.00000000       0.00000000       0.00000000          1
H         3.06615050       6.59364426      12.28135410         0.00000000       0.00000000       0.00000000          1
H         0.70103305       7.82786333      13.11034483         0.00000000       0.00000000       0.00000000          1
H         1.27107018      10.01923073      11.47411347         0.00000000       0.00000000       0.00000000          1
H         3.13958640       9.16635179      13.36766131         0.00000000       0.00000000       0.00000000          1
H         1.19763723       7.44651954      10.38780133         0.00000000       0.00000000       0.00000000          1
6
pbc=[F, F, F] list_num_par=6 frozen=false iter=20000 energy=-1.26974174 Lattice="15.00000000 0.00000000 0.00000000 0.00000000 15.00000000 0.00000000 0.00000000 0.00000000 15.00000000" energy_frozen_part=0.00000000 Properties=species:S:1:pos:R:3:velocities:R:3:Z:I:1
H         3.65232069       8.75948585      10.64634470         0.00000000       0.00000000       0.00000000          1
H         3.03914518       6.58195959      12.28545615         0.00000000       0.00000000       0.00000000          1
H         0.68048785       7.84776130      13.08468215         0.00000000       0.00000000       0.00000000          1
H         1.29366671      10.02528599      11.44557159         0.00000000       0.00000000       0.00000000          1
H         3.13206950       9.15814894      13.36198129         0.00000000       0.00000000       0.00000000          1
H         1.20073732       7.44909569      10.36904840         0.00000000       0.00000000       0.00000000          1
6
pbc=[F, F, F] list_num_par=6 frozen=false iter=20000 energy=-1.26974174 Lattice="15.00000000 0.00000000 0.00000000 0.00000000 15.00000000 0.00000000 0.00000000 0.00000000 15.00000000" energy_frozen_part=0.00000000 Properties=species:S:1:pos:R:3:velocities:R:3:Z:I:1
H         3.64961248       8.75275461      10.64543944         0.00000000       0.00000000       0.00000000          1
H         3.02192663       6.57682677      12.28117501         0.00000000       0.00000000       0.00000000          1
H         0.66799049       7.85379888      13.07655459         0.00000000       0.00000000       0.00000000          1
H         1.29568025      10.02972818      11.44081995         0.00000000       0.00000000       0.00000000          1
H         3.12556766       9.15150590      13.36033295         0.00000000       0.00000000       0.00000000          1
H         1.19203232       7.45504260      10.36166414         0.00000000       0.00000000       0.00000000          1
