6
pbc=[F, F, F] list_num_par=6 frozen=false iter=20000 energy=-1.26974174 Lattice="15.00000000 0.00000000 0.00000000 0.00000000 15.00000000 0.00000000 0.00000000 0.00000000 15.00000000" energy_frozen_part=0.00000000 Properties=species:S:1:pos:R:3:velocities:R:3:Z:I:1
H         9.36333694       7.91108293       3.07960688         0.00000000       0.00000000       0.00000000          1
H        11.24308736       8.69119667       1.16591263         0.00000000       0.00000000       0.00000000          1
H        10.66279092       5.98301541       1.53097582         0.00000000       0.00000000       0.00000000          1
H        13.13576454       7.00258444       2.33666242         0.00000000       0.00000000       0.00000000          1
H        11.25600761       6.22246775       4.25035752         0.00000000       0.00000000       0.00000000          1
H        11.83631231       8.93065524       3.88529769         0.00000000       0.00000000       0.00000000          1
6
pbc=[F, F, F] list_num_par=6 frozen=false iter=20000 energy=-1.26974174 Lattice="15.00000000 0.00000000 0.00000000 0.00000000 15.00000000 0.00000000 0.00000000 0.00000000 15.00000000" energy_frozen_part=0.00000000 Properties=species:S:1:pos:R:3:velocities:R:3:Z:I:1
H         9.36337326       7.91127433       3.07933712         0.00000000       0.00000000       0.00000000          1
H        11.24323619       8.69116475       1.16565762         0.00000000       0.00000000       0.00000000          1
H        10.66258968       5.98305628       1.53069765         0.00000000       0.00000000       0.00000000          1
H        13.13569060       7.00230752       2.33640818         0.00000000       0.00000000       0.00000000          1
H        11.25583094       6.22241192       4.25008442         0.00000000       0.00000000       0.00000000          1
H        11.83647074       8.93053297       3.88504719         0.00000000       0.00000000       0.00000000          1
6
pbc=[F, F, F] list_num_par=6 frozen=false iter=20000 energy=-1.26974174 Lattice="15.00000000 0.00000000 0.00000000 0.00000000 15.00000000 0.00000000 0.00000000 0.00000000 15.00000000" energy_frozen_part=0.00000000 Properties=species:S:1:pos:R:3:velocities:R:3:Z:I:1
H        12.48220419       5.85365852       2.84242004         0.00000000       0.00000000       0.00000000          1
H        10.22659957       7.12045024       1.78801432         0.00000000       0.00000000       0.00000000          1
H        12.77622209       7.84616434       0.90650550         0.00000000       0.00000000       0.00000000          1
H        13.54871097       8.33805056       3.54575051         0.00000000       0.00000000       0.00000000          1
H        11.29310962       9.60483931       2.49133549         0.00000000       0.00000000       0.00000000          1
H        10.99908428       7.61234156       4.42725439         0.00000000       0.00000000       0.00000000          1
6
pbc=[F, F, F] list_num_par=6 frozen=false iter=20000 energy=-1.26974174 Lattice="15.00000000 0.00000000 0.00000000 0.00000000 15.00000000 0.00000000 0.00000000 0.00000000 15.00000000" energy_frozen_part=0.00000000 Properties=species:S:1:pos:R:3:velocities:R:3:Z:I:1
H         9.36337718       7.91121995       3.07931366         0.00000000       0.00000000       0.00000000          1
H        11.24326448       8.69114964       1.16566662         0.00000000       0.00000000       0.00000000          1
H        10.66264945       5.98302498       1.53068546         0.00000000       0.00000000       0.00000000          1
H        13.13572323       7.00230373       2.33644347         0.00000000       0.00000000       0.00000000          1
H        11.25582973       6.22237389       4.25008190         0.00000000       0.00000000       0.00000000          1
H        11.83645455       8.93049999       3.88506401         0.00000000       0.00000000       0.00000000          1
6
pbc=[F, F, F] list_num_par=6 frozen=false iter=20000 energy=-1.26974174 Lattice="15.00000000 0.00000000 0.00000000 0.00000000 15.00000000 0.00000000 0.00000000 0.00000000 15.00000000" energy_frozen_part=0.00000000 Properties=species:S:1:pos:R:3:velocities:R:3:Z:I:1
H        12.48221081       5.85365892       2.84242245         0.00000000       0.00000000       0.00000000          1
H        10.22659884       7.12043954       1.78801993         0.00000000       0.00000000       0.00000000          1
H        12.77621148       7.84615815       0.90650318         0.00000000       0.00000000       0.00000000          1
H        13.54871147       8.33805750       3.54573756         0.00000000       0.00000000       0.00000000          1
H        11.29309770       9.60483461       2.49132851         0.00000000       0.00000000       0.00000000          1
H        10.99909748       7.61234319       4.42725744         0.00000000       0.00000000       0.00000000          1
6
pbc=[F, F, F] list_num_par=6 frozen=false iter=20000 energy=-1.26974174 Lattice="15.00000000 0.00000000 0.00000000 0.00000000 15.00000000 0.00000000 0.00000000 0.00000000 15.00000000" energy_frozen_part=0.00000000 Properties=species:S:1:pos:R:3:velocities:R:3:Z:I:1
H         9.36341532       7.91176382       3.08038332         0.00000000       0.00000000       0.00000000          1
H        11.24320703       8.69177085       1.16668672         0.00000000       0.00000000       0.00000000          1
H        10.66209177       5.98367920       1.53111601         0.00000000       0.00000000       0.00000000          1
H        13.13547481       7.00226746       2.33680624         0.00000000       0.00000000       0.00000000          1
H        11.25567283       6.22224909       4.25049577         0.00000000       0.00000000       0.00000000          1
H        11.83679594       8.93034794       3.88606996         0.00000000       0.00000000       0.00000000          1
6
pbc=[F, F, F] list_num_par=6 frozen=false iter=20000 energy=-1.26974174 Lattice="15.00000000 0.00000000 0.00000000 0.00000000 15.00000000 0.00000000 0.00000000 0.00000000 15.00000000" energy_frozen_part=0.00000000 Properties=species:S:1:pos:R:3:velocities:R:3:Z:I:1
H         9.36339920       7.91122990       3.07925977         0.00000000       0.00000000       0.00000000          1
H        11.24332365       8.69110414       1.16563305         0.00000000       0.00000000       0.00000000          1
H        10.66269200       5.98299147       1.53070974         0.00000000       0.00000000       0.00000000          1
H        13.13575528       7.00229066       2.33648179         0.00000000       0.00000000       0.00000000          1
H        11.25583445       6.22240597       4.25010794         0.00000000       0.00000000       0.00000000          1
H        11.83645516       8.93052291       3.88503879         0.00000000       0.00000000       0.00000000          1
6
pbc=[F, F, F] list_num_par=6 frozen=false iter=20000 energy=-1.26974174 Lattice="15.00000000 0.00000000 0.00000000 0.00000000 15.00000000 0.00000000 0.00000000 0.00000000 15.00000000" energy_frozen_part=0.00000000 Properties=species:S:1:pos:R:3:velocities:R:3:Z:I:1
H        12.48219253       5.85366749       2.84239529         0.00000000       0.00000000       0.00000000          1
H        10.22659055       7.12046638       1.78799931         0.00000000       0.00000000       0.00000000          1
H        12.77622317       7.84618812       0.90650511         0.00000000       0.00000000       0.00000000          1
H        13.54870205       8.33804551       3.54575204         0.00000000       0.00000000       0.00000000          1
H        11.29309958       9.60484802       2.49135362         0.00000000       0.00000000       0.00000000          1
H        10.99907960       7.61232709       4.42724930         0.00000000       0.00000000       0.00000000          1
6
pbc=[F, F, F] list_num_par=6 frozen=false iter=20000 energy=-1.26974174 Lattice="15.00000000 0.00000000 0.00000000 0.00000000 15.00000000 0.00000000 0.00000000 0.00000000 15.00000000" energy_frozen_part=0.00000000 Properties=species:S:1:pos:R:3:velocities:R:3:Z:I:1
H        12.47823717       5.85075970       2.84278715         0.00000000       0.00000000       0.00000000          1
H        10.22337445       7.12095762       1.79090460         0.00000000       0.00000000       0.00000000          1
H        12.77325015       7.84476173       0.90856541         0.00000000       0.00000000       0.00000000          1
H        13.54781970       8.33334902       3.54781557         0.00000000       0.00000000       0.00000000          1
H        11.29295734       9.60354044       2.49592114         0.00000000       0.00000000       0.00000000          1
H        10.99794435       7.60954218       4.43014737         0.00000000       0.00000000       0.00000000          1
6
pbc=[F, F, F] list_num_par=6 frozen=false iter=20000 energy=-1.26974174 Lattice="15.00000000 0.00000000 0.00000000 0.00000000 15.00000000 0.00000000 0.00000000 0.00000000 15.00000000" energy_frozen_part=0.00000000 Properties=species:S:1:pos:R:3:velocities:R:3:Z:I:1
H        12.48225166       5.85369942       2.84242620         0.00000000       0.00000000       0.00000000          1
H        10.22661573       7.12043614       1.78802611         0.00000000       0.00000000       0.00000000          1
H        12.77621915       7.84618269       0.90648111         0.00000000       0.00000000       0.00000000          1
H        13.54871997       8.33810956       3.54571382         0.00000000       0.00000000       0.00000000          1
H        11.29309415       9.60485308       2.49131199         0.00000000       0.00000000       0.00000000          1
H        10.99911514       7.61236896       4.42725412         0.00000000       0.00000000       0.00000000          1
6
pbc=[F, F, F] list_num_par=6 frozen=false iter=20000 energy=-1.26974174 Lattice="15.00000000 0.00000000 0.00000000 0.00000000 15.00000000 0.00000000 0.00000000 0.00000000 15.00000000" energy_frozen_part=0.00000000 Properties=species:S:1:pos:R:3:velocities:R:3:Z:I:1
H         9.36358494       7.91106133       3.08003984         0.00000000       0.00000000       0.00000000          1
H        11.24355607       8.69162847       1.16673031         0.00000000       0.00000000       0.00000000          1
H        10.66278584       5.98339443       1.53069811         0.00000000       0.00000000       0.00000000          1
H        13.13590231       7.00223631       2.33688765         0.00000000       0.00000000       0.00000000          1
H        11.25594064       6.22166980       4.25019322         0.00000000       0.00000000       0.00000000          1
H        11.83670242       8.92990490       3.88623138         0.00000000       0.00000000       0.00000000          1
6
pbc=[F, F, F] list_num_par=6 frozen=false iter=20000 energy=-1.26974174 Lattice="15.00000000 0.00000000 0.00000000 0.00000000 15.00000000 0.00000000 0.00000000 0.00000000 15.00000000" energy_frozen_part=0.00000000 Properties=species:S:1:pos:R:3:velocities:R:3:Z:I:1
H        12.48185187       5.85381388       2.84234742         0.00000000       0.00000000       0.00000000          1
H        10.22653110       7.12092225       1.78771495         0.00000000       0.00000000       0.00000000          1
H        12.77634726       7.84627551       0.90647115         0.00000000       0.00000000       0.00000000          1
H        13.54864137       8.33804580       3.54579336         0.00000000       0.00000000       0.00000000          1
H        11.29332094       9.60515512       2.49115714         0.00000000       0.00000000       0.00000000          1
H        10.99882517       7.61269409       4.42703475         0.00000000       0.00000000       0.00000000          1
6
pbc=[F, F, F] list_num_par=6 frozen=false iter=20000 energy=-1.26974174 Lattice="15.00000000 0.00000000 0.00000000 0.00000000 15.00000000 0.00000000 0.00000000 0.00000000 15.00000000" energy_frozen_part=0.00000000 Properties=species:S:1:pos:R:3:velocities:R:3:Z:I:1
H         9.36337241       7.91126889       3.07935564         0.00000000       0.00000000       0.00000000          1
H        11.24323610       8.69114916       1.16566477         0.00000000       0.00000000       0.00000000          1
H        10.66259104       5.98304045       1.53072947         0.00000000       0.00000000       0.00000000          1
H        13.13569632       7.00230759       2.33642633         0.00000000       0.00000000       0.00000000          1
H        11.25583655       6.22241781       4.25010750         0.00000000       0.00000000       0.00000000          1
H        11.83647162       8.93053690       3.88505289         0.00000000       0.00000000       0.00000000          1
6
pbc=[F, F, F] list_num_par=6 frozen=false iter=20000 energy=-1.26974174 Lattice="15.00000000 0.00000000 0.00000000 0.00000000 15.00000000 0.00000000 0.00000000 0.00000000 15.00000000" energy_frozen_part=0.00000000 Properties=species:S:1:pos:R:3:velocities:R:3:Z:I:1
H         9.36336239       7.91122669       3.07931621         0.00000000       0.00000000       0.00000000          1
H        11.24324011       8.69114284       1.16566245         0.00000000       0.00000000       0.00000000          1
H        10.66261564       5.98302223       1.53068450         0.00000000       0.00000000       0.00000000          1
H        13.13570014       7.00230865       2.33642674         0.00000000       0.00000000       0.00000000          1
H        11.25582441       6.22238401       4.25007521         0.00000000       0.00000000       0.00000000          1
H        11.83644171       8.93050556       3.88505233         0.00000000       0.00000000       0.00000000          1
6
pbc=[F, F, F] list_num_par=6 frozen=false iter=20000 energy=-1.26974174 Lattice="15.00000000 0.00000000 0.00000000 0.00000000 15.00000000 0.00000000 0.00000000 0.00000000 15.00000000" energy_frozen_part=0.00000000 Properties=species:S:1:pos:R:3:velocities:R:3:Z:I:1
H         9.36333322       7.91108597       3.07962057         0.00000000       0.00000000       0.00000000          1
H        11.24308168       8.69118698       1.16591460         0.00000000       0.00000000       0.00000000          1
H        10.66276013       5.98301040       1.53098311         0.00000000       0.00000000       0.00000000          1
H        13.13575283       7.00256831       2.33664699         0.00000000       0.00000000       0.00000000          1
H        11.25601190       6.22246084       4.25036061         0.00000000       0.00000000       0.00000000          1
H        11.83632539       8.93064407       3.88528796         0.00000000       0.00000000       0.00000000          1
6
pbc=[F, F, F] list_num_par=6 frozen=false iter=20000 energy=-1.26974174 Lattice="15.00000000 0.00000000 0.00000000 0.00000000 15.00000000 0.00000000 0.00000000 0.00000000 15.00000000" energy_frozen_part=0.00000000 Properties=species:S:1:pos:R:3:velocities:R:3:Z:I:1
H         9.36359356       7.91105530       3.08002102         0.00000000       0.00000000       0.00000000          1
H        11.24356275       8.69162649       1.16672192         0.00000000       0.00000000       0.00000000          1
H        10.66279889       5.98338848       1.53067931         0.00000000       0.00000000       0.00000000          1
H        13.13591032       7.00223325       2.33688362         0.00000000       0.00000000       0.00000000          1
H        11.25593609       6.22166910       4.25018436         0.00000000       0.00000000       0.00000000          1
H        11.83670509       8.92989686       3.88621918         0.00000000       0.00000000       0.00000000          1
6
pbc=[F, F, F] list_num_par=6 frozen=false iter=20000 energy=-1.26974174 Lattice="15.00000000 0.00000000 0.00000000 0.00000000 15.00000000 0.00000000 0.00000000 0.00000000 15.00000000" energy_frozen_part=0.00000000 Properties=species:S:1:pos:R:3:velocities:R:3:Z:I:1
H        12.48226760       5.85364528       2.84241892         0.00000000       0.00000000       0.00000000          1
H        10.22667604       7.12042883       1.78798341         0.00000000       0.00000000       0.00000000          1
H        12.77630952       7.84617801       0.90654113         0.00000000       0.00000000       0.00000000          1
H        13.54873758       8.33803339       3.54580636         0.00000000       0.00000000       0.00000000          1
H        11.29314420       9.60482316       2.49136686         0.00000000       0.00000000       0.00000000          1
H        10.99909746       7.61228393       4.42724435         0.00000000       0.00000000       0.00000000          1
6
pbc=[F, F, F] list_num_par=6 frozen=false iter=20000 energy=-1.26974174 Lattice="15.00000000 0.00000000 0.00000000 0.00000000 15.00000000 0.00000000 0.00000000 0.00000000 15.00000000" energy_frozen_part=0.00000000 Properties=species:S:1:pos:R:3:velocities:R:3:Z:I:1
H        12.47824619       5.85077095       2.84279590         0.00000000       0.00000000       0.00000000          1
H        10.22336278       7.12094094       1.79090242         0.00000000       0.00000000       0.00000000          1
H        12.77323802       7.84476396       0.90855916         0.00000000       0.00000000       0.00000000          1
H        13.54780235       8.33337198       3.54780256         0.00000000       0.00000000       0.00000000          1
H        11.29292743       9.60353937       2.49591213         0.00000000       0.00000000       0.00000000          1
H        10.99793488       7.60954895       4.43014291         0.00000000       0.00000000       0.00000000          1
6
pbc=[F, F, F] list_num_par=6 frozen=false iter=20000 energy=-1.26974174 Lattice="15.00000000 0.00000000 0.00000000 0.00000000 15.00000000 0.00000000 0.00000000 0.00000000 15.00000000" energy_frozen_part=0.00000000 Properties=species:S:1:pos:R:3:velocities:R:3:Z:I:1
H        12.48218780       5.85366604       2.84241408         0.00000000       0.00000000       0.00000000          1
H        10.22657964       7.12045800       1.78801223         0.00000000       0.00000000       0.00000000          1
H        12.77620477       7.84616930       0.90650002         0.00000000       0.00000000       0.00000000          1
H        13.54869597       8.33805340       3.54574546         0.00000000       0.00000000       0.00000000          1
H        11.29309097       9.60484934       2.49133856         0.00000000       0.00000000       0.00000000          1
H        10.99906989       7.61234196       4.42725410         0.00000000       0.00000000       0.00000000          1
6
pbc=[F, F, F] list_num_par=6 frozen=false iter=20000 energy=-1.26974174 Lattice="15.00000000 0.00000000 0.00000000 0.00000000 15.00000000 0.00000000 0.00000000 0.00000000 15.00000000" energy_frozen_part=0.00000000 Properties=species:S:1:pos:R:3:velocities:R:3:Z:I:1
H        12.47823761       5.85077635       2.84278133         0.00000000       0.00000000       0.00000000          1
H        10.22337743       7.12096816       1.79088398         0.00000000       0.00000000       0.00000000          1
H        12.77325546       7.84478995       0.90856767         0.00000000       0.00000000       0.00000000          1
H        13.54780401       8.33336489       3.54782452         0.00000000       0.00000000       0.00000000          1
H        11.29293650       9.60355201       2.49592848         0.00000000       0.00000000       0.00000000          1
H        10.99792743       7.60954399       4.43013603         0.00000000       0.00000000       0.00000000          1
6
pbc=[F, F, F] list_num_par=6 frozen=false iter=20000 energy=-1.26974174 Lattice="15.00000000 0.00000000 0.00000000 0.00000000 15.00000000 0.00000000 0.00000000 0.00000000 15.00000000" energy_frozen_part=0.00000000 Properties=species:S:1:pos:R:3:velocities:R:3:Z:I:1
H         9.36360394       7.91105835       3.08003432         0.00000000       0.00000000       0.00000000          1
H        11.24356912       8.69161981       1.16673022         0.00000000       0.00000000       0.00000000          1
H        10.66280329       5.98338643       1.53069422         0.00000000       0.00000000       0.00000000          1
H        13.13591312       7.00223198       2.33689213         0.00000000       0.00000000       0.00000000          1
H        11.25594512       6.22166296       4.25019652         0.00000000       0.00000000       0.00000000          1
H        11.83671743       8.92990451       3.88623046         0.00000000       0.00000000       0.00000000          1
6
pbc=[F, F, F] list_num_par=6 frozen=false iter=20000 energy=-1.26974174 Lattice="15.00000000 0.00000000 0.00000000 0.00000000 15.00000000 0.00000000 0.00000000 0.00000000 15.00000000" energy_frozen_part=0.00000000 Properties=species:S:1:pos:R:3:velocities:R:3:Z:I:1
H        12.48221741       5.85368555       2.84242004         0.00000000       0.00000000       0.00000000          1
H        10.22660225       7.12045713       1.78800797         0.00000000       0.00000000       0.00000000          1
H        12.77621497       7.84617456       0.90648409         0.00000000       0.00000000       0.00000000          1
H        13.54870796       8.33808161       3.54572199         0.00000000       0.00000000       0.00000000          1
H        11.29309519       9.60485979       2.49130773         0.00000000       0.00000000       0.00000000          1
H        10.99909788       7.61237119       4.42724675         0.00000000       0.00000000       0.00000000          1
6
pbc=[F, F, F] list_num_par=6 frozen=false iter=20000 energy=-1.26974174 Lattice="15.00000000 0.00000000 0.00000000 0.00000000 15.00000000 0.00000000 0.00000000 0.00000000 15.00000000" energy_frozen_part=0.00000000 Properties=species:S:1:pos:R:3:velocities:R:3:Z:I:1
H        12.48222791       5.85369597       2.84244153         0.00000000       0.00000000       0.00000000          1
H        10.22661031       7.12044878       1.78801371         0.00000000       0.00000000       0.00000000          1
H        12.77621849       7.84616687       0.90648815         0.00000000       0.00000000       0.00000000          1
H        13.54871248       8.33810249       3.54571950         0.00000000       0.00000000       0.00000000          1
H        11.29309555       9.60485653       2.49130725         0.00000000       0.00000000       0.00000000          1
H        10.99909844       7.61238258       4.42725250         0.00000000       0.00000000       0.00000000          1
6
pbc=[F, F, F] list_num_par=6 frozen=false iter=20000 energy=-1.26974174 Lattice="15.00000000 0.00000000 0.00000000 0.00000000 15.00000000 0.00000000 0.00000000 0.00000000 15.00000000" energy_frozen_part=0.00000000 Properties=species:S:1:pos:R:3:velocities:R:3:Z:I:1
H        12.48226768       5.85365304       2.84241105         0.00000000       0.00000000       0.00000000          1
H        10.22668289       7.12046165       1.78798312         0.00000000       0.00000000       0.00000000          1
H        12.77631536       7.84619910       0.90654079         0.00000000       0.00000000       0.00000000          1
H        13.54875485       8.33803271       3.54580499         0.00000000       0.00000000       0.00000000          1
H        11.29317019       9.60484385       2.49137691         0.00000000       0.00000000       0.00000000          1
H        10.99911258       7.61230241       4.42724412         0.00000000       0.00000000       0.00000000          1
6
pbc=[F, F, F] list_num_par=6 frozen=false iter=20000 energy=-1.26974174 Lattice="15.00000000 0.00000000 0.00000000 0.00000000 15.00000000 0.00000000 0.00000000 0.00000000 15.00000000" energy_frozen_part=0.00000000 Properties=species:S:1:pos:R:3:velocities:R:3:Z:I:1
H        12.47824326       5.85077027       2.84280248         0.00000000       0.00000000       0.00000000          1
H        10.22337492       7.12094799       1.79089175         0.00000000       0.00000000       0.00000000          1
H        12.77325467       7.84475327       0.90856429         0.00000000       0.00000000       0.00000000          1
H        13.54781179       8.33336061       3.54781094         0.00000000       0.00000000       0.00000000          1
H        11.29294203       9.60353842       2.49590804         0.00000000       0.00000000       0.00000000          1
H        10.99792525       7.60954719       4.43013985         0.00000000       0.00000000       0.00000000          1
6
pbc=[F, F, F] list_num_par=6 frozen=false iter=20000 energy=-1.26974174 Lattice="15.00000000 0.00000000 0.00000000 0.00000000 15.00000000 0.00000000 0.00000000 0.00000000 15.00000000" energy_frozen_part=0.00000000 Properties=species:S:1:pos:R:3:velocities:R:3:Z:I:1
H        12.48218689       5.85366548       2.84240181         0.00000000       0.00000000       0.00000000          1
H        10.22659043       7.12045998       1.78799209         0.00000000       0.00000000       0.00000000          1
H        12.77621399       7.84618364       0.90650501         0.00000000       0.00000000       0.00000000          1
H        13.54869140       8.33804945       3.54574675         0.00000000       0.00000000       0.00000000          1
H        11.29309116       9.60484680       2.49134023         0.00000000       0.00000000       0.00000000          1
H        10.99906759       7.61233539       4.42724239         0.00000000       0.00000000       0.00000000          1
6
pbc=[F, F, F] list_num_par=6 frozen=false iter=20000 energy=-1.26974174 Lattice="15.00000000 0.00000000 0.00000000 0.00000000 15.00000000 0.00000000 0.00000000 0.00000000 15.00000000" energy_frozen_part=0.00000000 Properties=species:S:1:pos:R:3:velocities:R:3:Z:I:1
H         9.36355565       7.91171535       3.08035965         0.00000000       0.00000000       0.00000000          1
H        11.24329981       8.69179550       1.16663486         0.00000000       0.00000000       0.00000000          1
H        10.66221614       5.98368762       1.53100381         0.00000000       0.00000000       0.00000000          1
H        13.13561042       7.00227467       2.33665971         0.00000000       0.00000000       0.00000000          1
H        11.25587188       6.22219457       4.25037916         0.00000000       0.00000000       0.00000000          1
H        11.83695701       8.93030434       3.88600227         0.00000000       0.00000000       0.00000000          1
6
pbc=[F, F, F] list_num_par=6 frozen=false iter=20000 energy=-1.26974174 Lattice="15.00000000 0.00000000 0.00000000 0.00000000 15.00000000 0.00000000 0.00000000 0.00000000 15.00000000" energy_frozen_part=0.00000000 Properties=species:S:1:pos:R:3:velocities:R:3:Z:I:1
H         9.36336030       7.91123925       3.07930220         0.00000000       0.00000000       0.00000000          1
H        11.24322462       8.69116535       1.16564398         0.00000000       0.00000000       0.00000000          1
H        10.66262450       5.98304237       1.53068350         0.00000000       0.00000000       0.00000000          1
H        13.13569940       7.00234568       2.33641079         0.00000000       0.00000000       0.00000000          1
H        11.25583861       6.22242289       4.25007752         0.00000000       0.00000000       0.00000000          1
H        11.83643001       8.93054392       3.88503560         0.00000000       0.00000000       0.00000000          1
6
pbc=[F, F, F] list_num_par=6 frozen=false iter=20000 energy=-1.26974174 Lattice="15.00000000 0.00000000 0.00000000 0.00000000 15.00000000 0.00000000 0.00000000 0.00000000 15.00000000" energy_frozen_part=0.00000000 Properties=species:S:1:pos:R:3:velocities:R:3:Z:I:1
H         9.36357337       7.91175252       3.08033367         0.00000000       0.00000000       0.00000000          1
H        11.24333251       8.69181751       1.16662468         0.00000000       0.00000000       0.00000000          1
H        10.66223328       5.98370687       1.53099751         0.00000000       0.00000000       0.00000000          1
H        13.13562967       7.00228383       2.33666655         0.00000000       0.00000000       0.00000000          1
H        11.25586465       6.22221452       4.25037082         0.00000000       0.00000000       0.00000000          1
H        11.83697071       8.93031830       3.88600367         0.00000000       0.00000000       0.00000000          1
6
pbc=[F, F, F] list_num_par=6 frozen=false iter=20000 energy=-1.26974174 Lattice="15.00000000 0.00000000 0.00000000 0.00000000 15.00000000 0.00000000 0.00000000 0.00000000 15.00000000" energy_frozen_part=0.00000000 Properties=species:S:1:pos:R:3:velocities:R:3:Z:I:1
H         9.36339634       7.91121518       3.07925709         0.00000000       0.00000000       0.00000000          1
H        11.24332316       8.69112983       1.16565624         0.00000000       0.00000000       0.00000000          1
H        10.66269773       5.98300302       1.53067265         0.00000000       0.00000000       0.00000000          1
H        13.13575524       7.00229187       2.33647824         0.00000000       0.00000000       0.00000000          1
H        11.25582263       6.22238393       4.25008523         0.00000000       0.00000000       0.00000000          1
H        11.83645348       8.93050464       3.88505905         0.00000000       0.00000000       0.00000000          1
6
pbc=[F, F, F] list_num_par=6 frozen=false iter=20000 energy=-1.26974174 Lattice="15.00000000 0.00000000 0.00000000 0.00000000 15.00000000 0.00000000 0.00000000 0.00000000 15.00000000" energy_frozen_part=0.00000000 Properties=species:S:1:pos:R:3:velocities:R:3:Z:I:1
H        12.48183347       5.85380087       2.84236245         0.00000000       0.00000000       0.00000000          1
H        10.22653248       7.12092711       1.78772103         0.00000000       0.00000000       0.00000000          1
H        12.77635030       7.84625938       0.90647482         0.00000000       0.00000000       0.00000000          1
H        13.54863709       8.33803747       3.54579009         0.00000000       0.00000000       0.00000000          1
H        11.29333017       9.60515944       2.49115091         0.00000000       0.00000000       0.00000000          1
H        10.99881356       7.61270605       4.42703853         0.00000000       0.00000000       0.00000000          1
6
pbc=[F, F, F] list_num_par=6 frozen=false iter=20000 energy=-1.26974174 Lattice="15.00000000 0.00000000 0.00000000 0.00000000 15.00000000 0.00000000 0.00000000 0.00000000 15.00000000" energy_frozen_part=0.00000000 Properties=species:S:1:pos:R:3:velocities:R:3:Z:I:1
H        12.48185405       5.85380904       2.84235404         0.00000000       0.00000000       0.00000000          1
H        10.22653135       7.12092584       1.78772364         0.00000000       0.00000000       0.00000000          1
H        12.77634502       7.84627281       0.90646672         0.00000000       0.00000000       0.00000000          1
H        13.54864195       8.33804680       3.54578796         0.00000000       0.00000000       0.00000000          1
H        11.29331780       9.60515739       2.49115366         0.00000000       0.00000000       0.00000000          1
H        10.99883092       7.61269989       4.42704515         0.00000000       0.00000000       0.00000000          1
6
pbc=[F, F, F] list_num_par=6 frozen=false iter=20000 energy=-1.26974174 Lattice="15.00000000 0.00000000 0.00000000 0.00000000 15.00000000 0.00000000 0.00000000 0.00000000 15.00000000" energy_frozen_part=0.00000000 Properties=species:S:1:pos:R:3:velocities:R:3:Z:I:1
H         9.36337685       7.91121766       3.07930666         0.00000000       0.00000000       0.00000000          1
H        11.24325712       8.69114085       1.16566749         0.00000000       0.00000000       0.00000000          1
H        10.66264320       5.98302063       1.53067945         0.00000000       0.00000000       0.00000000          1
H        13.13571995       7.00230372       2.33643039         0.00000000       0.00000000       0.00000000          1
H        11.25583769       6.22237854       4.25007339         0.00000000       0.00000000       0.00000000          1
H        11.83645921       8.93049789       3.88506241         0.00000000       0.00000000       0.00000000          1
6
pbc=[F, F, F] list_num_par=6 frozen=false iter=20000 energy=-1.26974174 Lattice="15.00000000 0.00000000 0.00000000 0.00000000 15.00000000 0.00000000 0.00000000 0.00000000 15.00000000" energy_frozen_part=0.00000000 Properties=species:S:1:pos:R:3:velocities:R:3:Z:I:1
H         9.36340192       7.91123221       3.07926743         0.00000000       0.00000000       0.00000000          1
H        11.24333854       8.69114866       1.16567232         0.00000000       0.00000000       0.00000000          1
H        10.66271364       5.98302706       1.53068529         0.00000000       0.00000000       0.00000000          1
H        13.13576519       7.00232161       2.33649780         0.00000000       0.00000000       0.00000000          1
H        11.25583085       6.22239865       4.25009171         0.00000000       0.00000000       0.00000000          1
H        11.83645480       8.93051911       3.88507988         0.00000000       0.00000000       0.00000000          1
6
pbc=[F, F, F] list_num_par=6 frozen=false iter=20000 energy=-1.26974174 Lattice="15.00000000 0.00000000 0.00000000 0.00000000 15.00000000 0.00000000 0.00000000 0.00000000 15.00000000" energy_frozen_part=0.00000000 Properties=species:S:1:pos:R:3:velocities:R:3:Z:I:1
H         9.36341868       7.91117310       3.07922863         0.00000000       0.00000000       0.00000000          1
H        11.24331572       8.69108529       1.16559537         0.00000000       0.00000000       0.00000000          1
H        10.66276066       5.98295979       1.53069184         0.00000000       0.00000000       0.00000000          1
H        13.13579521       7.00232840       2.33645444         0.00000000       0.00000000       0.00000000          1
H        11.25589710       6.22243040       4.25009570         0.00000000       0.00000000       0.00000000          1
H        11.83645432       8.93055230       3.88499374         0.00000000       0.00000000       0.00000000          1
6
pbc=[F, F, F] list_num_par=6 frozen=false iter=20000 energy=-1.26974174 Lattice="15.00000000 0.00000000 0.00000000 0.00000000 15.00000000 0.00000000 0.00000000 0.00000000 15.00000000" energy_frozen_part=0.00000000 Properties=species:S:1:pos:R:3:velocities:R:3:Z:I:1
H        12.48227211       5.85366069       2.84244251         0.00000000       0.00000000       0.00000000          1
H        10.22668540       7.12043765       1.78796949         0.00000000       0.00000000       0.00000000          1
H        12.77632770       7.84618622       0.90655662         0.00000000       0.00000000       0.00000000          1
H        13.54872832       8.33805397       3.54582856         0.00000000       0.00000000       0.00000000          1
H        11.29313909       9.60483603       2.49135884         0.00000000       0.00000000       0.00000000          1
H        10.99908217       7.61230597       4.42724115         0.00000000       0.00000000       0.00000000          1
6
pbc=[F, F, F] list_num_par=6 frozen=false iter=20000 energy=-1.26974174 Lattice="15.00000000 0.00000000 0.00000000 0.00000000 15.00000000 0.00000000 0.00000000 0.00000000 15.00000000" energy_frozen_part=0.00000000 Properties=species:S:1:pos:R:3:velocities:R:3:Z:I:1
H         9.36334035       7.91105987       3.07960334         0.00000000       0.00000000       0.00000000          1
H        11.24309177       8.69120448       1.16591058         0.00000000       0.00000000       0.00000000          1
H        10.66282888       5.98300785       1.53098044         0.00000000       0.00000000       0.00000000          1
H        13.13578603       7.00261847       2.33666642         0.00000000       0.00000000       0.00000000          1
H        11.25603902       6.22248259       4.25035934         0.00000000       0.00000000       0.00000000          1
H        11.83630401       8.93067251       3.88529558         0.00000000       0.00000000       0.00000000          1
6
pbc=[F, F, F] list_num_par=6 frozen=false iter=20000 energy=-1.26974174 Lattice="15.00000000 0.00000000 0.00000000 0.00000000 15.00000000 0.00000000 0.00000000 0.00000000 15.00000000" energy_frozen_part=0.00000000 Properties=species:S:1:pos:R:3:velocities:R:3:Z:I:1
H         9.36362756       7.91105437       3.08003911         0.00000000       0.00000000       0.00000000          1
H        11.24357013       8.69162045       1.16671278         0.00000000       0.00000000       0.00000000          1
H        10.66282385       5.98338480       1.53069434         0.00000000       0.00000000       0.00000000          1
H        13.13594476       7.00224449       2.33685713         0.00000000       0.00000000       0.00000000          1
H        11.25600039       6.22168273       4.25018537         0.00000000       0.00000000       0.00000000          1
H        11.83675339       8.92991202       3.88620610         0.00000000       0.00000000       0.00000000          1
6
pbc=[F, F, F] list_num_par=6 frozen=false iter=20000 energy=-1.26974174 Lattice="15.00000000 0.00000000 0.00000000 0.00000000 15.00000000 0.00000000 0.00000000 0.00000000 15.00000000" energy_frozen_part=0.00000000 Properties=species:S:1:pos:R:3:velocities:R:3:Z:I:1
H         9.36359248       7.91105796       3.08001992         0.00000000       0.00000000       0.00000000          1
H        11.24357134       8.69161626       1.16672737         0.00000000       0.00000000       0.00000000          1
H        10.66280349       5.98338638       1.53068280         0.00000000       0.00000000       0.00000000          1
H        13.13591208       7.00221768       2.33689544         0.00000000       0.00000000       0.00000000          1
H        11.25593173       6.22166429       4.25018951         0.00000000       0.00000000       0.00000000          1
H        11.83670655       8.92989284       3.88622622         0.00000000       0.00000000       0.00000000          1
6
pbc=[F, F, F] list_num_par=6 frozen=false iter=20000 energy=-1.26974174 Lattice="15.00000000 0.00000000 0.00000000 0.00000000 15.00000000 0.00000000 0.00000000 0.00000000 15.00000000" energy_frozen_part=0.00000000 Properties=species:S:1:pos:R:3:velocities:R:3:Z:I:1
H        12.48222872       5.85369748       2.84243790         0.00000000       0.00000000       0.00000000          1
H        10.22660820       7.12045442       1.78801997         0.00000000       0.00000000       0.00000000          1
H        12.77622345       7.84617895       0.90649640         0.00000000       0.00000000       0.00000000          1
H        13.54870838       8.33809935       3.54573013         0.00000000       0.00000000       0.00000000          1
H        11.29308527       9.60486179       2.49131464         0.00000000       0.00000000       0.00000000          1
H        10.99909771       7.61237691       4.42725370         0.00000000       0.00000000       0.00000000          1
6
pbc=[F, F, F] list_num_par=6 frozen=false iter=20000 energy=-1.26974174 Lattice="15.00000000 0.00000000 0.00000000 0.00000000 15.00000000 0.00000000 0.00000000 0.00000000 15.00000000" energy_frozen_part=0.00000000 Properties=species:S:1:pos:R:3:velocities:R:3:Z:I:1
H         9.36362197       7.91105268       3.08004454         0.00000000       0.00000000       0.00000000          1
H        11.24355467       8.69163930       1.16671527         0.00000000       0.00000000       0.00000000          1
H        10.66280959       5.98340470       1.53067328         0.00000000       0.00000000       0.00000000          1
H        13.13593103       7.00225652       2.33683963         0.00000000       0.00000000       0.00000000          1
H        11.25599357       6.22167756       4.25016792         0.00000000       0.00000000       0.00000000          1
H        11.83674386       8.92991511       3.88620182         0.00000000       0.00000000       0.00000000          1
6
pbc=[F, F, F] list_num_par=6 frozen=false iter=20000 energy=-1.26974174 Lattice="15.00000000 0.00000000 0.00000000 0.00000000 15.00000000 0.00000000 0.00000000 0.00000000 15.00000000" energy_frozen_part=0.00000000 Properties=species:S:1:pos:R:3:velocities:R:3:Z:I:1
H         9.36357616       7.91106515       3.08007355         0.00000000       0.00000000       0.00000000          1
H        11.24352429       8.69163328       1.16674852         0.00000000       0.00000000       0.00000000          1
H        10.66274805       5.98340100       1.53070099         0.00000000       0.00000000       0.00000000          1
H        13.13588231       7.00223530       2.33687105         0.00000000       0.00000000       0.00000000          1
H        11.25593652       6.22167009       4.25019585         0.00000000       0.00000000       0.00000000          1
H        11.83670583       8.92990009       3.88623924         0.00000000       0.00000000       0.00000000          1
6
pbc=[F, F, F] list_num_par=6 frozen=false iter=20000 energy=-1.26974174 Lattice="15.00000000 0.00000000 0.00000000 0.00000000 15.00000000 0.00000000 0.00000000 0.00000000 15.00000000" energy_frozen_part=0.00000000 Properties=species:S:1:pos:R:3:velocities:R:3:Z:I:1
H        12.48222502       5.85368730       2.84240427         0.00000000       0.00000000       0.00000000          1
H        10.22659978       7.12045132       1.78801220         0.00000000       0.00000000       0.00000000          1
H        12.77620806       7.84618394       0.90648013         0.00000000       0.00000000       0.00000000          1
H        13.54871442       8.33808733       3.54571304         0.00000000       0.00000000       0.00000000          1
H        11.29308948       9.60486007       2.49131762         0.00000000       0.00000000       0.00000000          1
H        10.99910124       7.61235772       4.42724023         0.00000000       0.00000000       0.00000000          1
6
pbc=[F, F, F] list_num_par=6 frozen=false iter=20000 energy=-1.26974174 Lattice="15.00000000 0.00000000 0.00000000 0.00000000 15.00000000 0.00000000 0.00000000 0.00000000 15.00000000" energy_frozen_part=0.00000000 Properties=species:S:1:pos:R:3:velocities:R:3:Z:I:1
H         9.36337755       7.91123422       3.07932049         0.00000000       0.00000000       0.00000000          1
H        11.24323201       8.69118510       1.16566449         0.00000000       0.00000000       0.00000000          1
H        10.66263890       5.98305706       1.53066589         0.00000000       0.00000000       0.00000000          1
H        13.13572128       7.00234631       2.33639900         0.00000000       0.00000000       0.00000000          1
H        11.25585742       6.22239924       4.25005719         0.00000000       0.00000000       0.00000000          1
H        11.83646284       8.93052220       3.88505580         0.00000000       0.00000000       0.00000000          1
6
pbc=[F, F, F] list_num_par=6 frozen=false iter=20000 energy=-1.26974174 Lattice="15.00000000 0.00000000 0.00000000 0.00000000 15.00000000 0.00000000 0.00000000 0.00000000 15.00000000" energy_frozen_part=0.00000000 Properties=species:S:1:pos:R:3:velocities:R:3:Z:I:1
H         9.36336196       7.91121305       3.07931882         0.00000000       0.00000000       0.00000000          1
H        11.24323362       8.69115107       1.16566866         0.00000000       0.00000000       0.00000000          1
H        10.66261903       5.98302474       1.53067753         0.00000000       0.00000000       0.00000000          1
H        13.13570174       7.00231196       2.33641323         0.00000000       0.00000000       0.00000000          1
H        11.25583212       6.22237255       4.25007180         0.00000000       0.00000000       0.00000000          1
H        11.83643492       8.93049858       3.88506420         0.00000000       0.00000000       0.00000000          1
6
pbc=[F, F, F] list_num_par=6 frozen=false iter=20000 energy=-1.26974174 Lattice="15.00000000 0.00000000 0.00000000 0.00000000 15.00000000 0.00000000 0.00000000 0.00000000 15.00000000" energy_frozen_part=0.00000000 Properties=species:S:1:pos:R:3:velocities:R:3:Z:I:1
H        12.48222113       5.85368161       2.84242771         0.00000000       0.00000000       0.00000000          1
H        10.22660958       7.12045002       1.78801832         0.00000000       0.00000000       0.00000000          1
H        12.77622027       7.84616189       0.90648538         0.00000000       0.00000000       0.00000000          1
H        13.54871919       8.33808561       3.54571566         0.00000000       0.00000000       0.00000000          1
H        11.29310639       9.60486095       2.49129775         0.00000000       0.00000000       0.00000000          1
H        10.99910515       7.61238383       4.42724680         0.00000000       0.00000000       0.00000000          1
6
pbc=[F, F, F] list_num_par=6 frozen=false iter=20000 energy=-1.26974174 Lattice="15.00000000 0.00000000 0.00000000 0.00000000 15.00000000 0.00000000 0.00000000 0.00000000 15.00000000" energy_frozen_part=0.00000000 Properties=species:S:1:pos:R:3:velocities:R:3:Z:I:1
H         9.36362635       7.91106073       3.08003950         0.00000000       0.00000000       0.00000000          1
H        11.24356567       8.69163092       1.16671611         0.00000000       0.00000000       0.00000000          1
H        10.66282188       5.98339312       1.53068791         0.00000000       0.00000000       0.00000000          1
H        13.13594016       7.00225752       2.33685164         0.00000000       0.00000000       0.00000000          1
H        11.25600490       6.22168193       4.25017855         0.00000000       0.00000000       0.00000000          1
H        11.83674431       8.92991699       3.88620372         0.00000000       0.00000000       0.00000000          1
6
pbc=[F, F, F] list_num_par=6 frozen=false iter=20000 energy=-1.26974174 Lattice="15.00000000 0.00000000 0.00000000 0.00000000 15.00000000 0.00000000 0.00000000 0.00000000 15.00000000" energy_frozen_part=0.00000000 Properties=species:S:1:pos:R:3:velocities:R:3:Z:I:1
H        12.48222448       5.85369048       2.84241636         0.00000000       0.00000000       0.00000000          1
H        10.22660259       7.12045620       1.78801130         0.00000000       0.00000000       0.00000000          1
H        12.77620755       7.84618299       0.90648272         0.00000000       0.00000000       0.00000000          1
H        13.54870509       8.33810056       3.54571699         0.00000000       0.00000000       0.00000000          1
H        11.29308522       9.60486321       2.49131602         0.00000000       0.00000000       0.00000000          1
H        10.99910314       7.61236643       4.42724754         0.00000000       0.00000000       0.00000000          1
6
pbc=[F, F, F] list_num_par=6 frozen=false iter=20000 energy=-1.26974174 Lattice="15.00000000 0.00000000 0.00000000 0.00000000 15.00000000 0.00000000 0.00000000 0.00000000 15.00000000" energy_frozen_part=0.00000000 Properties=species:S:1:pos:R:3:velocities:R:3:Z:I:1
H         9.36355766       7.91171850       3.08034271         0.00000000       0.00000000       0.00000000          1
H        11.24330432       8.69178412       1.16662857         0.00000000       0.00000000       0.00000000          1
H        10.66221989       5.98368061       1.53101111         0.00000000       0.00000000       0.00000000          1
H        13.13561197       7.00227421       2.33666091         0.00000000       0.00000000       0.00000000          1
H        11.25586403       6.22220439       4.25038216         0.00000000       0.00000000       0.00000000          1
H        11.83695118       8.93030991       3.88599614         0.00000000       0.00000000       0.00000000          1
6
pbc=[F, F, F] list_num_par=6 frozen=false iter=20000 energy=-1.26974174 Lattice="15.00000000 0.00000000 0.00000000 0.00000000 15.00000000 0.00000000 0.00000000 0.00000000 15.00000000" energy_frozen_part=0.00000000 Properties=species:S:1:pos:R:3:velocities:R:3:Z:I:1
H        12.48223015       5.85368936       2.84242975         0.00000000       0.00000000       0.00000000          1
H        10.22661187       7.12045121       1.78800609         0.00000000       0.00000000       0.00000000          1
H        12.77622538       7.84617075       0.90649177         0.00000000       0.00000000       0.00000000          1
H        13.54870675       8.33810032       3.54572330         0.00000000       0.00000000       0.00000000          1
H        11.29309249       9.60485632       2.49130520         0.00000000       0.00000000       0.00000000          1
H        10.99910039       7.61236861       4.42724491         0.00000000       0.00000000       0.00000000          1
6
pbc=[F, F, F] list_num_par=6 frozen=false iter=20000 energy=-1.26974174 Lattice="15.00000000 0.00000000 0.00000000 0.00000000 15.00000000 0.00000000 0.00000000 0.00000000 15.00000000" energy_frozen_part=0.00000000 Properties=species:S:1:pos:R:3:velocities:R:3:Z:I:1
H         9.36358393       7.91105753       3.08002953         0.00000000       0.00000000       0.00000000          1
H        11.24354917       8.69161238       1.16671731         0.00000000       0.00000000       0.00000000          1
H        10.66278685       5.98337701       1.53069417         0.00000000       0.00000000       0.00000000          1
H        13.13589801       7.00223027       2.33688829         0.00000000       0.00000000       0.00000000          1
H        11.25592815       6.22166761       4.25019495         0.00000000       0.00000000       0.00000000          1
H        11.83669614       8.92990276       3.88621856         0.00000000       0.00000000       0.00000000          1
6
pbc=[F, F, F] list_num_par=6 frozen=false iter=20000 energy=-1.26974174 Lattice="15.00000000 0.00000000 0.00000000 0.00000000 15.00000000 0.00000000 0.00000000 0.00000000 15.00000000" energy_frozen_part=0.00000000 Properties=species:S:1:pos:R:3:velocities:R:3:Z:I:1
H         9.36358260       7.91105814       3.08002612         0.00000000       0.00000000       0.00000000          1
H        11.24355555       8.69161948       1.16672491         0.00000000       0.00000000       0.00000000          1
H        10.66278934       5.98338683       1.53068817         0.00000000       0.00000000       0.00000000          1
H        13.13590070       7.00222955       2.33688921         0.00000000       0.00000000       0.00000000          1
H        11.25593056       6.22166507       4.25018339         0.00000000       0.00000000       0.00000000          1
H        11.83670171       8.92989715       3.88622663         0.00000000       0.00000000       0.00000000          1
6
pbc=[F, F, F] list_num_par=6 frozen=false iter=20000 energy=-1.26974174 Lattice="15.00000000 0.00000000 0.00000000 0.00000000 15.00000000 0.00000000 0.00000000 0.00000000 15.00000000" energy_frozen_part=0.00000000 Properties=species:S:1:pos:R:3:velocities:R:3:Z:I:1
H        12.48221314       5.85368861       2.84241163         0.00000000       0.00000000       0.00000000          1
H        10.22659346       7.12046393       1.78800509         0.00000000       0.00000000       0.00000000          1
H        12.77620817       7.84617419       0.90648066         0.00000000       0.00000000       0.00000000          1
H        13.54870380       8.33808722       3.54571468         0.00000000       0.00000000       0.00000000          1
H        11.29309588       9.60485862       2.49130521         0.00000000       0.00000000       0.00000000          1
H        10.99909380       7.61236838       4.42723867         0.00000000       0.00000000       0.00000000          1
6
pbc=[F, F, F] list_num_par=6 frozen=false iter=20000 energy=-1.26974174 Lattice="15.00000000 0.00000000 0.00000000 0.00000000 15.00000000 0.00000000 0.00000000 0.00000000 15.00000000" energy_frozen_part=0.00000000 Properties=species:S:1:pos:R:3:velocities:R:3:Z:I:1
H         9.36338721       7.91120652       3.07931048         0.00000000       0.00000000       0.00000000          1
H        11.24327266       8.69113848       1.16566672         0.00000000       0.00000000       0.00000000          1
H        10.66265609       5.98301874       1.53067712         0.00000000       0.00000000       0.00000000          1
H        13.13573391       7.00229913       2.33644118         0.00000000       0.00000000       0.00000000          1
H        11.25584323       6.22237144       4.25007655         0.00000000       0.00000000       0.00000000          1
H        11.83645910       8.93049389       3.88506191         0.00000000       0.00000000       0.00000000          1
6
pbc=[F, F, F] list_num_par=6 frozen=false iter=20000 energy=-1.26974174 Lattice="15.00000000 0.00000000 0.00000000 0.00000000 15.00000000 0.00000000 0.00000000 0.00000000 15.00000000" energy_frozen_part=0.00000000 Properties=species:S:1:pos:R:3:velocities:R:3:Z:I:1
H         9.36340671       7.91176025       3.08036963         0.00000000       0.00000000       0.00000000          1
H        11.24321302       8.69177120       1.16668447         0.00000000       0.00000000       0.00000000          1
H        10.66209073       5.98368011       1.53112126         0.00000000       0.00000000       0.00000000          1
H        13.13547983       7.00226886       2.33681157         0.00000000       0.00000000       0.00000000          1
H        11.25567546       6.22225867       4.25050105         0.00000000       0.00000000       0.00000000          1
H        11.83678729       8.93035487       3.88606232         0.00000000       0.00000000       0.00000000          1
6
pbc=[F, F, F] list_num_par=6 frozen=false iter=20000 energy=-1.26974174 Lattice="15.00000000 0.00000000 0.00000000 0.00000000 15.00000000 0.00000000 0.00000000 0.00000000 15.00000000" energy_frozen_part=0.00000000 Properties=species:S:1:pos:R:3:velocities:R:3:Z:I:1
H        12.48221117       5.85368158       2.84241518         0.00000000       0.00000000       0.00000000          1
H        10.22659256       7.12045920       1.78801215         0.00000000       0.00000000       0.00000000          1
H        12.77620800       7.84617727       0.90648260         0.00000000       0.00000000       0.00000000          1
H        13.54870101       8.33808028       3.54572209         0.00000000       0.00000000       0.00000000          1
H        11.29309311       9.60485802       2.49131328         0.00000000       0.00000000       0.00000000          1
H        10.99909234       7.61236190       4.42724465         0.00000000       0.00000000       0.00000000          1
6
pbc=[F, F, F] list_num_par=6 frozen=false iter=20000 energy=-1.26974174 Lattice="15.00000000 0.00000000 0.00000000 0.00000000 15.00000000 0.00000000 0.00000000 0.00000000 15.00000000" energy_frozen_part=0.00000000 Properties=species:S:1:pos:R:3:velocities:R:3:Z:I:1
H         9.36361627       7.91107866       3.08003258         0.00000000       0.00000000       0.00000000          1
H        11.24356783       8.69161118       1.16670512         0.00000000       0.00000000       0.00000000          1
H        10.66282600       5.98338190       1.53072598         0.00000000       0.00000000       0.00000000          1
H        13.13593440       7.00226960       2.33688469         0.00000000       0.00000000       0.00000000          1
H        11.25598557       6.22172590       4.25021395         0.00000000       0.00000000       0.00000000          1
H        11.83672744       8.92995706       3.88619968         0.00000000       0.00000000       0.00000000          1
6
pbc=[F, F, F] list_num_par=6 frozen=false iter=20000 energy=-1.26974174 Lattice="15.00000000 0.00000000 0.00000000 0.00000000 15.00000000 0.00000000 0.00000000 0.00000000 15.00000000" energy_frozen_part=0.00000000 Properties=species:S:1:pos:R:3:velocities:R:3:Z:I:1
H         9.36336772       7.91119850       3.07932293         0.00000000       0.00000000       0.00000000          1
H        11.24324740       8.69113975       1.16567585         0.00000000       0.00000000       0.00000000          1
H        10.66262443       5.98301926       1.53067589         0.00000000       0.00000000       0.00000000          1
H        13.13570797       7.00229230       2.33642453         0.00000000       0.00000000       0.00000000          1
H        11.25583217       6.22235573       4.25007429         0.00000000       0.00000000       0.00000000          1
H        11.83644444       8.93047848       3.88507129         0.00000000       0.00000000       0.00000000          1
6
pbc=[F, F, F] list_num_par=6 frozen=false iter=20000 energy=-1.26974174 Lattice="15.00000000 0.00000000 0.00000000 0.00000000 15.00000000 0.00000000 0.00000000 0.00000000 15.00000000" energy_frozen_part=0.00000000 Properties=species:S:1:pos:R:3:velocities:R:3:Z:I:1
H        12.48222138       5.85368793       2.84241629         0.00000000       0.00000000       0.00000000          1
H        10.22660586       7.12046082       1.78800958         0.00000000       0.00000000       0.00000000          1
H        12.77622019       7.84617598       0.90648190         0.00000000       0.00000000       0.00000000          1
H        13.54871428       8.33808818       3.54572082         0.00000000       0.00000000       0.00000000          1
H        11.29310464       9.60486178       2.49129831         0.00000000       0.00000000       0.00000000          1
H        10.99910206       7.61237624       4.42723929         0.00000000       0.00000000       0.00000000          1
6
pbc=[F, F, F] list_num_par=6 frozen=false iter=20000 energy=-1.26974174 Lattice="15.00000000 0.00000000 0.00000000 0.00000000 15.00000000 0.00000000 0.00000000 0.00000000 15.00000000" energy_frozen_part=0.00000000 Properties=species:S:1:pos:R:3:velocities:R:3:Z:I:1
H        12.48220523       5.85366547       2.84241028         0.00000000       0.00000000       0.00000000          1
H        10.22660004       7.12045881       1.78800467         0.00000000       0.00000000       0.00000000          1
H        12.77621755       7.84617615       0.90649962         0.00000000       0.00000000       0.00000000          1
H        13.54870690       8.33804654       3.54575005         0.00000000       0.00000000       0.00000000          1
H        11.29310537       9.60484055       2.49135079         0.00000000       0.00000000       0.00000000          1
H        10.99908544       7.61232770       4.42725240         0.00000000       0.00000000       0.00000000          1
6
pbc=[F, F, F] list_num_par=6 frozen=false iter=20000 energy=-1.26974174 Lattice="15.00000000 0.00000000 0.00000000 0.00000000 15.00000000 0.00000000 0.00000000 0.00000000 15.00000000" energy_frozen_part=0.00000000 Properties=species:S:1:pos:R:3:velocities:R:3:Z:I:1
H         9.36358546       7.91107067       3.08003185         0.00000000       0.00000000       0.00000000          1
H        11.24356185       8.69162755       1.16673329         0.00000000       0.00000000       0.00000000          1
H        10.66278801       5.98339545       1.53069023         0.00000000       0.00000000       0.00000000          1
H        13.13590100       7.00223359       2.33689628         0.00000000       0.00000000       0.00000000          1
H        11.25592155       6.22167113       4.25018715         0.00000000       0.00000000       0.00000000          1
H        11.83670080       8.92990544       3.88623837         0.00000000       0.00000000       0.00000000          1
6
pbc=[F, F, F] list_num_par=6 frozen=false iter=20000 energy=-1.26974174 Lattice="15.00000000 0.00000000 0.00000000 0.00000000 15.00000000 0.00000000 0.00000000 0.00000000 15.00000000" energy_frozen_part=0.00000000 Properties=species:S:1:pos:R:3:velocities:R:3:Z:I:1
H         9.36363493       7.91103289       3.08002927         0.00000000       0.00000000       0.00000000          1
H        11.24357016       8.69162770       1.16671055         0.00000000       0.00000000       0.00000000          1
H        10.66285335       5.98338707       1.53066807         0.00000000       0.00000000       0.00000000          1
H        13.13595445       7.00226535       2.33685723         0.00000000       0.00000000       0.00000000          1
H        11.25601336       6.22167065       4.25016855         0.00000000       0.00000000       0.00000000          1
H        11.83673309       8.92991605       3.88620871         0.00000000       0.00000000       0.00000000          1
6
pbc=[F, F, F] list_num_par=6 frozen=false iter=20000 energy=-1.26974174 Lattice="15.00000000 0.00000000 0.00000000 0.00000000 15.00000000 0.00000000 0.00000000 0.00000000 15.00000000" energy_frozen_part=0.00000000 Properties=species:S:1:pos:R:3:velocities:R:3:Z:I:1
H         9.36341359       7.91120491       3.07923673         0.00000000       0.00000000       0.00000000          1
H        11.24331982       8.69109922       1.16560570         0.00000000       0.00000000       0.00000000          1
H        10.66273036       5.98297927       1.53069377         0.00000000       0.00000000       0.00000000          1
H        13.13578173       7.00232260       2.33645833         0.00000000       0.00000000       0.00000000          1
H        11.25588171       6.22243466       4.25009355         0.00000000       0.00000000       0.00000000          1
H        11.83646142       8.93055457       3.88499950         0.00000000       0.00000000       0.00000000          1
6
pbc=[F, F, F] list_num_par=6 frozen=false iter=20000 energy=-1.26974174 Lattice="15.00000000 0.00000000 0.00000000 0.00000000 15.00000000 0.00000000 0.00000000 0.00000000 15.00000000" energy_frozen_part=0.00000000 Properties=species:S:1:pos:R:3:velocities:R:3:Z:I:1
H         9.36336121       7.91124242       3.07930630         0.00000000       0.00000000       0.00000000          1
H        11.24322300       8.69116780       1.16564233         0.00000000       0.00000000       0.00000000          1
H        10.66262743       5.98303936       1.53067948         0.00000000       0.00000000       0.00000000          1
H        13.13570777       7.00234685       2.33640532         0.00000000       0.00000000       0.00000000          1
H        11.25583823       6.22241584       4.25006564         0.00000000       0.00000000       0.00000000          1
H        11.83644323       8.93054262       3.88502979         0.00000000       0.00000000       0.00000000          1
6
pbc=[F, F, F] list_num_par=6 frozen=false iter=20000 energy=-1.26974174 Lattice="15.00000000 0.00000000 0.00000000 0.00000000 15.00000000 0.00000000 0.00000000 0.00000000 15.00000000" energy_frozen_part=0.00000000 Properties=species:S:1:pos:R:3:velocities:R:3:Z:I:1
H         9.36337890       7.91121394       3.07931749         0.00000000       0.00000000       0.00000000          1
H        11.24325366       8.69115165       1.16566709         0.00000000       0.00000000       0.00000000          1
H        10.66264398       5.98302986       1.53067831         0.00000000       0.00000000       0.00000000          1
H        13.13572375       7.00230978       2.33642649         0.00000000       0.00000000       0.00000000          1
H        11.25584874       6.22238385       4.25007529         0.00000000       0.00000000       0.00000000          1
H        11.83645720       8.93050735       3.88506180         0.00000000       0.00000000       0.00000000          1
6
pbc=[F, F, F] list_num_par=6 frozen=false iter=20000 energy=-1.26974174 Lattice="15.00000000 0.00000000 0.00000000 0.00000000 15.00000000 0.00000000 0.00000000 0.00000000 15.00000000" energy_frozen_part=0.00000000 Properties=species:S:1:pos:R:3:velocities:R:3:Z:I:1
H        12.48184328       5.85381001       2.84236554         0.00000000       0.00000000       0.00000000          1
H        10.22653461       7.12092751       1.78770952         0.00000000       0.00000000       0.00000000          1
H        12.77635448       7.84627767       0.90648590         0.00000000       0.00000000       0.00000000          1
H        13.54861814       8.33804304       3.54581624         0.00000000       0.00000000       0.00000000          1
H        11.29330616       9.60516218       2.49116713         0.00000000       0.00000000       0.00000000          1
H        10.99879502       7.61269129       4.42704230         0.00000000       0.00000000       0.00000000          1
6
pbc=[F, F, F] list_num_par=6 frozen=false iter=20000 energy=-1.26974174 Lattice="15.00000000 0.00000000 0.00000000 0.00000000 15.00000000 0.00000000 0.00000000 0.00000000 15.00000000" energy_frozen_part=0.00000000 Properties=species:S:1:pos:R:3:velocities:R:3:Z:I:1
H        12.48221166       5.85366185       2.84241500         0.00000000       0.00000000       0.00000000          1
H        10.22660593       7.12046115       1.78801109         0.00000000       0.00000000       0.00000000          1
H        12.77622720       7.84617536       0.90650905         0.00000000       0.00000000       0.00000000          1
H        13.54870752       8.33805360       3.54574637         0.00000000       0.00000000       0.00000000          1
H        11.29310076       9.60484856       2.49134898         0.00000000       0.00000000       0.00000000          1
H        10.99908894       7.61233169       4.42725287         0.00000000       0.00000000       0.00000000          1
6
pbc=[F, F, F] list_num_par=6 frozen=false iter=20000 energy=-1.26974174 Lattice="15.00000000 0.00000000 0.00000000 0.00000000 15.00000000 0.00000000 0.00000000 0.00000000 15.00000000" energy_frozen_part=0.00000000 Properties=species:S:1:pos:R:3:velocities:R:3:Z:I:1
H        12.48183677       5.85380560       2.84236044         0.00000000       0.00000000       0.00000000          1
H        10.22653412       7.12092749       1.78771865         0.00000000       0.00000000       0.00000000          1
H        12.77635525       7.84626913       0.90647548         0.00000000       0.00000000       0.00000000          1
H        13.54862968       8.33804045       3.54579873         0.00000000       0.00000000       0.00000000          1
H        11.29332276       9.60516184       2.49116142         0.00000000       0.00000000       0.00000000          1
H        10.99881001       7.61269524       4.42704196         0.00000000       0.00000000       0.00000000          1
6
pbc=[F, F, F] list_num_par=6 frozen=false iter=20000 energy=-1.26974174 Lattice="15.00000000 0.00000000 0.00000000 0.00000000 15.00000000 0.00000000 0.00000000 0.00000000 15.00000000" energy_frozen_part=0.00000000 Properties=species:S:1:pos:R:3:velocities:R:3:Z:I:1
H         9.36337960       7.91122389       3.07922192         0.00000000       0.00000000       0.00000000          1
H        11.24331987       8.69109394       1.16560324         0.00000000       0.00000000       0.00000000          1
H        10.66271553       5.98297590       1.53070970         0.00000000       0.00000000       0.00000000          1
H        13.13575857       7.00230890       2.33649742         0.00000000       0.00000000       0.00000000          1
H        11.25581749       6.22244738       4.25011545         0.00000000       0.00000000       0.00000000          1
H        11.83642362       8.93056101       3.88500583         0.00000000       0.00000000       0.00000000          1
6
pbc=[F, F, F] list_num_par=6 frozen=false iter=20000 energy=-1.26974174 Lattice="15.00000000 0.00000000 0.00000000 0.00000000 15.00000000 0.00000000 0.00000000 0.00000000 15.00000000" energy_frozen_part=0.00000000 Properties=species:S:1:pos:R:3:velocities:R:3:Z:I:1
H         9.36336909       7.91120205       3.07932066         0.00000000       0.00000000       0.00000000          1
H        11.24324893       8.69113283       1.16567542         0.00000000       0.00000000       0.00000000          1
H        10.66264416       5.98301369       1.53068382         0.00000000       0.00000000       0.00000000          1
H        13.13572165       7.00230190       2.33643872         0.00000000       0.00000000       0.00000000          1
H        11.25583601       6.22236676       4.25007704         0.00000000       0.00000000       0.00000000          1
H        11.83644636       8.93049395       3.88506875         0.00000000       0.00000000       0.00000000          1
6
pbc=[F, F, F] list_num_par=6 frozen=false iter=20000 energy=-1.26974174 Lattice="15.00000000 0.00000000 0.00000000 0.00000000 15.00000000 0.00000000 0.00000000 0.00000000 15.00000000" energy_frozen_part=0.00000000 Properties=species:S:1:pos:R:3:velocities:R:3:Z:I:1
H         9.36333188       7.91108275       3.07961864         0.00000000       0.00000000       0.00000000          1
H        11.24307635       8.69118857       1.16591566         0.00000000       0.00000000       0.00000000          1
H        10.66277225       5.98300978       1.53098311         0.00000000       0.00000000       0.00000000          1
H        13.13575991       7.00258001       2.33665935         0.00000000       0.00000000       0.00000000          1
H        11.25600578       6.22246775       4.25035830         0.00000000       0.00000000       0.00000000          1
H        11.83631541       8.93065308       3.88528802         0.00000000       0.00000000       0.00000000          1
6
pbc=[F, F, F] list_num_par=6 frozen=false iter=20000 energy=-1.26974174 Lattice="15.00000000 0.00000000 0.00000000 0.00000000 15.00000000 0.00000000 0.00000000 0.00000000 15.00000000" energy_frozen_part=0.00000000 Properties=species:S:1:pos:R:3:velocities:R:3:Z:I:1
H         9.36361440       7.91107186       3.08003902         0.00000000       0.00000000       0.00000000          1
H        11.24355479       8.69161597       1.16670270         0.00000000       0.00000000       0.00000000          1
H        10.66282552       5.98338097       1.53072866         0.00000000       0.00000000       0.00000000          1
H        13.13593088       7.00226642       2.33688124         0.00000000       0.00000000       0.00000000          1
H        11.25598607       6.22172486       4.25021970         0.00000000       0.00000000       0.00000000          1
H        11.83672857       8.92995012       3.88619248         0.00000000       0.00000000       0.00000000          1
6
pbc=[F, F, F] list_num_par=6 frozen=false iter=20000 energy=-1.26974174 Lattice="15.00000000 0.00000000 0.00000000 0.00000000 15.00000000 0.00000000 0.00000000 0.00000000 15.00000000" energy_frozen_part=0.00000000 Properties=species:S:1:pos:R:3:velocities:R:3:Z:I:1
H        12.48223168       5.85370151       2.84243993         0.00000000       0.00000000       0.00000000          1
H        10.22660974       7.12045769       1.78801979         0.00000000       0.00000000       0.00000000          1
H        12.77622486       7.84617466       0.90648803         0.00000000       0.00000000       0.00000000          1
H        13.54871985       8.33810507       3.54572034         0.00000000       0.00000000       0.00000000          1
H        11.29310229       9.60486524       2.49130129         0.00000000       0.00000000       0.00000000          1
H        10.99910983       7.61238865       4.42724747         0.00000000       0.00000000       0.00000000          1
6
pbc=[F, F, F] list_num_par=6 frozen=false iter=20000 energy=-1.26974174 Lattice="15.00000000 0.00000000 0.00000000 0.00000000 15.00000000 0.00000000 0.00000000 0.00000000 15.00000000" energy_frozen_part=0.00000000 Properties=species:S:1:pos:R:3:velocities:R:3:Z:I:1
H        12.48220215       5.85366130       2.84242187         0.00000000       0.00000000       0.00000000          1
H        10.22660574       7.12045781       1.78800961         0.00000000       0.00000000       0.00000000          1
H        12.77622465       7.84616570       0.90650591         0.00000000       0.00000000       0.00000000          1
H        13.54869867       8.33805154       3.54575292         0.00000000       0.00000000       0.00000000          1
H        11.29310022       9.60484779       2.49133894         0.00000000       0.00000000       0.00000000          1
H        10.99907854       7.61234031       4.42725121         0.00000000       0.00000000       0.00000000          1
6
pbc=[F, F, F] list_num_par=6 frozen=false iter=20000 energy=-1.26974174 Lattice="15.00000000 0.00000000 0.00000000 0.00000000 15.00000000 0.00000000 0.00000000 0.00000000 15.00000000" energy_frozen_part=0.00000000 Properties=species:S:1:pos:R:3:velocities:R:3:Z:I:1
H        12.48227366       5.85367074       2.84240573         0.00000000       0.00000000       0.00000000          1
H        10.22668445       7.12046146       1.78797078         0.00000000       0.00000000       0.00000000          1
H        12.77632362       7.84620301       0.90652511         0.00000000       0.00000000       0.00000000          1
H        13.54875267       8.33805303       3.54579091         0.00000000       0.00000000       0.00000000          1
H        11.29316821       9.60484642       2.49135977         0.00000000       0.00000000       0.00000000          1
H        10.99911302       7.61231212       4.42723499         0.00000000       0.00000000       0.00000000          1
6
pbc=[F, F, F] list_num_par=6 frozen=false iter=20000 energy=-1.26974174 Lattice="15.00000000 0.00000000 0.00000000 0.00000000 15.00000000 0.00000000 0.00000000 0.00000000 15.00000000" energy_frozen_part=0.00000000 Properties=species:S:1:pos:R:3:velocities:R:3:Z:I:1
H        12.48224388       5.85368765       2.84242548         0.00000000       0.00000000       0.00000000          1
H        10.22661206       7.12043676       1.78801566         0.00000000       0.00000000       0.00000000          1
H        12.77621928       7.84617519       0.90648762         0.00000000       0.00000000       0.00000000          1
H        13.54871649       8.33809750       3.54571975         0.00000000       0.00000000       0.00000000          1
H        11.29309372       9.60485032       2.49131341         0.00000000       0.00000000       0.00000000          1
H        10.99911212       7.61236488       4.42724848         0.00000000       0.00000000       0.00000000          1
6
pbc=[F, F, F] list_num_par=6 frozen=false iter=20000 energy=-1.26974174 Lattice="15.00000000 0.00000000 0.00000000 0.00000000 15.00000000 0.00000000 0.00000000 0.00000000 15.00000000" energy_frozen_part=0.00000000 Properties=species:S:1:pos:R:3:velocities:R:3:Z:I:1
H         9.36339872       7.91117381       3.07924732         0.00000000       0.00000000       0.00000000          1
H        11.24329480       8.69108088       1.16560461         0.00000000       0.00000000       0.00000000          1
H        10.66273636       5.98296148       1.53070162         0.00000000       0.00000000       0.00000000          1
H        13.13577695       7.00232298       2.33645763         0.00000000       0.00000000       0.00000000          1
H        11.25587325       6.22241616       4.25010020         0.00000000       0.00000000       0.00000000          1
H        11.83644189       8.93053873       3.88500208         0.00000000       0.00000000       0.00000000          1
6
pbc=[F, F, F] list_num_par=6 frozen=false iter=20000 energy=-1.26974174 Lattice="15.00000000 0.00000000 0.00000000 0.00000000 15.00000000 0.00000000 0.00000000 0.00000000 15.00000000" energy_frozen_part=0.00000000 Properties=species:S:1:pos:R:3:velocities:R:3:Z:I:1
H        12.48222484       5.85366935       2.84239624         0.00000000       0.00000000       0.00000000          1
H        10.22661337       7.12045880       1.78801002         0.00000000       0.00000000       0.00000000          1
H        12.77622449       7.84618988       0.90649604         0.00000000       0.00000000       0.00000000          1
H        13.54872442       8.33805815       3.54574111         0.00000000       0.00000000       0.00000000          1
H        11.29310440       9.60484751       2.49134888         0.00000000       0.00000000       0.00000000          1
H        10.99911244       7.61233112       4.42725407         0.00000000       0.00000000       0.00000000          1
6
pbc=[F, F, F] list_num_par=6 frozen=false iter=20000 energy=-1.26974174 Lattice="15.00000000 0.00000000 0.00000000 0.00000000 15.00000000 0.00000000 0.00000000 0.00000000 15.00000000" energy_frozen_part=0.00000000 Properties=species:S:1:pos:R:3:velocities:R:3:Z:I:1
H         9.36336854       7.91124639       3.07931377         0.00000000       0.00000000       0.00000000          1
H        11.24324624       8.69116897       1.16565522         0.00000000       0.00000000       0.00000000          1
H        10.66262311       5.98304796       1.53067391         0.00000000       0.00000000       0.00000000          1
H        13.13571017       7.00231571       2.33641374         0.00000000       0.00000000       0.00000000          1
H        11.25582642       6.22239855       4.25006992         0.00000000       0.00000000       0.00000000          1
H        11.83645637       8.93051923       3.88504565         0.00000000       0.00000000       0.00000000          1
6
pbc=[F, F, F] list_num_par=6 frozen=false iter=20000 energy=-1.26974174 Lattice="15.00000000 0.00000000 0.00000000 0.00000000 15.00000000 0.00000000 0.00000000 0.00000000 15.00000000" energy_frozen_part=0.00000000 Properties=species:S:1:pos:R:3:velocities:R:3:Z:I:1
H         9.36357830       7.91174779       3.08032288         0.00000000       0.00000000       0.00000000          1
H        11.24334237       8.69181835       1.16662956         0.00000000       0.00000000       0.00000000          1
H        10.66224267       5.98371056       1.53099592         0.00000000       0.00000000       0.00000000          1
H        13.13562945       7.00228886       2.33667490         0.00000000       0.00000000       0.00000000          1
H        11.25586206       6.22221541       4.25037634         0.00000000       0.00000000       0.00000000          1
H        11.83696703       8.93032099       3.88600839         0.00000000       0.00000000       0.00000000          1
6
pbc=[F, F, F] list_num_par=6 frozen=false iter=20000 energy=-1.26974174 Lattice="15.00000000 0.00000000 0.00000000 0.00000000 15.00000000 0.00000000 0.00000000 0.00000000 15.00000000" energy_frozen_part=0.00000000 Properties=species:S:1:pos:R:3:velocities:R:3:Z:I:1
H        12.48227741       5.85366384       2.84243137         0.00000000       0.00000000       0.00000000          1
H        10.22668622       7.12043528       1.78797682         0.00000000       0.00000000       0.00000000          1
H        12.77632164       7.84619340       0.90654473         0.00000000       0.00000000       0.00000000          1
H        13.54872853       8.33806113       3.54581937         0.00000000       0.00000000       0.00000000          1
H        11.29314056       9.60483161       2.49136185         0.00000000       0.00000000       0.00000000          1
H        10.99909373       7.61229923       4.42724951         0.00000000       0.00000000       0.00000000          1
6
pbc=[F, F, F] list_num_par=6 frozen=false iter=20000 energy=-1.26974174 Lattice="15.00000000 0.00000000 0.00000000 0.00000000 15.00000000 0.00000000 0.00000000 0.00000000 15.00000000" energy_frozen_part=0.00000000 Properties=species:S:1:pos:R:3:velocities:R:3:Z:I:1
H         9.36363845       7.91105502       3.08002475         0.00000000       0.00000000       0.00000000          1
H        11.24359055       8.69163030       1.16670731         0.00000000       0.00000000       0.00000000          1
H        10.66283484       5.98339618       1.53066722         0.00000000       0.00000000       0.00000000          1
H        13.13595184       7.00224587       2.33685446         0.00000000       0.00000000       0.00000000          1
H        11.25600220       6.22167456       4.25016241         0.00000000       0.00000000       0.00000000          1
H        11.83675402       8.92991236       3.88620723         0.00000000       0.00000000       0.00000000          1
6
pbc=[F, F, F] list_num_par=6 frozen=false iter=20000 energy=-1.26974174 Lattice="15.00000000 0.00000000 0.00000000 0.00000000 15.00000000 0.00000000 0.00000000 0.00000000 15.00000000" energy_frozen_part=0.00000000 Properties=species:S:1:pos:R:3:velocities:R:3:Z:I:1
H         9.36361185       7.91110374       3.08004220         0.00000000       0.00000000       0.00000000          1
H        11.24357174       8.69163891       1.16671399         0.00000000       0.00000000       0.00000000          1
H        10.66279746       5.98341561       1.53071569         0.00000000       0.00000000       0.00000000          1
H        13.13591784       7.00226338       2.33688880         0.00000000       0.00000000       0.00000000          1
H        11.25596335       6.22172707       4.25021133         0.00000000       0.00000000       0.00000000          1
H        11.83673189       8.92995828       3.88621409         0.00000000       0.00000000       0.00000000          1
6
pbc=[F, F, F] list_num_par=6 frozen=false iter=20000 energy=-1.26974174 Lattice="15.00000000 0.00000000 0.00000000 0.00000000 15.00000000 0.00000000 0.00000000 0.00000000 15.00000000" energy_frozen_part=0.00000000 Properties=species:S:1:pos:R:3:velocities:R:3:Z:I:1
H         9.36334127       7.91108535       3.07961663         0.00000000       0.00000000       0.00000000          1
H        11.24309169       8.69120120       1.16592171         0.00000000       0.00000000       0.00000000          1
H        10.66278733       5.98301435       1.53098619         0.00000000       0.00000000       0.00000000          1
H        13.13576765       7.00259170       2.33666775         0.00000000       0.00000000       0.00000000          1
H        11.25601109       6.22246906       4.25036616         0.00000000       0.00000000       0.00000000          1
H        11.83632009       8.93065337       3.88530146         0.00000000       0.00000000       0.00000000          1
6
pbc=[F, F, F] list_num_par=6 frozen=false iter=20000 energy=-1.26974174 Lattice="15.00000000 0.00000000 0.00000000 0.00000000 15.00000000 0.00000000 0.00000000 0.00000000 15.00000000" energy_frozen_part=0.00000000 Properties=species:S:1:pos:R:3:velocities:R:3:Z:I:1
H        12.48226148       5.85366163       2.84243492         0.00000000       0.00000000       0.00000000          1
H        10.22668690       7.12044795       1.78796750         0.00000000       0.00000000       0.00000000          1
H        12.77632734       7.84619686       0.90655582         0.00000000       0.00000000       0.00000000          1
H        13.54871860       8.33805531       3.54582550         0.00000000       0.00000000       0.00000000          1
H        11.29314131       9.60484072       2.49135528         0.00000000       0.00000000       0.00000000          1
H        10.99907552       7.61231269       4.42723991         0.00000000       0.00000000       0.00000000          1
6
pbc=[F, F, F] list_num_par=6 frozen=false iter=20000 energy=-1.26974174 Lattice="15.00000000 0.00000000 0.00000000 0.00000000 15.00000000 0.00000000 0.00000000 0.00000000 15.00000000" energy_frozen_part=0.00000000 Properties=species:S:1:pos:R:3:velocities:R:3:Z:I:1
H        12.48220959       5.85366152       2.84241413         0.00000000       0.00000000       0.00000000          1
H        10.22659388       7.12044980       1.78802506         0.00000000       0.00000000       0.00000000          1
H        12.77620711       7.84616496       0.90649801         0.00000000       0.00000000       0.00000000          1
H        13.54871931       8.33804499       3.54573657         0.00000000       0.00000000       0.00000000          1
H        11.29310848       9.60484016       2.49134326         0.00000000       0.00000000       0.00000000          1
H        10.99910376       7.61233189       4.42726171         0.00000000       0.00000000       0.00000000          1
6
pbc=[F, F, F] list_num_par=6 frozen=false iter=20000 energy=-1.26974174 Lattice="15.00000000 0.00000000 0.00000000 0.00000000 15.00000000 0.00000000 0.00000000 0.00000000 15.00000000" energy_frozen_part=0.00000000 Properties=species:S:1:pos:R:3:velocities:R:3:Z:I:1
H         9.36337395       7.91124331       3.07930115         0.00000000       0.00000000       0.00000000          1
H        11.24325377       8.69116715       1.16565572         0.00000000       0.00000000       0.00000000          1
H        10.66262996       5.98304586       1.53066469         0.00000000       0.00000000       0.00000000          1
H        13.13571146       7.00231746       2.33642068         0.00000000       0.00000000       0.00000000          1
H        11.25582772       6.22240040       4.25006492         0.00000000       0.00000000       0.00000000          1
H        11.83645292       8.93052473       3.88504673         0.00000000       0.00000000       0.00000000          1
6
pbc=[F, F, F] list_num_par=6 frozen=false iter=20000 energy=-1.26974174 Lattice="15.00000000 0.00000000 0.00000000 0.00000000 15.00000000 0.00000000 0.00000000 0.00000000 15.00000000" energy_frozen_part=0.00000000 Properties=species:S:1:pos:R:3:velocities:R:3:Z:I:1
H         9.36337295       7.91126781       3.07929531         0.00000000       0.00000000       0.00000000          1
H        11.24325951       8.69117000       1.16565098         0.00000000       0.00000000       0.00000000          1
H        10.66262120       5.98305491       1.53067419         0.00000000       0.00000000       0.00000000          1
H        13.13570769       7.00232443       2.33642478         0.00000000       0.00000000       0.00000000          1
H        11.25581775       6.22241936       4.25006565         0.00000000       0.00000000       0.00000000          1
H        11.83645851       8.93053737       3.88504544         0.00000000       0.00000000       0.00000000          1
6
pbc=[F, F, F] list_num_par=6 frozen=false iter=20000 energy=-1.26974174 Lattice="15.00000000 0.00000000 0.00000000 0.00000000 15.00000000 0.00000000 0.00000000 0.00000000 15.00000000" energy_frozen_part=0.00000000 Properties=species:S:1:pos:R:3:velocities:R:3:Z:I:1
H        12.47823666       5.85075873       2.84278572         0.00000000       0.00000000       0.00000000          1
H        10.22337217       7.12095545       1.79090130         0.00000000       0.00000000       0.00000000          1
H        12.77324544       7.84476014       0.90856573         0.00000000       0.00000000       0.00000000          1
H        13.54781836       8.33334813       3.54780989         0.00000000       0.00000000       0.00000000          1
H        11.29294737       9.60353858       2.49591840         0.00000000       0.00000000       0.00000000          1
H        10.99794520       7.60954123       4.43014424         0.00000000       0.00000000       0.00000000          1
6
pbc=[F, F, F] list_num_par=6 frozen=false iter=20000 energy=-1.26974174 Lattice="15.00000000 0.00000000 0.00000000 0.00000000 15.00000000 0.00000000 0.00000000 0.00000000 15.00000000" energy_frozen_part=0.00000000 Properties=species:S:1:pos:R:3:velocities:R:3:Z:I:1
H         9.36333648       7.91108152       3.07958670         0.00000000       0.00000000       0.00000000          1
H        11.24309021       8.69120523       1.16589844         0.00000000       0.00000000       0.00000000          1
H        10.66279786       5.98301542       1.53096096         0.00000000       0.00000000       0.00000000          1
H        13.13576854       7.00260008       2.33665668         0.00000000       0.00000000       0.00000000          1
H        11.25601585       6.22248583       4.25034699         0.00000000       0.00000000       0.00000000          1
H        11.83630410       8.93067418       3.88527965         0.00000000       0.00000000       0.00000000          1
6
pbc=[F, F, F] list_num_par=6 frozen=false iter=20000 energy=-1.26974174 Lattice="15.00000000 0.00000000 0.00000000 0.00000000 15.00000000 0.00000000 0.00000000 0.00000000 15.00000000" energy_frozen_part=0.00000000 Properties=species:S:1:pos:R:3:velocities:R:3:Z:I:1
H         9.36332942       7.91107782       3.07961578         0.00000000       0.00000000       0.00000000          1
H        11.24308156       8.69119800       1.16592308         0.00000000       0.00000000       0.00000000          1
H        10.66277249       5.98301438       1.53097414         0.00000000       0.00000000       0.00000000          1
H        13.13575769       7.00258226       2.33666241         0.00000000       0.00000000       0.00000000          1
H        11.25600096       6.22246390       4.25035374         0.00000000       0.00000000       0.00000000          1
H        11.83631459       8.93064922       3.88530001         0.00000000       0.00000000       0.00000000          1
6
pbc=[F, F, F] list_num_par=6 frozen=false iter=20000 energy=-1.26974174 Lattice="15.00000000 0.00000000 0.00000000 0.00000000 15.00000000 0.00000000 0.00000000 0.00000000 15.00000000" energy_frozen_part=0.00000000 Properties=species:S:1:pos:R:3:velocities:R:3:Z:I:1
H         9.36363748       7.91106941       3.08003577         0.00000000       0.00000000       0.00000000          1
H        11.24358437       8.69163110       1.16671367         0.00000000       0.00000000       0.00000000          1
H        10.66282314       5.98340068       1.53067445         0.00000000       0.00000000       0.00000000          1
H        13.13594505       7.00224389       2.33685505         0.00000000       0.00000000       0.00000000          1
H        11.25599324       6.22167018       4.25017051         0.00000000       0.00000000       0.00000000          1
H        11.83675724       8.92990772       3.88620661         0.00000000       0.00000000       0.00000000          1
6
pbc=[F, F, F] list_num_par=6 frozen=false iter=20000 energy=-1.26974174 Lattice="15.00000000 0.00000000 0.00000000 0.00000000 15.00000000 0.00000000 0.00000000 0.00000000 15.00000000" energy_frozen_part=0.00000000 Properties=species:S:1:pos:R:3:velocities:R:3:Z:I:1
H        12.48222359       5.85368837       2.84240806         0.00000000       0.00000000       0.00000000          1
H        10.22659372       7.12044736       1.78801935         0.00000000       0.00000000       0.00000000          1
H        12.77619759       7.84619038       0.90648147         0.00000000       0.00000000       0.00000000          1
H        13.54870818       8.33808690       3.54571045         0.00000000       0.00000000       0.00000000          1
H        11.29308025       9.60485449       2.49132690         0.00000000       0.00000000       0.00000000          1
H        10.99910675       7.61235218       4.42725157         0.00000000       0.00000000       0.00000000          1
6
pbc=[F, F, F] list_num_par=6 frozen=false iter=20000 energy=-1.26974174 Lattice="15.00000000 0.00000000 0.00000000 0.00000000 15.00000000 0.00000000 0.00000000 0.00000000 15.00000000" energy_frozen_part=0.00000000 Properties=species:S:1:pos:R:3:velocities:R:3:Z:I:1
H         9.36338529       7.91121701       3.07932758         0.00000000       0.00000000       0.00000000          1
H        11.24326098       8.69115724       1.16567941         0.00000000       0.00000000       0.00000000          1
H        10.66264598       5.98303434       1.53068028         0.00000000       0.00000000       0.00000000          1
H        13.13572819       7.00231576       2.33642568         0.00000000       0.00000000       0.00000000          1
H        11.25585007       6.22237528       4.25007944         0.00000000       0.00000000       0.00000000          1
H        11.83646568       8.93050005       3.88507321         0.00000000       0.00000000       0.00000000          1
6
pbc=[F, F, F] list_num_par=6 frozen=false iter=20000 energy=-1.26974174 Lattice="15.00000000 0.00000000 0.00000000 0.00000000 15.00000000 0.00000000 0.00000000 0.00000000 15.00000000" energy_frozen_part=0.00000000 Properties=species:S:1:pos:R:3:velocities:R:3:Z:I:1
H         9.36337255       7.91126235       3.07929642         0.00000000       0.00000000       0.00000000          1
H        11.24326550       8.69118092       1.16565827         0.00000000       0.00000000       0.00000000          1
H        10.66262516       5.98306324       1.53066866         0.00000000       0.00000000       0.00000000          1
H        13.13571317       7.00232145       2.33641529         0.00000000       0.00000000       0.00000000          1
H        11.25582724       6.22240563       4.25006080         0.00000000       0.00000000       0.00000000          1
H        11.83646160       8.93052194       3.88505374         0.00000000       0.00000000       0.00000000          1
6
pbc=[F, F, F] list_num_par=6 frozen=false iter=20000 energy=-1.26974174 Lattice="15.00000000 0.00000000 0.00000000 0.00000000 15.00000000 0.00000000 0.00000000 0.00000000 15.00000000" energy_frozen_part=0.00000000 Properties=species:S:1:pos:R:3:velocities:R:3:Z:I:1
H         9.36359639       7.91107378       3.08001495         0.00000000       0.00000000       0.00000000          1
H        11.24356606       8.69162290       1.16670906         0.00000000       0.00000000       0.00000000          1
H        10.66278575       5.98338772       1.53067846         0.00000000       0.00000000       0.00000000          1
H        13.13590147       7.00222083       2.33687121         0.00000000       0.00000000       0.00000000          1
H        11.25593165       6.22167523       4.25018139         0.00000000       0.00000000       0.00000000          1
H        11.83671547       8.92990133       3.88621241         0.00000000       0.00000000       0.00000000          1
6
pbc=[F, F, F] list_num_par=6 frozen=false iter=20000 energy=-1.26974174 Lattice="15.00000000 0.00000000 0.00000000 0.00000000 15.00000000 0.00000000 0.00000000 0.00000000 15.00000000" energy_frozen_part=0.00000000 Properties=species:S:1:pos:R:3:velocities:R:3:Z:I:1
H         9.36342170       7.91176653       3.08037242         0.00000000       0.00000000       0.00000000          1
H        11.24322868       8.69177482       1.16668423         0.00000000       0.00000000       0.00000000          1
H        10.66209813       5.98368408       1.53111781         0.00000000       0.00000000       0.00000000          1
H        13.13548388       7.00226127       2.33680400         0.00000000       0.00000000       0.00000000          1
H        11.25568309       6.22225479       4.25049350         0.00000000       0.00000000       0.00000000          1
H        11.83680936       8.93035072       3.88606309         0.00000000       0.00000000       0.00000000          1
6
pbc=[F, F, F] list_num_par=6 frozen=false iter=20000 energy=-1.26974174 Lattice="15.00000000 0.00000000 0.00000000 0.00000000 15.00000000 0.00000000 0.00000000 0.00000000 15.00000000" energy_frozen_part=0.00000000 Properties=species:S:1:pos:R:3:velocities:R:3:Z:I:1
H         9.36358882       7.91105697       3.08003323         0.00000000       0.00000000       0.00000000          1
H        11.24354847       8.69163099       1.16672630         0.00000000       0.00000000       0.00000000          1
H        10.66278835       5.98339268       1.53068637         0.00000000       0.00000000       0.00000000          1
H        13.13590118       7.00224782       2.33687862         0.00000000       0.00000000       0.00000000          1
H        11.25594254       6.22167483       4.25018567         0.00000000       0.00000000       0.00000000          1
H        11.83669513       8.92991031       3.88623224         0.00000000       0.00000000       0.00000000          1
6
pbc=[F, F, F] list_num_par=6 frozen=false iter=20000 energy=-1.26974174 Lattice="15.00000000 0.00000000 0.00000000 0.00000000 15.00000000 0.00000000 0.00000000 0.00000000 15.00000000" energy_frozen_part=0.00000000 Properties=species:S:1:pos:R:3:velocities:R:3:Z:I:1
H        12.48227282       5.85366718       2.84241927         0.00000000       0.00000000       0.00000000          1
H        10.22668392       7.12046268       1.78798353         0.00000000       0.00000000       0.00000000          1
H        12.77632520       7.84619550       0.90653640         0.00000000       0.00000000       0.00000000          1
H        13.54875792       8.33805261       3.54579720         0.00000000       0.00000000       0.00000000          1
H        11.29316844       9.60484746       2.49136590         0.00000000       0.00000000       0.00000000          1
H        10.99911601       7.61231982       4.42724737         0.00000000       0.00000000       0.00000000          1
6
pbc=[F, F, F] list_num_par=6 frozen=false iter=20000 energy=-1.26974174 Lattice="15.00000000 0.00000000 0.00000000 0.00000000 15.00000000 0.00000000 0.00000000 0.00000000 15.00000000" energy_frozen_part=0.00000000 Properties=species:S:1:pos:R:3:velocities:R:3:Z:I:1
H         9.36359184       7.91106283       3.08003741         0.00000000       0.00000000       0.00000000          1
H        11.24354920       8.69163423       1.16672485         0.00000000       0.00000000       0.00000000          1
H        10.66278617       5.98339881       1.53068539         0.00000000       0.00000000       0.00000000          1
H        13.13590060       7.00224614       2.33687110         0.00000000       0.00000000       0.00000000          1
H        11.25594742       6.22167546       4.25018739         0.00000000       0.00000000       0.00000000          1
H        11.83670296       8.92990509       3.88622621         0.00000000       0.00000000       0.00000000          1
6
pbc=[F, F, F] list_num_par=6 frozen=false iter=20000 energy=-1.26974174 Lattice="15.00000000 0.00000000 0.00000000 0.00000000 15.00000000 0.00000000 0.00000000 0.00000000 15.00000000" energy_frozen_part=0.00000000 Properties=species:S:1:pos:R:3:velocities:R:3:Z:I:1
H         9.36361838       7.91105558       3.08004340         0.00000000       0.00000000       0.00000000          1
H        11.24355822       8.69164027       1.16672222         0.00000000       0.00000000       0.00000000          1
H        10.66283153       5.98340154       1.53068593         0.00000000       0.00000000       0.00000000          1
H        13.13594202       7.00227522       2.33685698         0.00000000       0.00000000       0.00000000          1
H        11.25600051       6.22169074       4.25017964         0.00000000       0.00000000       0.00000000          1
H        11.83673128       8.92992435       3.88621695         0.00000000       0.00000000       0.00000000          1
6
pbc=[F, F, F] list_num_par=6 frozen=false iter=20000 energy=-1.26974174 Lattice="15.00000000 0.00000000 0.00000000 0.00000000 15.00000000 0.00000000 0.00000000 0.00000000 15.00000000" energy_frozen_part=0.00000000 Properties=species:S:1:pos:R:3:velocities:R:3:Z:I:1
H         9.36356254       7.91171459       3.08035762         0.00000000       0.00000000       0.00000000          1
H        11.24329496       8.69180342       1.16663308         0.00000000       0.00000000       0.00000000          1
H        10.66221124       5.98368854       1.53100365         0.00000000       0.00000000       0.00000000          1
H        13.13560704       7.00227603       2.33665145         0.00000000       0.00000000       0.00000000          1
H        11.25587528       6.22219154       4.25037679         0.00000000       0.00000000       0.00000000          1
H        11.83695806       8.93030041       3.88600527         0.00000000       0.00000000       0.00000000          1
6
pbc=[F, F, F] list_num_par=6 frozen=false iter=20000 energy=-1.26974174 Lattice="15.00000000 0.00000000 0.00000000 0.00000000 15.00000000 0.00000000 0.00000000 0.00000000 15.00000000" energy_frozen_part=0.00000000 Properties=species:S:1:pos:R:3:velocities:R:3:Z:I:1
H        12.47824521       5.85077808       2.84277436         0.00000000       0.00000000       0.00000000          1
H        10.22336872       7.12095791       1.79090298         0.00000000       0.00000000       0.00000000          1
H        12.77324076       7.84478529       0.90856099         0.00000000       0.00000000       0.00000000          1
H        13.54780733       8.33337143       3.54780129         0.00000000       0.00000000       0.00000000          1
H        11.29292949       9.60354897       2.49592430         0.00000000       0.00000000       0.00000000          1
H        10.99794057       7.60953976       4.43014436         0.00000000       0.00000000       0.00000000          1
6
pbc=[F, F, F] list_num_par=6 frozen=false iter=20000 energy=-1.26974174 Lattice="15.00000000 0.00000000 0.00000000 0.00000000 15.00000000 0.00000000 0.00000000 0.00000000 15.00000000" energy_frozen_part=0.00000000 Properties=species:S:1:pos:R:3:velocities:R:3:Z:I:1
H        12.48228097       5.85366353       2.84241525         0.00000000       0.00000000       0.00000000          1
H        10.22669378       7.12045821       1.78797449         0.00000000       0.00000000       0.00000000          1
H        12.77633329       7.84619217       0.90653421         0.00000000       0.00000000       0.00000000          1
H        13.54875800       8.33805046       3.54579630         0.00000000       0.00000000       0.00000000          1
H        11.29316954       9.60484435       2.49136078         0.00000000       0.00000000       0.00000000          1
H        10.99911731       7.61230750       4.42723736         0.00000000       0.00000000       0.00000000          1
6
pbc=[F, F, F] list_num_par=6 frozen=false iter=20000 energy=-1.26974174 Lattice="15.00000000 0.00000000 0.00000000 0.00000000 15.00000000 0.00000000 0.00000000 0.00000000 15.00000000" energy_frozen_part=0.00000000 Properties=species:S:1:pos:R:3:velocities:R:3:Z:I:1
H         9.36362399       7.91106545       3.08002887         0.00000000       0.00000000       0.00000000          1
H        11.24356729       8.69164049       1.16670818         0.00000000       0.00000000       0.00000000          1
H        10.66282918       5.98340598       1.53068289         0.00000000       0.00000000       0.00000000          1
H        13.13593918       7.00227239       2.33685740         0.00000000       0.00000000       0.00000000          1
H        11.25599195       6.22169166       4.25017791         0.00000000       0.00000000       0.00000000          1
H        11.83673556       8.92992465       3.88621009         0.00000000       0.00000000       0.00000000          1
6
pbc=[F, F, F] list_num_par=6 frozen=false iter=20000 energy=-1.26974174 Lattice="15.00000000 0.00000000 0.00000000 0.00000000 15.00000000 0.00000000 0.00000000 0.00000000 15.00000000" energy_frozen_part=0.00000000 Properties=species:S:1:pos:R:3:velocities:R:3:Z:I:1
H         9.36336193       7.91124902       3.07931058         0.00000000       0.00000000       0.00000000          1
H        11.24322775       8.69116647       1.16564448         0.00000000       0.00000000       0.00000000          1
H        10.66262050       5.98304381       1.53068154         0.00000000       0.00000000       0.00000000          1
H        13.13570360       7.00234188       2.33640018         0.00000000       0.00000000       0.00000000          1
H        11.25583641       6.22242002       4.25006977         0.00000000       0.00000000       0.00000000          1
H        11.83644380       8.93053667       3.88503483         0.00000000       0.00000000       0.00000000          1
6
pbc=[F, F, F] list_num_par=6 frozen=false iter=20000 energy=-1.26974174 Lattice="15.00000000 0.00000000 0.00000000 0.00000000 15.00000000 0.00000000 0.00000000 0.00000000 15.00000000" energy_frozen_part=0.00000000 Properties=species:S:1:pos:R:3:velocities:R:3:Z:I:1
H        12.48180745       5.85382743       2.84247526         0.00000000       0.00000000       0.00000000          1
H        10.22656603       7.12097755       1.78772270         0.00000000       0.00000000       0.00000000          1
H        12.77643057       7.84623682       0.90655722         0.00000000       0.00000000       0.00000000          1
H        13.54863892       8.33804880       3.54589636         0.00000000       0.00000000       0.00000000          1
H        11.29339030       9.60519843       2.49114607         0.00000000       0.00000000       0.00000000          1
H        10.99876924       7.61279132       4.42706628         0.00000000       0.00000000       0.00000000          1
6
pbc=[F, F, F] list_num_par=6 frozen=false iter=20000 energy=-1.26974174 Lattice="15.00000000 0.00000000 0.00000000 0.00000000 15.00000000 0.00000000 0.00000000 0.00000000 15.00000000" energy_frozen_part=0.00000000 Properties=species:S:1:pos:R:3:velocities:R:3:Z:I:1
H         9.36355778       7.91172664       3.08036644         0.00000000       0.00000000       0.00000000          1
H        11.24329821       8.69181316       1.16664177         0.00000000       0.00000000       0.00000000          1
H        10.66220261       5.98370430       1.53099801         0.00000000       0.00000000       0.00000000          1
H        13.13560789       7.00227495       2.33665489         0.00000000       0.00000000       0.00000000          1
H        11.25586197       6.22218766       4.25037200         0.00000000       0.00000000       0.00000000          1
H        11.83695984       8.93029639       3.88601761         0.00000000       0.00000000       0.00000000          1
6
pbc=[F, F, F] list_num_par=6 frozen=false iter=20000 energy=-1.26974174 Lattice="15.00000000 0.00000000 0.00000000 0.00000000 15.00000000 0.00000000 0.00000000 0.00000000 15.00000000" energy_frozen_part=0.00000000 Properties=species:S:1:pos:R:3:velocities:R:3:Z:I:1
H         9.36364159       7.91107242       3.08004455         0.00000000       0.00000000       0.00000000          1
H        11.24357734       8.69161719       1.16670806         0.00000000       0.00000000       0.00000000          1
H        10.66281748       5.98338682       1.53069644         0.00000000       0.00000000       0.00000000          1
H        13.13594141       7.00224124       2.33684991         0.00000000       0.00000000       0.00000000          1
H        11.25600074       6.22169096       4.25018470         0.00000000       0.00000000       0.00000000          1
H        11.83676313       8.92992238       3.88619569         0.00000000       0.00000000       0.00000000          1
6
pbc=[F, F, F] list_num_par=6 frozen=false iter=20000 energy=-1.26974174 Lattice="15.00000000 0.00000000 0.00000000 0.00000000 15.00000000 0.00000000 0.00000000 0.00000000 15.00000000" energy_frozen_part=0.00000000 Properties=species:S:1:pos:R:3:velocities:R:3:Z:I:1
H        12.48227222       5.85366494       2.84241675         0.00000000       0.00000000       0.00000000          1
H        10.22668968       7.12046204       1.78796890         0.00000000       0.00000000       0.00000000          1
H        12.77633540       7.84619447       0.90653569         0.00000000       0.00000000       0.00000000          1
H        13.54875297       8.33804448       3.54580107         0.00000000       0.00000000       0.00000000          1
H        11.29316799       9.60484024       2.49135833         0.00000000       0.00000000       0.00000000          1
H        10.99911130       7.61231086       4.42723564         0.00000000       0.00000000       0.00000000          1
6
pbc=[F, F, F] list_num_par=6 frozen=false iter=20000 energy=-1.26974174 Lattice="15.00000000 0.00000000 0.00000000 0.00000000 15.00000000 0.00000000 0.00000000 0.00000000 15.00000000" energy_frozen_part=0.00000000 Properties=species:S:1:pos:R:3:velocities:R:3:Z:I:1
H         9.36339178       7.91121645       3.07925577         0.00000000       0.00000000       0.00000000          1
H        11.24332915       8.69113347       1.16566442         0.00000000       0.00000000       0.00000000          1
H        10.66270858       5.98301072       1.53067655         0.00000000       0.00000000       0.00000000          1
H        13.13575831       7.00230878       2.33650124         0.00000000       0.00000000       0.00000000          1
H        11.25581901       6.22238875       4.25008714         0.00000000       0.00000000       0.00000000          1
H        11.83644479       8.93051135       3.88507873         0.00000000       0.00000000       0.00000000          1
6
pbc=[F, F, F] list_num_par=6 frozen=false iter=20000 energy=-1.26974174 Lattice="15.00000000 0.00000000 0.00000000 0.00000000 15.00000000 0.00000000 0.00000000 0.00000000 15.00000000" energy_frozen_part=0.00000000 Properties=species:S:1:pos:R:3:velocities:R:3:Z:I:1
H         9.36362156       7.91108403       3.08004347         0.00000000       0.00000000       0.00000000          1
H        11.24356075       8.69162537       1.16670760         0.00000000       0.00000000       0.00000000          1
H        10.66281243       5.98339087       1.53072570         0.00000000       0.00000000       0.00000000          1
H        13.13592884       7.00226531       2.33687456         0.00000000       0.00000000       0.00000000          1
H        11.25598801       6.22172124       4.25020919         0.00000000       0.00000000       0.00000000          1
H        11.83673908       8.92995190       3.88619969         0.00000000       0.00000000       0.00000000          1
6
pbc=[F, F, F] list_num_par=6 frozen=false iter=20000 energy=-1.26974174 Lattice="15.00000000 0.00000000 0.00000000 0.00000000 15.00000000 0.00000000 0.00000000 0.00000000 15.00000000" energy_frozen_part=0.00000000 Properties=species:S:1:pos:R:3:velocities:R:3:Z:I:1
H         9.36363064       7.91106584       3.08004484         0.00000000       0.00000000       0.00000000          1
H        11.24357202       8.69163348       1.16671521         0.00000000       0.00000000       0.00000000          1
H        10.66281857       5.98340002       1.53068848         0.00000000       0.00000000       0.00000000          1
H        13.13593541       7.00225682       2.33685101         0.00000000       0.00000000       0.00000000          1
H        11.25599852       6.22168672       4.25017960         0.00000000       0.00000000       0.00000000          1
H        11.83675194       8.92992364       3.88621083         0.00000000       0.00000000       0.00000000          1
6
pbc=[F, F, F] list_num_par=6 frozen=false iter=20000 energy=-1.26974174 Lattice="15.00000000 0.00000000 0.00000000 0.00000000 15.00000000 0.00000000 0.00000000 0.00000000 15.00000000" energy_frozen_part=0.00000000 Properties=species:S:1:pos:R:3:velocities:R:3:Z:I:1
H         9.36341738       7.91119989       3.07923217         0.00000000       0.00000000       0.00000000          1
H        11.24332493       8.69109642       1.16560097         0.00000000       0.00000000       0.00000000          1
H        10.66274576       5.98297886       1.53068919         0.00000000       0.00000000       0.00000000          1
H        13.13579017       7.00232077       2.33645583         0.00000000       0.00000000       0.00000000          1
H        11.25587659       6.22242640       4.25009200         0.00000000       0.00000000       0.00000000          1
H        11.83646495       8.93054722       3.88499743         0.00000000       0.00000000       0.00000000          1
6
pbc=[F, F, F] list_num_par=6 frozen=false iter=20000 energy=-1.26974174 Lattice="15.00000000 0.00000000 0.00000000 0.00000000 15.00000000 0.00000000 0.00000000 0.00000000 15.00000000" energy_frozen_part=0.00000000 Properties=species:S:1:pos:R:3:velocities:R:3:Z:I:1
H         9.36364065       7.91105685       3.08001875         0.00000000       0.00000000       0.00000000          1
H        11.24359252       8.69162030       1.16670483         0.00000000       0.00000000       0.00000000          1
H        10.66283261       5.98338451       1.53067383         0.00000000       0.00000000       0.00000000          1
H        13.13594750       7.00223316       2.33685402         0.00000000       0.00000000       0.00000000          1
H        11.25599647       6.22167777       4.25017274         0.00000000       0.00000000       0.00000000          1
H        11.83675392       8.92991117       3.88619641         0.00000000       0.00000000       0.00000000          1
6
pbc=[F, F, F] list_num_par=6 frozen=false iter=20000 energy=-1.26974174 Lattice="15.00000000 0.00000000 0.00000000 0.00000000 15.00000000 0.00000000 0.00000000 0.00000000 15.00000000" energy_frozen_part=0.00000000 Properties=species:S:1:pos:R:3:velocities:R:3:Z:I:1
H        12.48226976       5.85366714       2.84242231         0.00000000       0.00000000       0.00000000          1
H        10.22668487       7.12046586       1.78797176         0.00000000       0.00000000       0.00000000          1
H        12.77632755       7.84620155       0.90654515         0.00000000       0.00000000       0.00000000          1
H        13.54873980       8.33805112       3.54581219         0.00000000       0.00000000       0.00000000          1
H        11.29315860       9.60484891       2.49136314         0.00000000       0.00000000       0.00000000          1
H        10.99910194       7.61231974       4.42724080         0.00000000       0.00000000       0.00000000          1
6
pbc=[F, F, F] list_num_par=6 frozen=false iter=20000 energy=-1.26974174 Lattice="15.00000000 0.00000000 0.00000000 0.00000000 15.00000000 0.00000000 0.00000000 0.00000000 15.00000000" energy_frozen_part=0.00000000 Properties=species:S:1:pos:R:3:velocities:R:3:Z:I:1
H         9.36358368       7.91106081       3.08003695         0.00000000       0.00000000       0.00000000          1
H        11.24354688       8.69162249       1.16673226         0.00000000       0.00000000       0.00000000          1
H        10.66278218       5.98339199       1.53068982         0.00000000       0.00000000       0.00000000          1
H        13.13589771       7.00223282       2.33688702         0.00000000       0.00000000       0.00000000          1
H        11.25592803       6.22166887       4.25018953         0.00000000       0.00000000       0.00000000          1
H        11.83669742       8.92990500       3.88622808         0.00000000       0.00000000       0.00000000          1
6
pbc=[F, F, F] list_num_par=6 frozen=false iter=20000 energy=-1.26974174 Lattice="15.00000000 0.00000000 0.00000000 0.00000000 15.00000000 0.00000000 0.00000000 0.00000000 15.00000000" energy_frozen_part=0.00000000 Properties=species:S:1:pos:R:3:velocities:R:3:Z:I:1
H         9.36333625       7.91108059       3.07963679         0.00000000       0.00000000       0.00000000          1
H        11.24308275       8.69120466       1.16593914         0.00000000       0.00000000       0.00000000          1
H        10.66277760       5.98301679       1.53097976         0.00000000       0.00000000       0.00000000          1
H        13.13576296       7.00258171       2.33666173         0.00000000       0.00000000       0.00000000          1
H        11.25601585       6.22245075       4.25035824         0.00000000       0.00000000       0.00000000          1
H        11.83632583       8.93063805       3.88532078         0.00000000       0.00000000       0.00000000          1
6
pbc=[F, F, F] list_num_par=6 frozen=false iter=20000 energy=-1.26974174 Lattice="15.00000000 0.00000000 0.00000000 0.00000000 15.00000000 0.00000000 0.00000000 0.00000000 15.00000000" energy_frozen_part=0.00000000 Properties=species:S:1:pos:R:3:velocities:R:3:Z:I:1
H        12.48222523       5.85368483       2.84242738         0.00000000       0.00000000       0.00000000          1
H        10.22660439       7.12045118       1.78801518         0.00000000       0.00000000       0.00000000          1
H        12.77621408       7.84617090       0.90648872         0.00000000       0.00000000       0.00000000          1
H        13.54871385       8.33808726       3.54571974         0.00000000       0.00000000       0.00000000          1
H        11.29309308       9.60485343       2.49131063         0.00000000       0.00000000       0.00000000          1
H        10.99910030       7.61236873       4.42725003         0.00000000       0.00000000       0.00000000          1
6
pbc=[F, F, F] list_num_par=6 frozen=false iter=20000 energy=-1.26974174 Lattice="15.00000000 0.00000000 0.00000000 0.00000000 15.00000000 0.00000000 0.00000000 0.00000000 15.00000000" energy_frozen_part=0.00000000 Properties=species:S:1:pos:R:3:velocities:R:3:Z:I:1
H        12.48222295       5.85369362       2.84243263         0.00000000       0.00000000       0.00000000          1
H        10.22661136       7.12045607       1.78801545         0.00000000       0.00000000       0.00000000          1
H        12.77622595       7.84617908       0.90649432         0.00000000       0.00000000       0.00000000          1
H        13.54870937       8.33809305       3.54573048         0.00000000       0.00000000       0.00000000          1
H        11.29309462       9.60485870       2.49130969         0.00000000       0.00000000       0.00000000          1
H        10.99909546       7.61237086       4.42725038         0.00000000       0.00000000       0.00000000          1
