6
pbc=[F, F, F] list_num_par=6 frozen=false iter=20000 energy=-1.26974174 Lattice="15.00000000 0.00000000 0.00000000 0.00000000 15.00000000 0.00000000 0.00000000 0.00000000 15.00000000" energy_frozen_part=0.00000000 Properties=species:S:1:pos:R:3:velocities:R:3:Z:I:1
H         8.75048668       4.56069677       4.94105224         0.00000000       0.00000000       0.00000000          1
H        10.54764385       2.42611309       5.07554159         0.00000000       0.00000000       0.00000000          1
H        11.84099744       3.65062046       7.22776736         0.00000000       0.00000000       0.00000000          1
H        11.50025995       5.04066089       4.82860890         0.00000000       0.00000000       0.00000000          1
H        10.04383865       5.78520368       7.09328445         0.00000000       0.00000000       0.00000000          1
H         9.09121502       3.17066552       7.34022060         0.00000000       0.00000000       0.00000000          1
6
pbc=[F, F, F] list_num_par=6 frozen=false iter=20000 energy=-1.26974174 Lattice="15.00000000 0.00000000 0.00000000 0.00000000 15.00000000 0.00000000 0.00000000 0.00000000 15.00000000" energy_frozen_part=0.00000000 Properties=species:S:1:pos:R:3:velocities:R:3:Z:I:1
H         8.75042123       4.56070428       4.94109377         0.00000000       0.00000000       0.00000000          1
H        10.54756553       2.42611534       5.07561685         0.00000000       0.00000000       0.00000000          1
H        11.84087434       3.65059624       7.22788159         0.00000000       0.00000000       0.00000000          1
H        11.50020418       5.04064681       4.82871886         0.00000000       0.00000000       0.00000000          1
H        10.04373178       5.78518945       7.09336256         0.00000000       0.00000000       0.00000000          1
H         9.09108271       3.17065439       7.34025749         0.00000000       0.00000000       0.00000000          1
6
pbc=[F, F, F] list_num_par=6 frozen=false iter=20000 energy=-1.26974174 Lattice="15.00000000 0.00000000 0.00000000 0.00000000 15.00000000 0.00000000 0.00000000 0.00000000 15.00000000" energy_frozen_part=0.00000000 Properties=species:S:1:pos:R:3:velocities:R:3:Z:I:1
H         8.75005237       4.56110492       4.94145522         0.00000000       0.00000000       0.00000000          1
H        10.54687546       2.42617517       5.07487919         0.00000000       0.00000000       0.00000000          1
H        11.84080863       3.64971018       7.22731817         0.00000000       0.00000000       0.00000000          1
H        11.49989591       5.04063646       4.82869927         0.00000000       0.00000000       0.00000000          1
H        10.04399096       5.78464112       7.09389045         0.00000000       0.00000000       0.00000000          1
H         9.09096592       3.17017742       7.34006417         0.00000000       0.00000000       0.00000000          1
6
pbc=[F, F, F] list_num_par=6 frozen=false iter=20000 energy=-1.26974174 Lattice="15.00000000 0.00000000 0.00000000 0.00000000 15.00000000 0.00000000 0.00000000 0.00000000 15.00000000" energy_frozen_part=0.00000000 Properties=species:S:1:pos:R:3:velocities:R:3:Z:I:1
H         8.57737508       8.03486460       6.08934244         0.00000000       0.00000000       0.00000000          1
H         5.78509121       7.97822959       6.15427448         0.00000000       0.00000000       0.00000000          1
H         7.13646261      10.41884988       6.30076074         0.00000000       0.00000000       0.00000000          1
H         5.69895607       9.75408001       3.99947056         0.00000000       0.00000000       0.00000000          1
H         7.13987286       7.37009713       3.78804796         0.00000000       0.00000000       0.00000000          1
H         8.49123973       9.81072333       3.93453792         0.00000000       0.00000000       0.00000000          1
6
pbc=[F, F, F] list_num_par=6 frozen=false iter=20000 energy=-1.26974174 Lattice="15.00000000 0.00000000 0.00000000 0.00000000 15.00000000 0.00000000 0.00000000 0.00000000 15.00000000" energy_frozen_part=0.00000000 Properties=species:S:1:pos:R:3:velocities:R:3:Z:I:1
H         8.75045824       4.56068365       4.94107663         0.00000000       0.00000000       0.00000000          1
H        10.54762733       2.42611024       5.07553178         0.00000000       0.00000000       0.00000000          1
H        11.84099420       3.65060751       7.22775127         0.00000000       0.00000000       0.00000000          1
H        11.50023251       5.04066217       4.82860276         0.00000000       0.00000000       0.00000000          1
H        10.04383287       5.78517648       7.09330457         0.00000000       0.00000000       0.00000000          1
H         9.09122129       3.17062699       7.34022859         0.00000000       0.00000000       0.00000000          1
6
pbc=[F, F, F] list_num_par=6 frozen=false iter=20000 energy=-1.26974174 Lattice="15.00000000 0.00000000 0.00000000 0.00000000 15.00000000 0.00000000 0.00000000 0.00000000 15.00000000" energy_frozen_part=0.00000000 Properties=species:S:1:pos:R:3:velocities:R:3:Z:I:1
H         8.75005340       4.56109761       4.94145066         0.00000000       0.00000000       0.00000000          1
H        10.54687722       2.42616908       5.07488364         0.00000000       0.00000000       0.00000000          1
H        11.84080206       3.64971306       7.22732554         0.00000000       0.00000000       0.00000000          1
H        11.49988642       5.04063922       4.82869389         0.00000000       0.00000000       0.00000000          1
H        10.04398517       5.78464204       7.09388593         0.00000000       0.00000000       0.00000000          1
H         9.09096874       3.17017386       7.34007281         0.00000000       0.00000000       0.00000000          1
6
pbc=[F, F, F] list_num_par=6 frozen=false iter=20000 energy=-1.26974174 Lattice="15.00000000 0.00000000 0.00000000 0.00000000 15.00000000 0.00000000 0.00000000 0.00000000 15.00000000" energy_frozen_part=0.00000000 Properties=species:S:1:pos:R:3:velocities:R:3:Z:I:1
H         8.75046409       4.56073858       4.94105855         0.00000000       0.00000000       0.00000000          1
H        10.54757915       2.42613434       5.07559529         0.00000000       0.00000000       0.00000000          1
H        11.84094547       3.65065859       7.22780628         0.00000000       0.00000000       0.00000000          1
H        11.50025462       5.04065168       4.82860915         0.00000000       0.00000000       0.00000000          1
H        10.04382961       5.78526606       7.09326457         0.00000000       0.00000000       0.00000000          1
H         9.09116328       3.17075326       7.34026016         0.00000000       0.00000000       0.00000000          1
6
pbc=[F, F, F] list_num_par=6 frozen=false iter=20000 energy=-1.26974174 Lattice="15.00000000 0.00000000 0.00000000 0.00000000 15.00000000 0.00000000 0.00000000 0.00000000 15.00000000" energy_frozen_part=0.00000000 Properties=species:S:1:pos:R:3:velocities:R:3:Z:I:1
H         8.75159651       4.56034324       4.93980730         0.00000000       0.00000000       0.00000000          1
H        10.54698987       2.42442170       5.07648516         0.00000000       0.00000000       0.00000000          1
H        11.84025705       3.64922055       7.22860289         0.00000000       0.00000000       0.00000000          1
H        11.50180002       5.03804855       4.82841961         0.00000000       0.00000000       0.00000000          1
H        10.04485923       5.78513838       7.09192859         0.00000000       0.00000000       0.00000000          1
H         9.09004135       3.17150749       7.33998833         0.00000000       0.00000000       0.00000000          1
6
pbc=[F, F, F] list_num_par=6 frozen=false iter=20000 energy=-1.26974174 Lattice="15.00000000 0.00000000 0.00000000 0.00000000 15.00000000 0.00000000 0.00000000 0.00000000 15.00000000" energy_frozen_part=0.00000000 Properties=species:S:1:pos:R:3:velocities:R:3:Z:I:1
H         8.75047832       4.56065496       4.94107649         0.00000000       0.00000000       0.00000000          1
H        10.54767322       2.42611251       5.07562042         0.00000000       0.00000000       0.00000000          1
H        11.84095562       3.65066223       7.22786462         0.00000000       0.00000000       0.00000000          1
H        11.50024303       5.04066307       4.82868058         0.00000000       0.00000000       0.00000000          1
H        10.04375925       5.78520408       7.09332180         0.00000000       0.00000000       0.00000000          1
H         9.09118373       3.17064437       7.34025826         0.00000000       0.00000000       0.00000000          1
6
pbc=[F, F, F] list_num_par=6 frozen=false iter=20000 energy=-1.26974174 Lattice="15.00000000 0.00000000 0.00000000 0.00000000 15.00000000 0.00000000 0.00000000 0.00000000 15.00000000" energy_frozen_part=0.00000000 Properties=species:S:1:pos:R:3:velocities:R:3:Z:I:1
H         8.75165774       4.56027861       4.93981952         0.00000000       0.00000000       0.00000000          1
H        10.54704206       2.42436053       5.07654601         0.00000000       0.00000000       0.00000000          1
H        11.84027395       3.64915368       7.22867921         0.00000000       0.00000000       0.00000000          1
H        11.50187768       5.03798447       4.82848763         0.00000000       0.00000000       0.00000000          1
H        10.04488279       5.78507869       7.09196020         0.00000000       0.00000000       0.00000000          1
H         9.09005412       3.17145480       7.34002096         0.00000000       0.00000000       0.00000000          1
6
pbc=[F, F, F] list_num_par=6 frozen=false iter=20000 energy=-1.26974174 Lattice="15.00000000 0.00000000 0.00000000 0.00000000 15.00000000 0.00000000 0.00000000 0.00000000 15.00000000" energy_frozen_part=0.00000000 Properties=species:S:1:pos:R:3:velocities:R:3:Z:I:1
H         8.75157676       4.56027144       4.93981166         0.00000000       0.00000000       0.00000000          1
H        10.54696083       2.42433715       5.07644785         0.00000000       0.00000000       0.00000000          1
H        11.84024507       3.64909355       7.22858176         0.00000000       0.00000000       0.00000000          1
H        11.50179650       5.03796745       4.82842009         0.00000000       0.00000000       0.00000000          1
H        10.04485814       5.78502618       7.09194487         0.00000000       0.00000000       0.00000000          1
H         9.09003446       3.17140293       7.33997423         0.00000000       0.00000000       0.00000000          1
6
pbc=[F, F, F] list_num_par=6 frozen=false iter=20000 energy=-1.26974174 Lattice="15.00000000 0.00000000 0.00000000 0.00000000 15.00000000 0.00000000 0.00000000 0.00000000 15.00000000" energy_frozen_part=0.00000000 Properties=species:S:1:pos:R:3:velocities:R:3:Z:I:1
H         8.75047753       4.56073712       4.94105262         0.00000000       0.00000000       0.00000000          1
H        10.54759721       2.42613186       5.07557970         0.00000000       0.00000000       0.00000000          1
H        11.84095907       3.65064983       7.22779966         0.00000000       0.00000000       0.00000000          1
H        11.50025903       5.04065526       4.82861486         0.00000000       0.00000000       0.00000000          1
H        10.04383435       5.78525147       7.09327054         0.00000000       0.00000000       0.00000000          1
H         9.09116863       3.17072597       7.34023166         0.00000000       0.00000000       0.00000000          1
6
pbc=[F, F, F] list_num_par=6 frozen=false iter=20000 energy=-1.26974174 Lattice="15.00000000 0.00000000 0.00000000 0.00000000 15.00000000 0.00000000 0.00000000 0.00000000 15.00000000" energy_frozen_part=0.00000000 Properties=species:S:1:pos:R:3:velocities:R:3:Z:I:1
H         8.57738951       8.03507083       6.08909280         0.00000000       0.00000000       0.00000000          1
H         5.78512205       7.97793857       6.15441474         0.00000000       0.00000000       0.00000000          1
H         7.13608712      10.41880373       6.30063651         0.00000000       0.00000000       0.00000000          1
H         5.69838638       9.75370009       3.99955379         0.00000000       0.00000000       0.00000000          1
H         7.13969405       7.36997163       3.78802092         0.00000000       0.00000000       0.00000000          1
H         8.49065441       9.81083887       3.93424107         0.00000000       0.00000000       0.00000000          1
6
pbc=[F, F, F] list_num_par=6 frozen=false iter=20000 energy=-1.26974174 Lattice="15.00000000 0.00000000 0.00000000 0.00000000 15.00000000 0.00000000 0.00000000 0.00000000 15.00000000" energy_frozen_part=0.00000000 Properties=species:S:1:pos:R:3:velocities:R:3:Z:I:1
H         8.75041886       4.56067282       4.94107674         0.00000000       0.00000000       0.00000000          1
H        10.54760003       2.42610865       5.07555049         0.00000000       0.00000000       0.00000000          1
H        11.84089427       3.65057291       7.22784511         0.00000000       0.00000000       0.00000000          1
H        11.50018876       5.04066251       4.82870907         0.00000000       0.00000000       0.00000000          1
H        10.04371763       5.78513198       7.09337586         0.00000000       0.00000000       0.00000000          1
H         9.09111774       3.17057903       7.34021349         0.00000000       0.00000000       0.00000000          1
6
pbc=[F, F, F] list_num_par=6 frozen=false iter=20000 energy=-1.26974174 Lattice="15.00000000 0.00000000 0.00000000 0.00000000 15.00000000 0.00000000 0.00000000 0.00000000 15.00000000" energy_frozen_part=0.00000000 Properties=species:S:1:pos:R:3:velocities:R:3:Z:I:1
H         8.75161602       4.56025956       4.93992101         0.00000000       0.00000000       0.00000000          1
H        10.54706765       2.42438157       5.07655103         0.00000000       0.00000000       0.00000000          1
H        11.84032026       3.64918719       7.22866638         0.00000000       0.00000000       0.00000000          1
H        11.50181757       5.03804001       4.82850388         0.00000000       0.00000000       0.00000000          1
H        10.04487461       5.78505958       7.09203227         0.00000000       0.00000000       0.00000000          1
H         9.09012450       3.17140178       7.34008047         0.00000000       0.00000000       0.00000000          1
6
pbc=[F, F, F] list_num_par=6 frozen=false iter=20000 energy=-1.26974174 Lattice="15.00000000 0.00000000 0.00000000 0.00000000 15.00000000 0.00000000 0.00000000 0.00000000 15.00000000" energy_frozen_part=0.00000000 Properties=species:S:1:pos:R:3:velocities:R:3:Z:I:1
H         8.57733112       8.03486910       6.08934616         0.00000000       0.00000000       0.00000000          1
H         5.78504458       7.97824401       6.15425803         0.00000000       0.00000000       0.00000000          1
H         7.13643077      10.41886093       6.30075916         0.00000000       0.00000000       0.00000000          1
H         5.69894076       9.75411198       3.99945419         0.00000000       0.00000000       0.00000000          1
H         7.13983888       7.37012632       3.78802942         0.00000000       0.00000000       0.00000000          1
H         8.49122658       9.81073484       3.93454494         0.00000000       0.00000000       0.00000000          1
6
pbc=[F, F, F] list_num_par=6 frozen=false iter=20000 energy=-1.26974174 Lattice="15.00000000 0.00000000 0.00000000 0.00000000 15.00000000 0.00000000 0.00000000 0.00000000 15.00000000" energy_frozen_part=0.00000000 Properties=species:S:1:pos:R:3:velocities:R:3:Z:I:1
H         8.75050673       4.56074690       4.94103789         0.00000000       0.00000000       0.00000000          1
H        10.54760749       2.42612371       5.07557843         0.00000000       0.00000000       0.00000000          1
H        11.84091335       3.65059356       7.22785329         0.00000000       0.00000000       0.00000000          1
H        11.50028930       5.04064771       4.82868270         0.00000000       0.00000000       0.00000000          1
H        10.04381584       5.78521195       7.09331870         0.00000000       0.00000000       0.00000000          1
H         9.09112116       3.17069477       7.34020628         0.00000000       0.00000000       0.00000000          1
6
pbc=[F, F, F] list_num_par=6 frozen=false iter=20000 energy=-1.26974174 Lattice="15.00000000 0.00000000 0.00000000 0.00000000 15.00000000 0.00000000 0.00000000 0.00000000 15.00000000" energy_frozen_part=0.00000000 Properties=species:S:1:pos:R:3:velocities:R:3:Z:I:1
H         8.75157986       4.56028016       4.93983582         0.00000000       0.00000000       0.00000000          1
H        10.54692518       2.42430811       5.07649915         0.00000000       0.00000000       0.00000000          1
H        11.84025433       3.64907911       7.22859145         0.00000000       0.00000000       0.00000000          1
H        11.50180294       5.03791912       4.82841309         0.00000000       0.00000000       0.00000000          1
H        10.04490194       5.78504873       7.09193291         0.00000000       0.00000000       0.00000000          1
H         9.09003050       3.17144152       7.34001797         0.00000000       0.00000000       0.00000000          1
6
pbc=[F, F, F] list_num_par=6 frozen=false iter=20000 energy=-1.26974174 Lattice="15.00000000 0.00000000 0.00000000 0.00000000 15.00000000 0.00000000 0.00000000 0.00000000 15.00000000" energy_frozen_part=0.00000000 Properties=species:S:1:pos:R:3:velocities:R:3:Z:I:1
H         8.57732428       8.03486401       6.08933153         0.00000000       0.00000000       0.00000000          1
H         5.78504167       7.97825323       6.15424925         0.00000000       0.00000000       0.00000000          1
H         7.13643646      10.41885374       6.30076688         0.00000000       0.00000000       0.00000000          1
H         5.69894854       9.75412732       3.99945440         0.00000000       0.00000000       0.00000000          1
H         7.13982752       7.37012973       3.78802449         0.00000000       0.00000000       0.00000000          1
H         8.49122627       9.81073961       3.93453983         0.00000000       0.00000000       0.00000000          1
6
pbc=[F, F, F] list_num_par=6 frozen=false iter=20000 energy=-1.26974174 Lattice="15.00000000 0.00000000 0.00000000 0.00000000 15.00000000 0.00000000 0.00000000 0.00000000 15.00000000" energy_frozen_part=0.00000000 Properties=species:S:1:pos:R:3:velocities:R:3:Z:I:1
H         8.75048070       4.56073853       4.94105244         0.00000000       0.00000000       0.00000000          1
H        10.54759780       2.42613530       5.07558892         0.00000000       0.00000000       0.00000000          1
H        11.84095581       3.65065510       7.22780927         0.00000000       0.00000000       0.00000000          1
H        11.50027219       5.04065491       4.82862402         0.00000000       0.00000000       0.00000000          1
H        10.04384204       5.78526183       7.09327136         0.00000000       0.00000000       0.00000000          1
H         9.09117272       3.17073711       7.34024238         0.00000000       0.00000000       0.00000000          1
6
pbc=[F, F, F] list_num_par=6 frozen=false iter=20000 energy=-1.26974174 Lattice="15.00000000 0.00000000 0.00000000 0.00000000 15.00000000 0.00000000 0.00000000 0.00000000 15.00000000" energy_frozen_part=0.00000000 Properties=species:S:1:pos:R:3:velocities:R:3:Z:I:1
H         8.57733378       8.03488522       6.08933303         0.00000000       0.00000000       0.00000000          1
H         5.78504467       7.97825389       6.15425075         0.00000000       0.00000000       0.00000000          1
H         7.13643088      10.41886540       6.30074977         0.00000000       0.00000000       0.00000000          1
H         5.69894429       9.75412257       3.99944684         0.00000000       0.00000000       0.00000000          1
H         7.13983660       7.37013205       3.78803005         0.00000000       0.00000000       0.00000000          1
H         8.49122504       9.81074855       3.93452677         0.00000000       0.00000000       0.00000000          1
6
pbc=[F, F, F] list_num_par=6 frozen=false iter=20000 energy=-1.26974174 Lattice="15.00000000 0.00000000 0.00000000 0.00000000 15.00000000 0.00000000 0.00000000 0.00000000 15.00000000" energy_frozen_part=0.00000000 Properties=species:S:1:pos:R:3:velocities:R:3:Z:I:1
H         8.75047447       4.56077164       4.94103981         0.00000000       0.00000000       0.00000000          1
H        10.54757175       2.42614338       5.07554664         0.00000000       0.00000000       0.00000000          1
H        11.84094630       3.65061156       7.22778387         0.00000000       0.00000000       0.00000000          1
H        11.50027681       5.04065234       4.82861342         0.00000000       0.00000000       0.00000000          1
H        10.04384973       5.78524675       7.09327490         0.00000000       0.00000000       0.00000000          1
H         9.09115087       3.17073145       7.34021149         0.00000000       0.00000000       0.00000000          1
6
pbc=[F, F, F] list_num_par=6 frozen=false iter=20000 energy=-1.26974174 Lattice="15.00000000 0.00000000 0.00000000 0.00000000 15.00000000 0.00000000 0.00000000 0.00000000 15.00000000" energy_frozen_part=0.00000000 Properties=species:S:1:pos:R:3:velocities:R:3:Z:I:1
H         8.75047672       4.56068445       4.94107767         0.00000000       0.00000000       0.00000000          1
H        10.54763352       2.42611215       5.07552326         0.00000000       0.00000000       0.00000000          1
H        11.84099823       3.65059718       7.22776361         0.00000000       0.00000000       0.00000000          1
H        11.50025002       5.04065572       4.82861573         0.00000000       0.00000000       0.00000000          1
H        10.04383440       5.78516774       7.09331589         0.00000000       0.00000000       0.00000000          1
H         9.09122235       3.17061718       7.34021588         0.00000000       0.00000000       0.00000000          1
6
pbc=[F, F, F] list_num_par=6 frozen=false iter=20000 energy=-1.26974174 Lattice="15.00000000 0.00000000 0.00000000 0.00000000 15.00000000 0.00000000 0.00000000 0.00000000 15.00000000" energy_frozen_part=0.00000000 Properties=species:S:1:pos:R:3:velocities:R:3:Z:I:1
H         8.57732657       8.03486687       6.08933841         0.00000000       0.00000000       0.00000000          1
H         5.78504223       7.97824981       6.15425182         0.00000000       0.00000000       0.00000000          1
H         7.13643425      10.41885792       6.30075139         0.00000000       0.00000000       0.00000000          1
H         5.69894596       9.75412042       3.99945221         0.00000000       0.00000000       0.00000000          1
H         7.13983621       7.37012781       3.78803139         0.00000000       0.00000000       0.00000000          1
H         8.49123526       9.81073587       3.93453824         0.00000000       0.00000000       0.00000000          1
6
pbc=[F, F, F] list_num_par=6 frozen=false iter=20000 energy=-1.26974174 Lattice="15.00000000 0.00000000 0.00000000 0.00000000 15.00000000 0.00000000 0.00000000 0.00000000 15.00000000" energy_frozen_part=0.00000000 Properties=species:S:1:pos:R:3:velocities:R:3:Z:I:1
H         8.57734250       8.03489261       6.08933990         0.00000000       0.00000000       0.00000000          1
H         5.78505119       7.97826309       6.15426257         0.00000000       0.00000000       0.00000000          1
H         7.13643843      10.41887632       6.30076857         0.00000000       0.00000000       0.00000000          1
H         5.69893467       9.75413755       3.99946914         0.00000000       0.00000000       0.00000000          1
H         7.13983530       7.37015009       3.78804500         0.00000000       0.00000000       0.00000000          1
H         8.49122167       9.81075976       3.93454191         0.00000000       0.00000000       0.00000000          1
6
pbc=[F, F, F] list_num_par=6 frozen=false iter=20000 energy=-1.26974174 Lattice="15.00000000 0.00000000 0.00000000 0.00000000 15.00000000 0.00000000 0.00000000 0.00000000 15.00000000" energy_frozen_part=0.00000000 Properties=species:S:1:pos:R:3:velocities:R:3:Z:I:1
H         8.75165367       4.56028683       4.93981239         0.00000000       0.00000000       0.00000000          1
H        10.54703555       2.42435741       5.07653307         0.00000000       0.00000000       0.00000000          1
H        11.84026339       3.64915472       7.22867940         0.00000000       0.00000000       0.00000000          1
H        11.50186998       5.03797409       4.82848062         0.00000000       0.00000000       0.00000000          1
H        10.04488615       5.78508980       7.09195477         0.00000000       0.00000000       0.00000000          1
H         9.09005044       3.17146200       7.34000884         0.00000000       0.00000000       0.00000000          1
6
pbc=[F, F, F] list_num_par=6 frozen=false iter=20000 energy=-1.26974174 Lattice="15.00000000 0.00000000 0.00000000 0.00000000 15.00000000 0.00000000 0.00000000 0.00000000 15.00000000" energy_frozen_part=0.00000000 Properties=species:S:1:pos:R:3:velocities:R:3:Z:I:1
H         8.57741072       8.03509981       6.08909877         0.00000000       0.00000000       0.00000000          1
H         5.78514458       7.97789710       6.15440076         0.00000000       0.00000000       0.00000000          1
H         7.13604412      10.41879175       6.30063156         0.00000000       0.00000000       0.00000000          1
H         5.69836169       9.75367645       3.99954690         0.00000000       0.00000000       0.00000000          1
H         7.13973320       7.36998567       3.78801103         0.00000000       0.00000000       0.00000000          1
H         8.49063557       9.81087513       3.93424304         0.00000000       0.00000000       0.00000000          1
6
pbc=[F, F, F] list_num_par=6 frozen=false iter=20000 energy=-1.26974174 Lattice="15.00000000 0.00000000 0.00000000 0.00000000 15.00000000 0.00000000 0.00000000 0.00000000 15.00000000" energy_frozen_part=0.00000000 Properties=species:S:1:pos:R:3:velocities:R:3:Z:I:1
H         8.75048538       4.56073224       4.94103102         0.00000000       0.00000000       0.00000000          1
H        10.54759785       2.42611625       5.07557866         0.00000000       0.00000000       0.00000000          1
H        11.84094334       3.65064109       7.22780845         0.00000000       0.00000000       0.00000000          1
H        11.50027509       5.04063368       4.82860986         0.00000000       0.00000000       0.00000000          1
H        10.04383088       5.78526199       7.09325231         0.00000000       0.00000000       0.00000000          1
H         9.09115891       3.17073562       7.34022399         0.00000000       0.00000000       0.00000000          1
6
pbc=[F, F, F] list_num_par=6 frozen=false iter=20000 energy=-1.26974174 Lattice="15.00000000 0.00000000 0.00000000 0.00000000 15.00000000 0.00000000 0.00000000 0.00000000 15.00000000" energy_frozen_part=0.00000000 Properties=species:S:1:pos:R:3:velocities:R:3:Z:I:1
H         8.75047290       4.56074840       4.94106096         0.00000000       0.00000000       0.00000000          1
H        10.54759572       2.42614000       5.07557187         0.00000000       0.00000000       0.00000000          1
H        11.84096232       3.65064698       7.22780214         0.00000000       0.00000000       0.00000000          1
H        11.50025768       5.04065663       4.82862398         0.00000000       0.00000000       0.00000000          1
H        10.04383482       5.78524873       7.09329118         0.00000000       0.00000000       0.00000000          1
H         9.09117487       3.17072636       7.34023160         0.00000000       0.00000000       0.00000000          1
6
pbc=[F, F, F] list_num_par=6 frozen=false iter=20000 energy=-1.26974174 Lattice="15.00000000 0.00000000 0.00000000 0.00000000 15.00000000 0.00000000 0.00000000 0.00000000 15.00000000" energy_frozen_part=0.00000000 Properties=species:S:1:pos:R:3:velocities:R:3:Z:I:1
H         8.75041731       4.56066708       4.94107903         0.00000000       0.00000000       0.00000000          1
H        10.54758888       2.42610171       5.07555084         0.00000000       0.00000000       0.00000000          1
H        11.84088100       3.65057218       7.22785374         0.00000000       0.00000000       0.00000000          1
H        11.50019214       5.04065834       4.82871386         0.00000000       0.00000000       0.00000000          1
H        10.04370530       5.78513110       7.09337181         0.00000000       0.00000000       0.00000000          1
H         9.09111024       3.17056918       7.34021467         0.00000000       0.00000000       0.00000000          1
6
pbc=[F, F, F] list_num_par=6 frozen=false iter=20000 energy=-1.26974174 Lattice="15.00000000 0.00000000 0.00000000 0.00000000 15.00000000 0.00000000 0.00000000 0.00000000 15.00000000" energy_frozen_part=0.00000000 Properties=species:S:1:pos:R:3:velocities:R:3:Z:I:1
H         8.75158067       4.56027467       4.93985045         0.00000000       0.00000000       0.00000000          1
H        10.54692482       2.42430918       5.07648339         0.00000000       0.00000000       0.00000000          1
H        11.84024625       3.64905640       7.22860027         0.00000000       0.00000000       0.00000000          1
H        11.50181101       5.03791693       4.82842919         0.00000000       0.00000000       0.00000000          1
H        10.04490618       5.78502957       7.09194999         0.00000000       0.00000000       0.00000000          1
H         9.09002547       3.17141500       7.34001649         0.00000000       0.00000000       0.00000000          1
6
pbc=[F, F, F] list_num_par=6 frozen=false iter=20000 energy=-1.26974174 Lattice="15.00000000 0.00000000 0.00000000 0.00000000 15.00000000 0.00000000 0.00000000 0.00000000 15.00000000" energy_frozen_part=0.00000000 Properties=species:S:1:pos:R:3:velocities:R:3:Z:I:1
H         8.75048157       4.56080545       4.94105528         0.00000000       0.00000000       0.00000000          1
H        10.54757478       2.42617531       5.07556612         0.00000000       0.00000000       0.00000000          1
H        11.84088432       3.65061698       7.22785812         0.00000000       0.00000000       0.00000000          1
H        11.50028295       5.04069192       4.82870155         0.00000000       0.00000000       0.00000000          1
H        10.04379840       5.78524693       7.09334099         0.00000000       0.00000000       0.00000000          1
H         9.09109240       3.17072479       7.34020537         0.00000000       0.00000000       0.00000000          1
6
pbc=[F, F, F] list_num_par=6 frozen=false iter=20000 energy=-1.26974174 Lattice="15.00000000 0.00000000 0.00000000 0.00000000 15.00000000 0.00000000 0.00000000 0.00000000 15.00000000" energy_frozen_part=0.00000000 Properties=species:S:1:pos:R:3:velocities:R:3:Z:I:1
H         8.57732501       8.03487192       6.08933766         0.00000000       0.00000000       0.00000000          1
H         5.78504117       7.97826827       6.15426686         0.00000000       0.00000000       0.00000000          1
H         7.13643878      10.41886772       6.30076115         0.00000000       0.00000000       0.00000000          1
H         5.69894232       9.75412841       3.99945389         0.00000000       0.00000000       0.00000000          1
H         7.13982263       7.37012609       3.78803678         0.00000000       0.00000000       0.00000000          1
H         8.49122243       9.81072864       3.93453209         0.00000000       0.00000000       0.00000000          1
6
pbc=[F, F, F] list_num_par=6 frozen=false iter=20000 energy=-1.26974174 Lattice="15.00000000 0.00000000 0.00000000 0.00000000 15.00000000 0.00000000 0.00000000 0.00000000 15.00000000" energy_frozen_part=0.00000000 Properties=species:S:1:pos:R:3:velocities:R:3:Z:I:1
H         8.57733835       8.03488129       6.08935145         0.00000000       0.00000000       0.00000000          1
H         5.78505077       7.97825184       6.15425712         0.00000000       0.00000000       0.00000000          1
H         7.13644279      10.41886325       6.30075424         0.00000000       0.00000000       0.00000000          1
H         5.69894961       9.75411855       3.99945278         0.00000000       0.00000000       0.00000000          1
H         7.13985168       7.37013323       3.78803669         0.00000000       0.00000000       0.00000000          1
H         8.49123717       9.81073944       3.93453828         0.00000000       0.00000000       0.00000000          1
6
pbc=[F, F, F] list_num_par=6 frozen=false iter=20000 energy=-1.26974174 Lattice="15.00000000 0.00000000 0.00000000 0.00000000 15.00000000 0.00000000 0.00000000 0.00000000 15.00000000" energy_frozen_part=0.00000000 Properties=species:S:1:pos:R:3:velocities:R:3:Z:I:1
H         8.74999529       4.56107790       4.94146309         0.00000000       0.00000000       0.00000000          1
H        10.54683701       2.42617090       5.07488168         0.00000000       0.00000000       0.00000000          1
H        11.84077938       3.64972274       7.22730003         0.00000000       0.00000000       0.00000000          1
H        11.49983231       5.04064871       4.82867433         0.00000000       0.00000000       0.00000000          1
H        10.04394036       5.78463085       7.09388017         0.00000000       0.00000000       0.00000000          1
H         9.09094491       3.17015570       7.34007985         0.00000000       0.00000000       0.00000000          1
6
pbc=[F, F, F] list_num_par=6 frozen=false iter=20000 energy=-1.26974174 Lattice="15.00000000 0.00000000 0.00000000 0.00000000 15.00000000 0.00000000 0.00000000 0.00000000 15.00000000" energy_frozen_part=0.00000000 Properties=species:S:1:pos:R:3:velocities:R:3:Z:I:1
H         8.57731618       8.03489754       6.08933825         0.00000000       0.00000000       0.00000000          1
H         5.78503284       7.97826769       6.15423622         0.00000000       0.00000000       0.00000000          1
H         7.13641644      10.41888386       6.30075381         0.00000000       0.00000000       0.00000000          1
H         5.69893710       9.75413335       3.99943403         0.00000000       0.00000000       0.00000000          1
H         7.13983615       7.37015126       3.78802313         0.00000000       0.00000000       0.00000000          1
H         8.49122580       9.81076198       3.93454276         0.00000000       0.00000000       0.00000000          1
6
pbc=[F, F, F] list_num_par=6 frozen=false iter=20000 energy=-1.26974174 Lattice="15.00000000 0.00000000 0.00000000 0.00000000 15.00000000 0.00000000 0.00000000 0.00000000 15.00000000" energy_frozen_part=0.00000000 Properties=species:S:1:pos:R:3:velocities:R:3:Z:I:1
H         8.75048848       4.56076790       4.94103704         0.00000000       0.00000000       0.00000000          1
H        10.54757450       2.42613085       5.07556147         0.00000000       0.00000000       0.00000000          1
H        11.84094231       3.65061378       7.22779988         0.00000000       0.00000000       0.00000000          1
H        11.50028007       5.04064740       4.82861728         0.00000000       0.00000000       0.00000000          1
H        10.04385806       5.78524965       7.09327567         0.00000000       0.00000000       0.00000000          1
H         9.09115032       3.17073788       7.34022074         0.00000000       0.00000000       0.00000000          1
6
pbc=[F, F, F] list_num_par=6 frozen=false iter=20000 energy=-1.26974174 Lattice="15.00000000 0.00000000 0.00000000 0.00000000 15.00000000 0.00000000 0.00000000 0.00000000 15.00000000" energy_frozen_part=0.00000000 Properties=species:S:1:pos:R:3:velocities:R:3:Z:I:1
H         8.75007722       4.56112447       4.94143733         0.00000000       0.00000000       0.00000000          1
H        10.54685237       2.42616582       5.07491432         0.00000000       0.00000000       0.00000000          1
H        11.84078215       3.64970185       7.22735864         0.00000000       0.00000000       0.00000000          1
H        11.49993142       5.04061232       4.82872130         0.00000000       0.00000000       0.00000000          1
H        10.04400626       5.78466014       7.09387888         0.00000000       0.00000000       0.00000000          1
H         9.09093302       3.17021462       7.34008465         0.00000000       0.00000000       0.00000000          1
6
pbc=[F, F, F] list_num_par=6 frozen=false iter=20000 energy=-1.26974174 Lattice="15.00000000 0.00000000 0.00000000 0.00000000 15.00000000 0.00000000 0.00000000 0.00000000 15.00000000" energy_frozen_part=0.00000000 Properties=species:S:1:pos:R:3:velocities:R:3:Z:I:1
H         8.75049655       4.56073324       4.94103285         0.00000000       0.00000000       0.00000000          1
H        10.54760603       2.42611853       5.07557214         0.00000000       0.00000000       0.00000000          1
H        11.84093286       3.65061956       7.22782024         0.00000000       0.00000000       0.00000000          1
H        11.50028404       5.04063774       4.82863727         0.00000000       0.00000000       0.00000000          1
H        10.04382403       5.78522393       7.09328222         0.00000000       0.00000000       0.00000000          1
H         9.09114898       3.17070445       7.34021603         0.00000000       0.00000000       0.00000000          1
6
pbc=[F, F, F] list_num_par=6 frozen=false iter=20000 energy=-1.26974174 Lattice="15.00000000 0.00000000 0.00000000 0.00000000 15.00000000 0.00000000 0.00000000 0.00000000 15.00000000" energy_frozen_part=0.00000000 Properties=species:S:1:pos:R:3:velocities:R:3:Z:I:1
H         8.57736868       8.03487199       6.08934437         0.00000000       0.00000000       0.00000000          1
H         5.78507860       7.97822708       6.15427103         0.00000000       0.00000000       0.00000000          1
H         7.13644412      10.41884660       6.30076215         0.00000000       0.00000000       0.00000000          1
H         5.69894620       9.75407762       3.99946223         0.00000000       0.00000000       0.00000000          1
H         7.13986994       7.37010410       3.78804643         0.00000000       0.00000000       0.00000000          1
H         8.49123665       9.81072538       3.93452922         0.00000000       0.00000000       0.00000000          1
6
pbc=[F, F, F] list_num_par=6 frozen=false iter=20000 energy=-1.26974174 Lattice="15.00000000 0.00000000 0.00000000 0.00000000 15.00000000 0.00000000 0.00000000 0.00000000 15.00000000" energy_frozen_part=0.00000000 Properties=species:S:1:pos:R:3:velocities:R:3:Z:I:1
H         8.75005244       4.56108417       4.94146405         0.00000000       0.00000000       0.00000000          1
H        10.54687428       2.42616494       5.07489552         0.00000000       0.00000000       0.00000000          1
H        11.84080484       3.64970443       7.22733458         0.00000000       0.00000000       0.00000000          1
H        11.49988748       5.04063956       4.82871911         0.00000000       0.00000000       0.00000000          1
H        10.04397370       5.78462918       7.09390201         0.00000000       0.00000000       0.00000000          1
H         9.09097254       3.17016003       7.34008630         0.00000000       0.00000000       0.00000000          1
6
pbc=[F, F, F] list_num_par=6 frozen=false iter=20000 energy=-1.26974174 Lattice="15.00000000 0.00000000 0.00000000 0.00000000 15.00000000 0.00000000 0.00000000 0.00000000 15.00000000" energy_frozen_part=0.00000000 Properties=species:S:1:pos:R:3:velocities:R:3:Z:I:1
H         8.75043629       4.56066791       4.94107631         0.00000000       0.00000000       0.00000000          1
H        10.54761650       2.42610737       5.07556433         0.00000000       0.00000000       0.00000000          1
H        11.84089485       3.65057698       7.22786348         0.00000000       0.00000000       0.00000000          1
H        11.50021016       5.04066368       4.82872160         0.00000000       0.00000000       0.00000000          1
H        10.04372175       5.78514164       7.09337282         0.00000000       0.00000000       0.00000000          1
H         9.09112445       3.17057725       7.34022113         0.00000000       0.00000000       0.00000000          1
6
pbc=[F, F, F] list_num_par=6 frozen=false iter=20000 energy=-1.26974174 Lattice="15.00000000 0.00000000 0.00000000 0.00000000 15.00000000 0.00000000 0.00000000 0.00000000 15.00000000" energy_frozen_part=0.00000000 Properties=species:S:1:pos:R:3:velocities:R:3:Z:I:1
H         8.75157104       4.56026582       4.93985579         0.00000000       0.00000000       0.00000000          1
H        10.54691990       2.42429979       5.07647691         0.00000000       0.00000000       0.00000000          1
H        11.84026723       3.64904972       7.22856935         0.00000000       0.00000000       0.00000000          1
H        11.50179202       5.03791011       4.82840670         0.00000000       0.00000000       0.00000000          1
H        10.04491670       5.78501257       7.09196001         0.00000000       0.00000000       0.00000000          1
H         9.09003942       3.17140246       7.34001309         0.00000000       0.00000000       0.00000000          1
6
pbc=[F, F, F] list_num_par=6 frozen=false iter=20000 energy=-1.26974174 Lattice="15.00000000 0.00000000 0.00000000 0.00000000 15.00000000 0.00000000 0.00000000 0.00000000 15.00000000" energy_frozen_part=0.00000000 Properties=species:S:1:pos:R:3:velocities:R:3:Z:I:1
H         8.75048242       4.56073755       4.94102620         0.00000000       0.00000000       0.00000000          1
H        10.54759407       2.42612319       5.07558000         0.00000000       0.00000000       0.00000000          1
H        11.84094495       3.65064627       7.22780244         0.00000000       0.00000000       0.00000000          1
H        11.50027064       5.04063332       4.82860633         0.00000000       0.00000000       0.00000000          1
H        10.04383763       5.78526958       7.09325068         0.00000000       0.00000000       0.00000000          1
H         9.09115521       3.17074930       7.34022241         0.00000000       0.00000000       0.00000000          1
6
pbc=[F, F, F] list_num_par=6 frozen=false iter=20000 energy=-1.26974174 Lattice="15.00000000 0.00000000 0.00000000 0.00000000 15.00000000 0.00000000 0.00000000 0.00000000 15.00000000" energy_frozen_part=0.00000000 Properties=species:S:1:pos:R:3:velocities:R:3:Z:I:1
H         8.75006539       4.56108520       4.94143270         0.00000000       0.00000000       0.00000000          1
H        10.54686946       2.42614514       5.07488534         0.00000000       0.00000000       0.00000000          1
H        11.84080461       3.64968483       7.22731839         0.00000000       0.00000000       0.00000000          1
H        11.49990790       5.04059782       4.82868781         0.00000000       0.00000000       0.00000000          1
H        10.04399877       5.78461836       7.09386441         0.00000000       0.00000000       0.00000000          1
H         9.09096032       3.17015923       7.34005774         0.00000000       0.00000000       0.00000000          1
6
pbc=[F, F, F] list_num_par=6 frozen=false iter=20000 energy=-1.26974174 Lattice="15.00000000 0.00000000 0.00000000 0.00000000 15.00000000 0.00000000 0.00000000 0.00000000 15.00000000" energy_frozen_part=0.00000000 Properties=species:S:1:pos:R:3:velocities:R:3:Z:I:1
H         8.57731771       8.03486628       6.08934179         0.00000000       0.00000000       0.00000000          1
H         5.78502393       7.97826433       6.15426440         0.00000000       0.00000000       0.00000000          1
H         7.13644028      10.41886323       6.30077019         0.00000000       0.00000000       0.00000000          1
H         5.69893436       9.75412955       3.99946858         0.00000000       0.00000000       0.00000000          1
H         7.13981516       7.37013100       3.78804050         0.00000000       0.00000000       0.00000000          1
H         8.49122388       9.81073240       3.93454478         0.00000000       0.00000000       0.00000000          1
6
pbc=[F, F, F] list_num_par=6 frozen=false iter=20000 energy=-1.26974174 Lattice="15.00000000 0.00000000 0.00000000 0.00000000 15.00000000 0.00000000 0.00000000 0.00000000 15.00000000" energy_frozen_part=0.00000000 Properties=species:S:1:pos:R:3:velocities:R:3:Z:I:1
H         8.75047690       4.56074222       4.94102866         0.00000000       0.00000000       0.00000000          1
H        10.54760517       2.42613944       5.07555944         0.00000000       0.00000000       0.00000000          1
H        11.84096666       3.65065294       7.22778046         0.00000000       0.00000000       0.00000000          1
H        11.50026904       5.04065216       4.82859350         0.00000000       0.00000000       0.00000000          1
H        10.04384594       5.78526295       7.09324672         0.00000000       0.00000000       0.00000000          1
H         9.09118304       3.17074194       7.34022096         0.00000000       0.00000000       0.00000000          1
6
pbc=[F, F, F] list_num_par=6 frozen=false iter=20000 energy=-1.26974174 Lattice="15.00000000 0.00000000 0.00000000 0.00000000 15.00000000 0.00000000 0.00000000 0.00000000 15.00000000" energy_frozen_part=0.00000000 Properties=species:S:1:pos:R:3:velocities:R:3:Z:I:1
H         8.75046707       4.56074982       4.94106018         0.00000000       0.00000000       0.00000000          1
H        10.54758439       2.42613178       5.07557625         0.00000000       0.00000000       0.00000000          1
H        11.84095091       3.65063669       7.22780491         0.00000000       0.00000000       0.00000000          1
H        11.50025251       5.04065211       4.82862653         0.00000000       0.00000000       0.00000000          1
H        10.04383572       5.78524333       7.09329404         0.00000000       0.00000000       0.00000000          1
H         9.09116273       3.17072817       7.34023195         0.00000000       0.00000000       0.00000000          1
6
pbc=[F, F, F] list_num_par=6 frozen=false iter=20000 energy=-1.26974174 Lattice="15.00000000 0.00000000 0.00000000 0.00000000 15.00000000 0.00000000 0.00000000 0.00000000 15.00000000" energy_frozen_part=0.00000000 Properties=species:S:1:pos:R:3:velocities:R:3:Z:I:1
H         8.57732877       8.03486529       6.08934510         0.00000000       0.00000000       0.00000000          1
H         5.78504316       7.97826288       6.15428118         0.00000000       0.00000000       0.00000000          1
H         7.13644914      10.41885908       6.30077305         0.00000000       0.00000000       0.00000000          1
H         5.69894241       9.75412736       3.99947188         0.00000000       0.00000000       0.00000000          1
H         7.13981711       7.37013503       3.78804218         0.00000000       0.00000000       0.00000000          1
H         8.49122867       9.81073004       3.93454392         0.00000000       0.00000000       0.00000000          1
6
pbc=[F, F, F] list_num_par=6 frozen=false iter=20000 energy=-1.26974174 Lattice="15.00000000 0.00000000 0.00000000 0.00000000 15.00000000 0.00000000 0.00000000 0.00000000 15.00000000" energy_frozen_part=0.00000000 Properties=species:S:1:pos:R:3:velocities:R:3:Z:I:1
H         8.57739959       8.03510205       6.08908774         0.00000000       0.00000000       0.00000000          1
H         5.78512789       7.97790666       6.15439574         0.00000000       0.00000000       0.00000000          1
H         7.13603669      10.41879777       6.30062640         0.00000000       0.00000000       0.00000000          1
H         5.69836530       9.75368149       3.99954055         0.00000000       0.00000000       0.00000000          1
H         7.13972550       7.36998446       3.78801250         0.00000000       0.00000000       0.00000000          1
H         8.49063469       9.81087473       3.93424031         0.00000000       0.00000000       0.00000000          1
6
pbc=[F, F, F] list_num_par=6 frozen=false iter=20000 energy=-1.26974174 Lattice="15.00000000 0.00000000 0.00000000 0.00000000 15.00000000 0.00000000 0.00000000 0.00000000 15.00000000" energy_frozen_part=0.00000000 Properties=species:S:1:pos:R:3:velocities:R:3:Z:I:1
H         8.75002887       4.56106200       4.94142457         0.00000000       0.00000000       0.00000000          1
H        10.54686092       2.42614612       5.07487550         0.00000000       0.00000000       0.00000000          1
H        11.84079478       3.64971467       7.22728837         0.00000000       0.00000000       0.00000000          1
H        11.49985877       5.04062163       4.82865196         0.00000000       0.00000000       0.00000000          1
H        10.04396164       5.78462722       7.09384174         0.00000000       0.00000000       0.00000000          1
H         9.09095399       3.17015873       7.34006196         0.00000000       0.00000000       0.00000000          1
6
pbc=[F, F, F] list_num_par=6 frozen=false iter=20000 energy=-1.26974174 Lattice="15.00000000 0.00000000 0.00000000 0.00000000 15.00000000 0.00000000 0.00000000 0.00000000 15.00000000" energy_frozen_part=0.00000000 Properties=species:S:1:pos:R:3:velocities:R:3:Z:I:1
H         8.75048908       4.56075517       4.94104965         0.00000000       0.00000000       0.00000000          1
H        10.54758510       2.42613727       5.07556686         0.00000000       0.00000000       0.00000000          1
H        11.84094894       3.65062206       7.22780749         0.00000000       0.00000000       0.00000000          1
H        11.50028375       5.04064771       4.82862259         0.00000000       0.00000000       0.00000000          1
H        10.04385284       5.78524969       7.09327854         0.00000000       0.00000000       0.00000000          1
H         9.09116140       3.17073765       7.34023310         0.00000000       0.00000000       0.00000000          1
6
pbc=[F, F, F] list_num_par=6 frozen=false iter=20000 energy=-1.26974174 Lattice="15.00000000 0.00000000 0.00000000 0.00000000 15.00000000 0.00000000 0.00000000 0.00000000 15.00000000" energy_frozen_part=0.00000000 Properties=species:S:1:pos:R:3:velocities:R:3:Z:I:1
H         8.75042686       4.56068614       4.94108590         0.00000000       0.00000000       0.00000000          1
H        10.54758682       2.42610945       5.07559281         0.00000000       0.00000000       0.00000000          1
H        11.84089306       3.65059118       7.22786468         0.00000000       0.00000000       0.00000000          1
H        11.50020070       5.04065755       4.82870549         0.00000000       0.00000000       0.00000000          1
H        10.04373100       5.78517372       7.09336476         0.00000000       0.00000000       0.00000000          1
H         9.09111378       3.17062809       7.34024528         0.00000000       0.00000000       0.00000000          1
6
pbc=[F, F, F] list_num_par=6 frozen=false iter=20000 energy=-1.26974174 Lattice="15.00000000 0.00000000 0.00000000 0.00000000 15.00000000 0.00000000 0.00000000 0.00000000 15.00000000" energy_frozen_part=0.00000000 Properties=species:S:1:pos:R:3:velocities:R:3:Z:I:1
H         8.75159465       4.56034231       4.93980300         0.00000000       0.00000000       0.00000000          1
H        10.54698385       2.42441839       5.07648486         0.00000000       0.00000000       0.00000000          1
H        11.84025118       3.64921342       7.22860438         0.00000000       0.00000000       0.00000000          1
H        11.50181377       5.03805475       4.82843108         0.00000000       0.00000000       0.00000000          1
H        10.04485928       5.78513616       7.09193021         0.00000000       0.00000000       0.00000000          1
H         9.09003672       3.17150504       7.33998689         0.00000000       0.00000000       0.00000000          1
6
pbc=[F, F, F] list_num_par=6 frozen=false iter=20000 energy=-1.26974174 Lattice="15.00000000 0.00000000 0.00000000 0.00000000 15.00000000 0.00000000 0.00000000 0.00000000 15.00000000" energy_frozen_part=0.00000000 Properties=species:S:1:pos:R:3:velocities:R:3:Z:I:1
H         8.57738976       8.03506020       6.08910139         0.00000000       0.00000000       0.00000000          1
H         5.78511709       7.97793967       6.15442232         0.00000000       0.00000000       0.00000000          1
H         7.13608596      10.41879691       6.30062427         0.00000000       0.00000000       0.00000000          1
H         5.69838389       9.75369819       3.99955194         0.00000000       0.00000000       0.00000000          1
H         7.13968151       7.36996581       3.78803533         0.00000000       0.00000000       0.00000000          1
H         8.49065015       9.81081955       3.93423950         0.00000000       0.00000000       0.00000000          1
6
pbc=[F, F, F] list_num_par=6 frozen=false iter=20000 energy=-1.26974174 Lattice="15.00000000 0.00000000 0.00000000 0.00000000 15.00000000 0.00000000 0.00000000 0.00000000 15.00000000" energy_frozen_part=0.00000000 Properties=species:S:1:pos:R:3:velocities:R:3:Z:I:1
H         8.75050905       4.56075116       4.94104350         0.00000000       0.00000000       0.00000000          1
H        10.54761719       2.42613342       5.07556830         0.00000000       0.00000000       0.00000000          1
H        11.84092301       3.65059199       7.22785669         0.00000000       0.00000000       0.00000000          1
H        11.50029270       5.04065837       4.82869561         0.00000000       0.00000000       0.00000000          1
H        10.04381718       5.78521795       7.09332872         0.00000000       0.00000000       0.00000000          1
H         9.09113234       3.17069045       7.34020653         0.00000000       0.00000000       0.00000000          1
6
pbc=[F, F, F] list_num_par=6 frozen=false iter=20000 energy=-1.26974174 Lattice="15.00000000 0.00000000 0.00000000 0.00000000 15.00000000 0.00000000 0.00000000 0.00000000 15.00000000" energy_frozen_part=0.00000000 Properties=species:S:1:pos:R:3:velocities:R:3:Z:I:1
H         8.75155646       4.56027118       4.93982585         0.00000000       0.00000000       0.00000000          1
H        10.54693584       2.42433311       5.07649460         0.00000000       0.00000000       0.00000000          1
H        11.84022962       3.64911557       7.22860235         0.00000000       0.00000000       0.00000000          1
H        11.50177640       5.03795658       4.82841746         0.00000000       0.00000000       0.00000000          1
H        10.04484857       5.78505400       7.09193602         0.00000000       0.00000000       0.00000000          1
H         9.09000534       3.17143463       7.34000609         0.00000000       0.00000000       0.00000000          1
6
pbc=[F, F, F] list_num_par=6 frozen=false iter=20000 energy=-1.26974174 Lattice="15.00000000 0.00000000 0.00000000 0.00000000 15.00000000 0.00000000 0.00000000 0.00000000 15.00000000" energy_frozen_part=0.00000000 Properties=species:S:1:pos:R:3:velocities:R:3:Z:I:1
H         8.75048785       4.56072609       4.94105406         0.00000000       0.00000000       0.00000000          1
H        10.54760591       2.42611841       5.07556942         0.00000000       0.00000000       0.00000000          1
H        11.84095607       3.65061429       7.22780795         0.00000000       0.00000000       0.00000000          1
H        11.50027542       5.04064261       4.82862659         0.00000000       0.00000000       0.00000000          1
H        10.04383486       5.78521960       7.09329236         0.00000000       0.00000000       0.00000000          1
H         9.09117272       3.17069612       7.34023434         0.00000000       0.00000000       0.00000000          1
6
pbc=[F, F, F] list_num_par=6 frozen=false iter=20000 energy=-1.26974174 Lattice="15.00000000 0.00000000 0.00000000 0.00000000 15.00000000 0.00000000 0.00000000 0.00000000 15.00000000" energy_frozen_part=0.00000000 Properties=species:S:1:pos:R:3:velocities:R:3:Z:I:1
H         8.75041210       4.56067539       4.94109528         0.00000000       0.00000000       0.00000000          1
H        10.54757332       2.42610264       5.07558536         0.00000000       0.00000000       0.00000000          1
H        11.84089050       3.65059620       7.22785623         0.00000000       0.00000000       0.00000000          1
H        11.50018366       5.04065418       4.82870595         0.00000000       0.00000000       0.00000000          1
H        10.04371449       5.78516522       7.09336946         0.00000000       0.00000000       0.00000000          1
H         9.09111213       3.17061145       7.34024628         0.00000000       0.00000000       0.00000000          1
6
pbc=[F, F, F] list_num_par=6 frozen=false iter=20000 energy=-1.26974174 Lattice="15.00000000 0.00000000 0.00000000 0.00000000 15.00000000 0.00000000 0.00000000 0.00000000 15.00000000" energy_frozen_part=0.00000000 Properties=species:S:1:pos:R:3:velocities:R:3:Z:I:1
H         8.75159551       4.56028657       4.93982160         0.00000000       0.00000000       0.00000000          1
H        10.54695556       2.42432928       5.07647543         0.00000000       0.00000000       0.00000000          1
H        11.84024418       3.64908055       7.22861026         0.00000000       0.00000000       0.00000000          1
H        11.50181283       5.03794935       4.82843916         0.00000000       0.00000000       0.00000000          1
H        10.04489374       5.78504200       7.09195253         0.00000000       0.00000000       0.00000000          1
H         9.09002053       3.17142295       7.33998595         0.00000000       0.00000000       0.00000000          1
6
pbc=[F, F, F] list_num_par=6 frozen=false iter=20000 energy=-1.26974174 Lattice="15.00000000 0.00000000 0.00000000 0.00000000 15.00000000 0.00000000 0.00000000 0.00000000 15.00000000" energy_frozen_part=0.00000000 Properties=species:S:1:pos:R:3:velocities:R:3:Z:I:1
H         8.75049486       4.56073079       4.94102371         0.00000000       0.00000000       0.00000000          1
H        10.54759826       2.42610720       5.07557982         0.00000000       0.00000000       0.00000000          1
H        11.84093980       3.65061829       7.22782065         0.00000000       0.00000000       0.00000000          1
H        11.50028051       5.04062906       4.82862445         0.00000000       0.00000000       0.00000000          1
H        10.04383237       5.78523734       7.09326443         0.00000000       0.00000000       0.00000000          1
H         9.09114441       3.17072524       7.34021749         0.00000000       0.00000000       0.00000000          1
6
pbc=[F, F, F] list_num_par=6 frozen=false iter=20000 energy=-1.26974174 Lattice="15.00000000 0.00000000 0.00000000 0.00000000 15.00000000 0.00000000 0.00000000 0.00000000 15.00000000" energy_frozen_part=0.00000000 Properties=species:S:1:pos:R:3:velocities:R:3:Z:I:1
H         8.57739409       8.03507100       6.08909969         0.00000000       0.00000000       0.00000000          1
H         5.78512401       7.97792842       6.15441352         0.00000000       0.00000000       0.00000000          1
H         7.13607626      10.41879492       6.30062596         0.00000000       0.00000000       0.00000000          1
H         5.69837691       9.75369008       3.99955097         0.00000000       0.00000000       0.00000000          1
H         7.13969126       7.36996232       3.78802640         0.00000000       0.00000000       0.00000000          1
H         8.49064924       9.81083616       3.93424030         0.00000000       0.00000000       0.00000000          1
6
pbc=[F, F, F] list_num_par=6 frozen=false iter=20000 energy=-1.26974174 Lattice="15.00000000 0.00000000 0.00000000 0.00000000 15.00000000 0.00000000 0.00000000 0.00000000 15.00000000" energy_frozen_part=0.00000000 Properties=species:S:1:pos:R:3:velocities:R:3:Z:I:1
H         8.75050322       4.56075328       4.94102965         0.00000000       0.00000000       0.00000000          1
H        10.54759790       2.42613435       5.07556864         0.00000000       0.00000000       0.00000000          1
H        11.84095639       3.65063328       7.22780452         0.00000000       0.00000000       0.00000000          1
H        11.50029860       5.04064262       4.82862072         0.00000000       0.00000000       0.00000000          1
H        10.04386028       5.78525471       7.09326554         0.00000000       0.00000000       0.00000000          1
H         9.09116320       3.17074897       7.34021652         0.00000000       0.00000000       0.00000000          1
6
pbc=[F, F, F] list_num_par=6 frozen=false iter=20000 energy=-1.26974174 Lattice="15.00000000 0.00000000 0.00000000 0.00000000 15.00000000 0.00000000 0.00000000 0.00000000 15.00000000" energy_frozen_part=0.00000000 Properties=species:S:1:pos:R:3:velocities:R:3:Z:I:1
H         8.75157606       4.56027484       4.93985011         0.00000000       0.00000000       0.00000000          1
H        10.54691293       2.42430766       5.07647750         0.00000000       0.00000000       0.00000000          1
H        11.84024810       3.64905374       7.22859617         0.00000000       0.00000000       0.00000000          1
H        11.50180049       5.03791531       4.82842503         0.00000000       0.00000000       0.00000000          1
H        10.04490758       5.78502518       7.09195924         0.00000000       0.00000000       0.00000000          1
H         9.09002663       3.17141139       7.34001707         0.00000000       0.00000000       0.00000000          1
6
pbc=[F, F, F] list_num_par=6 frozen=false iter=20000 energy=-1.26974174 Lattice="15.00000000 0.00000000 0.00000000 0.00000000 15.00000000 0.00000000 0.00000000 0.00000000 15.00000000" energy_frozen_part=0.00000000 Properties=species:S:1:pos:R:3:velocities:R:3:Z:I:1
H         8.57731663       8.03485924       6.08934647         0.00000000       0.00000000       0.00000000          1
H         5.78503384       7.97825886       6.15427090         0.00000000       0.00000000       0.00000000          1
H         7.13643208      10.41885834       6.30077269         0.00000000       0.00000000       0.00000000          1
H         5.69892933       9.75412662       3.99946833         0.00000000       0.00000000       0.00000000          1
H         7.13981118       7.37013027       3.78803995         0.00000000       0.00000000       0.00000000          1
H         8.49122070       9.81073639       3.93455001         0.00000000       0.00000000       0.00000000          1
6
pbc=[F, F, F] list_num_par=6 frozen=false iter=20000 energy=-1.26974174 Lattice="15.00000000 0.00000000 0.00000000 0.00000000 15.00000000 0.00000000 0.00000000 0.00000000 15.00000000" energy_frozen_part=0.00000000 Properties=species:S:1:pos:R:3:velocities:R:3:Z:I:1
H         8.75048118       4.56071276       4.94105852         0.00000000       0.00000000       0.00000000          1
H        10.54759830       2.42610498       5.07557579         0.00000000       0.00000000       0.00000000          1
H        11.84094961       3.65061502       7.22780989         0.00000000       0.00000000       0.00000000          1
H        11.50025906       5.04063278       4.82862884         0.00000000       0.00000000       0.00000000          1
H        10.04383248       5.78522033       7.09328849         0.00000000       0.00000000       0.00000000          1
H         9.09116974       3.17069333       7.34023350         0.00000000       0.00000000       0.00000000          1
6
pbc=[F, F, F] list_num_par=6 frozen=false iter=20000 energy=-1.26974174 Lattice="15.00000000 0.00000000 0.00000000 0.00000000 15.00000000 0.00000000 0.00000000 0.00000000 15.00000000" energy_frozen_part=0.00000000 Properties=species:S:1:pos:R:3:velocities:R:3:Z:I:1
H         8.75006348       4.56108092       4.94143983         0.00000000       0.00000000       0.00000000          1
H        10.54687993       2.42615028       5.07488832         0.00000000       0.00000000       0.00000000          1
H        11.84080782       3.64970020       7.22731950         0.00000000       0.00000000       0.00000000          1
H        11.49990284       5.04061477       4.82869456         0.00000000       0.00000000       0.00000000          1
H        10.04398042       5.78461919       7.09387791         0.00000000       0.00000000       0.00000000          1
H         9.09097008       3.17015344       7.34007210         0.00000000       0.00000000       0.00000000          1
6
pbc=[F, F, F] list_num_par=6 frozen=false iter=20000 energy=-1.26974174 Lattice="15.00000000 0.00000000 0.00000000 0.00000000 15.00000000 0.00000000 0.00000000 0.00000000 15.00000000" energy_frozen_part=0.00000000 Properties=species:S:1:pos:R:3:velocities:R:3:Z:I:1
H         8.75006172       4.56111182       4.94144523         0.00000000       0.00000000       0.00000000          1
H        10.54687027       2.42617421       5.07487484         0.00000000       0.00000000       0.00000000          1
H        11.84080087       3.64969776       7.22732562         0.00000000       0.00000000       0.00000000          1
H        11.49990549       5.04063428       4.82869699         0.00000000       0.00000000       0.00000000          1
H        10.04399447       5.78464242       7.09388267         0.00000000       0.00000000       0.00000000          1
H         9.09096117       3.17018078       7.34006413         0.00000000       0.00000000       0.00000000          1
6
pbc=[F, F, F] list_num_par=6 frozen=false iter=20000 energy=-1.26974174 Lattice="15.00000000 0.00000000 0.00000000 0.00000000 15.00000000 0.00000000 0.00000000 0.00000000 15.00000000" energy_frozen_part=0.00000000 Properties=species:S:1:pos:R:3:velocities:R:3:Z:I:1
H         8.75048621       4.56076979       4.94103433         0.00000000       0.00000000       0.00000000          1
H        10.54757801       2.42613607       5.07554902         0.00000000       0.00000000       0.00000000          1
H        11.84095230       3.65060909       7.22778259         0.00000000       0.00000000       0.00000000          1
H        11.50028646       5.04064363       4.82860734         0.00000000       0.00000000       0.00000000          1
H        10.04386570       5.78524936       7.09326173         0.00000000       0.00000000       0.00000000          1
H         9.09115993       3.17074429       7.34021530         0.00000000       0.00000000       0.00000000          1
6
pbc=[F, F, F] list_num_par=6 frozen=false iter=20000 energy=-1.26974174 Lattice="15.00000000 0.00000000 0.00000000 0.00000000 15.00000000 0.00000000 0.00000000 0.00000000 15.00000000" energy_frozen_part=0.00000000 Properties=species:S:1:pos:R:3:velocities:R:3:Z:I:1
H         8.75004381       4.56110485       4.94146762         0.00000000       0.00000000       0.00000000          1
H        10.54686596       2.42618394       5.07489637         0.00000000       0.00000000       0.00000000          1
H        11.84080424       3.64972634       7.22732711         0.00000000       0.00000000       0.00000000          1
H        11.49988155       5.04065581       4.82870388         0.00000000       0.00000000       0.00000000          1
H        10.04397892       5.78465181       7.09389308         0.00000000       0.00000000       0.00000000          1
H         9.09096117       3.17018041       7.34008784         0.00000000       0.00000000       0.00000000          1
6
pbc=[F, F, F] list_num_par=6 frozen=false iter=20000 energy=-1.26974174 Lattice="15.00000000 0.00000000 0.00000000 0.00000000 15.00000000 0.00000000 0.00000000 0.00000000 15.00000000" energy_frozen_part=0.00000000 Properties=species:S:1:pos:R:3:velocities:R:3:Z:I:1
H         8.57732056       8.03489771       6.08934783         0.00000000       0.00000000       0.00000000          1
H         5.78503459       7.97825957       6.15424385         0.00000000       0.00000000       0.00000000          1
H         7.13641243      10.41887496       6.30075487         0.00000000       0.00000000       0.00000000          1
H         5.69893235       9.75412974       3.99944118         0.00000000       0.00000000       0.00000000          1
H         7.13984674       7.37015110       3.78802855         0.00000000       0.00000000       0.00000000          1
H         8.49121744       9.81075793       3.93453721         0.00000000       0.00000000       0.00000000          1
6
pbc=[F, F, F] list_num_par=6 frozen=false iter=20000 energy=-1.26974174 Lattice="15.00000000 0.00000000 0.00000000 0.00000000 15.00000000 0.00000000 0.00000000 0.00000000 15.00000000" energy_frozen_part=0.00000000 Properties=species:S:1:pos:R:3:velocities:R:3:Z:I:1
H         8.75048213       4.56073696       4.94105102         0.00000000       0.00000000       0.00000000          1
H        10.54759483       2.42613031       5.07558047         0.00000000       0.00000000       0.00000000          1
H        11.84095565       3.65064057       7.22780822         0.00000000       0.00000000       0.00000000          1
H        11.50027280       5.04064788       4.82862504         0.00000000       0.00000000       0.00000000          1
H        10.04384394       5.78525687       7.09327045         0.00000000       0.00000000       0.00000000          1
H         9.09117061       3.17073648       7.34024446         0.00000000       0.00000000       0.00000000          1
6
pbc=[F, F, F] list_num_par=6 frozen=false iter=20000 energy=-1.26974174 Lattice="15.00000000 0.00000000 0.00000000 0.00000000 15.00000000 0.00000000 0.00000000 0.00000000 15.00000000" energy_frozen_part=0.00000000 Properties=species:S:1:pos:R:3:velocities:R:3:Z:I:1
H         8.75049393       4.56078026       4.94104051         0.00000000       0.00000000       0.00000000          1
H        10.54757006       2.42613183       5.07554736         0.00000000       0.00000000       0.00000000          1
H        11.84096230       3.65060768       7.22777702         0.00000000       0.00000000       0.00000000          1
H        11.50029104       5.04064018       4.82859725         0.00000000       0.00000000       0.00000000          1
H        10.04388253       5.78524815       7.09327009         0.00000000       0.00000000       0.00000000          1
H         9.09116063       3.17074669       7.34021601         0.00000000       0.00000000       0.00000000          1
6
pbc=[F, F, F] list_num_par=6 frozen=false iter=20000 energy=-1.26974174 Lattice="15.00000000 0.00000000 0.00000000 0.00000000 15.00000000 0.00000000 0.00000000 0.00000000 15.00000000" energy_frozen_part=0.00000000 Properties=species:S:1:pos:R:3:velocities:R:3:Z:I:1
H         8.75047464       4.56076951       4.94104236         0.00000000       0.00000000       0.00000000          1
H        10.54757433       2.42614509       5.07554964         0.00000000       0.00000000       0.00000000          1
H        11.84094450       3.65061828       7.22779040         0.00000000       0.00000000       0.00000000          1
H        11.50027165       5.04065571       4.82860920         0.00000000       0.00000000       0.00000000          1
H        10.04385283       5.78524338       7.09327815         0.00000000       0.00000000       0.00000000          1
H         9.09114969       3.17073531       7.34021616         0.00000000       0.00000000       0.00000000          1
6
pbc=[F, F, F] list_num_par=6 frozen=false iter=20000 energy=-1.26974174 Lattice="15.00000000 0.00000000 0.00000000 0.00000000 15.00000000 0.00000000 0.00000000 0.00000000 15.00000000" energy_frozen_part=0.00000000 Properties=species:S:1:pos:R:3:velocities:R:3:Z:I:1
H         8.75007108       4.56110524       4.94145527         0.00000000       0.00000000       0.00000000          1
H        10.54688473       2.42617477       5.07491197         0.00000000       0.00000000       0.00000000          1
H        11.84079893       3.64972221       7.22734689         0.00000000       0.00000000       0.00000000          1
H        11.49990980       5.04063620       4.82871688         0.00000000       0.00000000       0.00000000          1
H        10.04399204       5.78465644       7.09389429         0.00000000       0.00000000       0.00000000          1
H         9.09095712       3.17018789       7.34008052         0.00000000       0.00000000       0.00000000          1
6
pbc=[F, F, F] list_num_par=6 frozen=false iter=20000 energy=-1.26974174 Lattice="15.00000000 0.00000000 0.00000000 0.00000000 15.00000000 0.00000000 0.00000000 0.00000000 15.00000000" energy_frozen_part=0.00000000 Properties=species:S:1:pos:R:3:velocities:R:3:Z:I:1
H         8.75000228       4.56107266       4.94145981         0.00000000       0.00000000       0.00000000          1
H        10.54683954       2.42614989       5.07489398         0.00000000       0.00000000       0.00000000          1
H        11.84078391       3.64971591       7.22731268         0.00000000       0.00000000       0.00000000          1
H        11.49983818       5.04061651       4.82868190         0.00000000       0.00000000       0.00000000          1
H        10.04394808       5.78463469       7.09387092         0.00000000       0.00000000       0.00000000          1
H         9.09094458       3.17016360       7.34008860         0.00000000       0.00000000       0.00000000          1
6
pbc=[F, F, F] list_num_par=6 frozen=false iter=20000 energy=-1.26974174 Lattice="15.00000000 0.00000000 0.00000000 0.00000000 15.00000000 0.00000000 0.00000000 0.00000000 15.00000000" energy_frozen_part=0.00000000 Properties=species:S:1:pos:R:3:velocities:R:3:Z:I:1
H         8.57731588       8.03486560       6.08934146         0.00000000       0.00000000       0.00000000          1
H         5.78502515       7.97826291       6.15426320         0.00000000       0.00000000       0.00000000          1
H         7.13643076      10.41885734       6.30077214         0.00000000       0.00000000       0.00000000          1
H         5.69894135       9.75413033       3.99946001         0.00000000       0.00000000       0.00000000          1
H         7.13981299       7.37013041       3.78804219         0.00000000       0.00000000       0.00000000          1
H         8.49122359       9.81073118       3.93454521         0.00000000       0.00000000       0.00000000          1
6
pbc=[F, F, F] list_num_par=6 frozen=false iter=20000 energy=-1.26974174 Lattice="15.00000000 0.00000000 0.00000000 0.00000000 15.00000000 0.00000000 0.00000000 0.00000000 15.00000000" energy_frozen_part=0.00000000 Properties=species:S:1:pos:R:3:velocities:R:3:Z:I:1
H         8.75006507       4.56106003       4.94143196         0.00000000       0.00000000       0.00000000          1
H        10.54690559       2.42615319       5.07490180         0.00000000       0.00000000       0.00000000          1
H        11.84081708       3.64974050       7.22732063         0.00000000       0.00000000       0.00000000          1
H        11.49989782       5.04062144       4.82867651         0.00000000       0.00000000       0.00000000          1
H        10.04398338       5.78464899       7.09385007         0.00000000       0.00000000       0.00000000          1
H         9.09097886       3.17017321       7.34007144         0.00000000       0.00000000       0.00000000          1
6
pbc=[F, F, F] list_num_par=6 frozen=false iter=20000 energy=-1.26974174 Lattice="15.00000000 0.00000000 0.00000000 0.00000000 15.00000000 0.00000000 0.00000000 0.00000000 15.00000000" energy_frozen_part=0.00000000 Properties=species:S:1:pos:R:3:velocities:R:3:Z:I:1
H         8.75041965       4.56070332       4.94108725         0.00000000       0.00000000       0.00000000          1
H        10.54756301       2.42611427       5.07559240         0.00000000       0.00000000       0.00000000          1
H        11.84088354       3.65058936       7.22786484         0.00000000       0.00000000       0.00000000          1
H        11.50020052       5.04065055       4.82870643         0.00000000       0.00000000       0.00000000          1
H        10.04373393       5.78517101       7.09336846         0.00000000       0.00000000       0.00000000          1
H         9.09109212       3.17063530       7.34024302         0.00000000       0.00000000       0.00000000          1
6
pbc=[F, F, F] list_num_par=6 frozen=false iter=20000 energy=-1.26974174 Lattice="15.00000000 0.00000000 0.00000000 0.00000000 15.00000000 0.00000000 0.00000000 0.00000000 15.00000000" energy_frozen_part=0.00000000 Properties=species:S:1:pos:R:3:velocities:R:3:Z:I:1
H         8.75157586       4.56027003       4.93982399         0.00000000       0.00000000       0.00000000          1
H        10.54695610       2.42432944       5.07645048         0.00000000       0.00000000       0.00000000          1
H        11.84025355       3.64908455       7.22857719         0.00000000       0.00000000       0.00000000          1
H        11.50178550       5.03795773       4.82841699         0.00000000       0.00000000       0.00000000          1
H        10.04487295       5.78501933       7.09194574         0.00000000       0.00000000       0.00000000          1
H         9.09003278       3.17139521       7.33997939         0.00000000       0.00000000       0.00000000          1
6
pbc=[F, F, F] list_num_par=6 frozen=false iter=20000 energy=-1.26974174 Lattice="15.00000000 0.00000000 0.00000000 0.00000000 15.00000000 0.00000000 0.00000000 0.00000000 15.00000000" energy_frozen_part=0.00000000 Properties=species:S:1:pos:R:3:velocities:R:3:Z:I:1
H         8.75049159       4.56073079       4.94105316         0.00000000       0.00000000       0.00000000          1
H        10.54760600       2.42611873       5.07556480         0.00000000       0.00000000       0.00000000          1
H        11.84096342       3.65060668       7.22780113         0.00000000       0.00000000       0.00000000          1
H        11.50027166       5.04064938       4.82863034         0.00000000       0.00000000       0.00000000          1
H        10.04384539       5.78521519       7.09329643         0.00000000       0.00000000       0.00000000          1
H         9.09117137       3.17069531       7.34022685         0.00000000       0.00000000       0.00000000          1
6
pbc=[F, F, F] list_num_par=6 frozen=false iter=20000 energy=-1.26974174 Lattice="15.00000000 0.00000000 0.00000000 0.00000000 15.00000000 0.00000000 0.00000000 0.00000000 15.00000000" energy_frozen_part=0.00000000 Properties=species:S:1:pos:R:3:velocities:R:3:Z:I:1
H         8.57731942       8.03487060       6.08934334         0.00000000       0.00000000       0.00000000          1
H         5.78503743       7.97826977       6.15426713         0.00000000       0.00000000       0.00000000          1
H         7.13643547      10.41887125       6.30076982         0.00000000       0.00000000       0.00000000          1
H         5.69893649       9.75413917       3.99946645         0.00000000       0.00000000       0.00000000          1
H         7.13981540       7.37013946       3.78803637         0.00000000       0.00000000       0.00000000          1
H         8.49122672       9.81074389       3.93454434         0.00000000       0.00000000       0.00000000          1
6
pbc=[F, F, F] list_num_par=6 frozen=false iter=20000 energy=-1.26974174 Lattice="15.00000000 0.00000000 0.00000000 0.00000000 15.00000000 0.00000000 0.00000000 0.00000000 15.00000000" energy_frozen_part=0.00000000 Properties=species:S:1:pos:R:3:velocities:R:3:Z:I:1
H         8.57732613       8.03489737       6.08934585         0.00000000       0.00000000       0.00000000          1
H         5.78503971       7.97824751       6.15424527         0.00000000       0.00000000       0.00000000          1
H         7.13640408      10.41887237       6.30075819         0.00000000       0.00000000       0.00000000          1
H         5.69892294       9.75411741       3.99944402         0.00000000       0.00000000       0.00000000          1
H         7.13985213       7.37013690       3.78803278         0.00000000       0.00000000       0.00000000          1
H         8.49120785       9.81075654       3.93453892         0.00000000       0.00000000       0.00000000          1
6
pbc=[F, F, F] list_num_par=6 frozen=false iter=20000 energy=-1.26974174 Lattice="15.00000000 0.00000000 0.00000000 0.00000000 15.00000000 0.00000000 0.00000000 0.00000000 15.00000000" energy_frozen_part=0.00000000 Properties=species:S:1:pos:R:3:velocities:R:3:Z:I:1
H         8.75166220       4.56029250       4.93980111         0.00000000       0.00000000       0.00000000          1
H        10.54704158       2.42435843       5.07652842         0.00000000       0.00000000       0.00000000          1
H        11.84026158       3.64914573       7.22867851         0.00000000       0.00000000       0.00000000          1
H        11.50188439       5.03798113       4.82848787         0.00000000       0.00000000       0.00000000          1
H        10.04488445       5.78508426       7.09195582         0.00000000       0.00000000       0.00000000          1
H         9.09004893       3.17145554       7.33999818         0.00000000       0.00000000       0.00000000          1
6
pbc=[F, F, F] list_num_par=6 frozen=false iter=20000 energy=-1.26974174 Lattice="15.00000000 0.00000000 0.00000000 0.00000000 15.00000000 0.00000000 0.00000000 0.00000000 15.00000000" energy_frozen_part=0.00000000 Properties=species:S:1:pos:R:3:velocities:R:3:Z:I:1
H         8.75006745       4.56111963       4.94145897         0.00000000       0.00000000       0.00000000          1
H        10.54685960       2.42617601       5.07490628         0.00000000       0.00000000       0.00000000          1
H        11.84079012       3.64971242       7.22734712         0.00000000       0.00000000       0.00000000          1
H        11.49991038       5.04063374       4.82871153         0.00000000       0.00000000       0.00000000          1
H        10.04399328       5.78465929       7.09389161         0.00000000       0.00000000       0.00000000          1
H         9.09094626       3.17020063       7.34008790         0.00000000       0.00000000       0.00000000          1
6
pbc=[F, F, F] list_num_par=6 frozen=false iter=20000 energy=-1.26974174 Lattice="15.00000000 0.00000000 0.00000000 0.00000000 15.00000000 0.00000000 0.00000000 0.00000000 15.00000000" energy_frozen_part=0.00000000 Properties=species:S:1:pos:R:3:velocities:R:3:Z:I:1
H         8.57739560       8.03510557       6.08909085         0.00000000       0.00000000       0.00000000          1
H         5.78512991       7.97791016       6.15438659         0.00000000       0.00000000       0.00000000          1
H         7.13603397      10.41879902       6.30061676         0.00000000       0.00000000       0.00000000          1
H         5.69836576       9.75367624       3.99953139         0.00000000       0.00000000       0.00000000          1
H         7.13973502       7.36998185       3.78800245         0.00000000       0.00000000       0.00000000          1
H         8.49062732       9.81087729       3.93422938         0.00000000       0.00000000       0.00000000          1
6
pbc=[F, F, F] list_num_par=6 frozen=false iter=20000 energy=-1.26974174 Lattice="15.00000000 0.00000000 0.00000000 0.00000000 15.00000000 0.00000000 0.00000000 0.00000000 15.00000000" energy_frozen_part=0.00000000 Properties=species:S:1:pos:R:3:velocities:R:3:Z:I:1
H         8.75155925       4.56027709       4.93983258         0.00000000       0.00000000       0.00000000          1
H        10.54693005       2.42433587       5.07647631         0.00000000       0.00000000       0.00000000          1
H        11.84022710       3.64910423       7.22858840         0.00000000       0.00000000       0.00000000          1
H        11.50177475       5.03796200       4.82842360         0.00000000       0.00000000       0.00000000          1
H        10.04485207       5.78505321       7.09194400         0.00000000       0.00000000       0.00000000          1
H         9.09001667       3.17142639       7.34000225         0.00000000       0.00000000       0.00000000          1
6
pbc=[F, F, F] list_num_par=6 frozen=false iter=20000 energy=-1.26974174 Lattice="15.00000000 0.00000000 0.00000000 0.00000000 15.00000000 0.00000000 0.00000000 0.00000000 15.00000000" energy_frozen_part=0.00000000 Properties=species:S:1:pos:R:3:velocities:R:3:Z:I:1
H         8.75043657       4.56067426       4.94108432         0.00000000       0.00000000       0.00000000          1
H        10.54761858       2.42611820       5.07554483         0.00000000       0.00000000       0.00000000          1
H        11.84090507       3.65057959       7.22784809         0.00000000       0.00000000       0.00000000          1
H        11.50020810       5.04068647       4.82872496         0.00000000       0.00000000       0.00000000          1
H        10.04371816       5.78513145       7.09338615         0.00000000       0.00000000       0.00000000          1
H         9.09112909       3.17057119       7.34021684         0.00000000       0.00000000       0.00000000          1
6
pbc=[F, F, F] list_num_par=6 frozen=false iter=20000 energy=-1.26974174 Lattice="15.00000000 0.00000000 0.00000000 0.00000000 15.00000000 0.00000000 0.00000000 0.00000000 15.00000000" energy_frozen_part=0.00000000 Properties=species:S:1:pos:R:3:velocities:R:3:Z:I:1
H         8.75048309       4.56074275       4.94105486         0.00000000       0.00000000       0.00000000          1
H        10.54760361       2.42613069       5.07559691         0.00000000       0.00000000       0.00000000          1
H        11.84095597       3.65065825       7.22781953         0.00000000       0.00000000       0.00000000          1
H        11.50027052       5.04064811       4.82861776         0.00000000       0.00000000       0.00000000          1
H        10.04384908       5.78526994       7.09326643         0.00000000       0.00000000       0.00000000          1
H         9.09116892       3.17074856       7.34024884         0.00000000       0.00000000       0.00000000          1
6
pbc=[F, F, F] list_num_par=6 frozen=false iter=20000 energy=-1.26974174 Lattice="15.00000000 0.00000000 0.00000000 0.00000000 15.00000000 0.00000000 0.00000000 0.00000000 15.00000000" energy_frozen_part=0.00000000 Properties=species:S:1:pos:R:3:velocities:R:3:Z:I:1
H         8.75049275       4.56070869       4.94104707         0.00000000       0.00000000       0.00000000          1
H        10.54764482       2.42612300       5.07553864         0.00000000       0.00000000       0.00000000          1
H        11.84098755       3.65062252       7.22777380         0.00000000       0.00000000       0.00000000          1
H        11.50027362       5.04066252       4.82861100         0.00000000       0.00000000       0.00000000          1
H        10.04383821       5.78520734       7.09329029         0.00000000       0.00000000       0.00000000          1
H         9.09121311       3.17066615       7.34021391         0.00000000       0.00000000       0.00000000          1
6
pbc=[F, F, F] list_num_par=6 frozen=false iter=20000 energy=-1.26974174 Lattice="15.00000000 0.00000000 0.00000000 0.00000000 15.00000000 0.00000000 0.00000000 0.00000000 15.00000000" energy_frozen_part=0.00000000 Properties=species:S:1:pos:R:3:velocities:R:3:Z:I:1
H         8.75047270       4.56075738       4.94106112         0.00000000       0.00000000       0.00000000          1
H        10.54757023       2.42613117       5.07559891         0.00000000       0.00000000       0.00000000          1
H        11.84090447       3.65061083       7.22786444         0.00000000       0.00000000       0.00000000          1
H        11.50026757       5.04064150       4.82867892         0.00000000       0.00000000       0.00000000          1
H        10.04380358       5.78523732       7.09331221         0.00000000       0.00000000       0.00000000          1
H         9.09111297       3.17072309       7.34023946         0.00000000       0.00000000       0.00000000          1
6
pbc=[F, F, F] list_num_par=6 frozen=false iter=20000 energy=-1.26974174 Lattice="15.00000000 0.00000000 0.00000000 0.00000000 15.00000000 0.00000000 0.00000000 0.00000000 15.00000000" energy_frozen_part=0.00000000 Properties=species:S:1:pos:R:3:velocities:R:3:Z:I:1
H         8.75047701       4.56071980       4.94104440         0.00000000       0.00000000       0.00000000          1
H        10.54759671       2.42611699       5.07559810         0.00000000       0.00000000       0.00000000          1
H        11.84092419       3.65063944       7.22783915         0.00000000       0.00000000       0.00000000          1
H        11.50026279       5.04063610       4.82864531         0.00000000       0.00000000       0.00000000          1
H        10.04381334       5.78524355       7.09328627         0.00000000       0.00000000       0.00000000          1
H         9.09114088       3.17072056       7.34023875         0.00000000       0.00000000       0.00000000          1
6
pbc=[F, F, F] list_num_par=6 frozen=false iter=20000 energy=-1.26974174 Lattice="15.00000000 0.00000000 0.00000000 0.00000000 15.00000000 0.00000000 0.00000000 0.00000000 15.00000000" energy_frozen_part=0.00000000 Properties=species:S:1:pos:R:3:velocities:R:3:Z:I:1
H         8.75156868       4.56027484       4.93985263         0.00000000       0.00000000       0.00000000          1
H        10.54691980       2.42431100       5.07646721         0.00000000       0.00000000       0.00000000          1
H        11.84025976       3.64904872       7.22857839         0.00000000       0.00000000       0.00000000          1
H        11.50178691       5.03792350       4.82841263         0.00000000       0.00000000       0.00000000          1
H        10.04491145       5.78501638       7.09195812         0.00000000       0.00000000       0.00000000          1
H         9.09003691       3.17139909       7.34001214         0.00000000       0.00000000       0.00000000          1
6
pbc=[F, F, F] list_num_par=6 frozen=false iter=20000 energy=-1.26974174 Lattice="15.00000000 0.00000000 0.00000000 0.00000000 15.00000000 0.00000000 0.00000000 0.00000000 15.00000000" energy_frozen_part=0.00000000 Properties=species:S:1:pos:R:3:velocities:R:3:Z:I:1
H         8.75158566       4.56034289       4.93981630         0.00000000       0.00000000       0.00000000          1
H        10.54697964       2.42441994       5.07647401         0.00000000       0.00000000       0.00000000          1
H        11.84025683       3.64920508       7.22860312         0.00000000       0.00000000       0.00000000          1
H        11.50180277       5.03804826       4.82842141         0.00000000       0.00000000       0.00000000          1
H        10.04486462       5.78512975       7.09193048         0.00000000       0.00000000       0.00000000          1
H         9.09004308       3.17149377       7.33999201         0.00000000       0.00000000       0.00000000          1
6
pbc=[F, F, F] list_num_par=6 frozen=false iter=20000 energy=-1.26974174 Lattice="15.00000000 0.00000000 0.00000000 0.00000000 15.00000000 0.00000000 0.00000000 0.00000000 15.00000000" energy_frozen_part=0.00000000 Properties=species:S:1:pos:R:3:velocities:R:3:Z:I:1
H         8.75045646       4.56064808       4.94108975         0.00000000       0.00000000       0.00000000          1
H        10.54765869       2.42611122       5.07561784         0.00000000       0.00000000       0.00000000          1
H        11.84095815       3.65066326       7.22785674         0.00000000       0.00000000       0.00000000          1
H        11.50022417       5.04066764       4.82867367         0.00000000       0.00000000       0.00000000          1
H        10.04375957       5.78520197       7.09333226         0.00000000       0.00000000       0.00000000          1
H         9.09118110       3.17064417       7.34026781         0.00000000       0.00000000       0.00000000          1
6
pbc=[F, F, F] list_num_par=6 frozen=false iter=20000 energy=-1.26974174 Lattice="15.00000000 0.00000000 0.00000000 0.00000000 15.00000000 0.00000000 0.00000000 0.00000000 15.00000000" energy_frozen_part=0.00000000 Properties=species:S:1:pos:R:3:velocities:R:3:Z:I:1
H         8.75002632       4.56106076       4.94143325         0.00000000       0.00000000       0.00000000          1
H        10.54685805       2.42614382       5.07487951         0.00000000       0.00000000       0.00000000          1
H        11.84078716       3.64971585       7.22729450         0.00000000       0.00000000       0.00000000          1
H        11.49986043       5.04061560       4.82865762         0.00000000       0.00000000       0.00000000          1
H        10.04395549       5.78463039       7.09384797         0.00000000       0.00000000       0.00000000          1
H         9.09096044       3.17016263       7.34006697         0.00000000       0.00000000       0.00000000          1
6
pbc=[F, F, F] list_num_par=6 frozen=false iter=20000 energy=-1.26974174 Lattice="15.00000000 0.00000000 0.00000000 0.00000000 15.00000000 0.00000000 0.00000000 0.00000000 15.00000000" energy_frozen_part=0.00000000 Properties=species:S:1:pos:R:3:velocities:R:3:Z:I:1
H         8.75049996       4.56072358       4.94104166         0.00000000       0.00000000       0.00000000          1
H        10.54761124       2.42611126       5.07558662         0.00000000       0.00000000       0.00000000          1
H        11.84094351       3.65062237       7.22782966         0.00000000       0.00000000       0.00000000          1
H        11.50028380       5.04063576       4.82864165         0.00000000       0.00000000       0.00000000          1
H        10.04382549       5.78523462       7.09328193         0.00000000       0.00000000       0.00000000          1
H         9.09115536       3.17071600       7.34023382         0.00000000       0.00000000       0.00000000          1
6
pbc=[F, F, F] list_num_par=6 frozen=false iter=20000 energy=-1.26974174 Lattice="15.00000000 0.00000000 0.00000000 0.00000000 15.00000000 0.00000000 0.00000000 0.00000000 15.00000000" energy_frozen_part=0.00000000 Properties=species:S:1:pos:R:3:velocities:R:3:Z:I:1
H         8.75002235       4.56106340       4.94145492         0.00000000       0.00000000       0.00000000          1
H        10.54685057       2.42613833       5.07487494         0.00000000       0.00000000       0.00000000          1
H        11.84079986       3.64969561       7.22728789         0.00000000       0.00000000       0.00000000          1
H        11.49986027       5.04061292       4.82866918         0.00000000       0.00000000       0.00000000          1
H        10.04396820       5.78461887       7.09386463         0.00000000       0.00000000       0.00000000          1
H         9.09096502       3.17014567       7.34007749         0.00000000       0.00000000       0.00000000          1
6
pbc=[F, F, F] list_num_par=6 frozen=false iter=20000 energy=-1.26974174 Lattice="15.00000000 0.00000000 0.00000000 0.00000000 15.00000000 0.00000000 0.00000000 0.00000000 15.00000000" energy_frozen_part=0.00000000 Properties=species:S:1:pos:R:3:velocities:R:3:Z:I:1
H         8.75048740       4.56072763       4.94104891         0.00000000       0.00000000       0.00000000          1
H        10.54760441       2.42611832       5.07558462         0.00000000       0.00000000       0.00000000          1
H        11.84094328       3.65062625       7.22782152         0.00000000       0.00000000       0.00000000          1
H        11.50028051       5.04063903       4.82864115         0.00000000       0.00000000       0.00000000          1
H        10.04383367       5.78523506       7.09328879         0.00000000       0.00000000       0.00000000          1
H         9.09115313       3.17071357       7.34022967         0.00000000       0.00000000       0.00000000          1
6
pbc=[F, F, F] list_num_par=6 frozen=false iter=20000 energy=-1.26974174 Lattice="15.00000000 0.00000000 0.00000000 0.00000000 15.00000000 0.00000000 0.00000000 0.00000000 15.00000000" energy_frozen_part=0.00000000 Properties=species:S:1:pos:R:3:velocities:R:3:Z:I:1
H         8.75048651       4.56074539       4.94104074         0.00000000       0.00000000       0.00000000          1
H        10.54759319       2.42613083       5.07556427         0.00000000       0.00000000       0.00000000          1
H        11.84095520       3.65063851       7.22779739         0.00000000       0.00000000       0.00000000          1
H        11.50027474       5.04065356       4.82861541         0.00000000       0.00000000       0.00000000          1
H        10.04384063       5.78525267       7.09326860         0.00000000       0.00000000       0.00000000          1
H         9.09116453       3.17073841       7.34022590         0.00000000       0.00000000       0.00000000          1
6
pbc=[F, F, F] list_num_par=6 frozen=false iter=20000 energy=-1.26974174 Lattice="15.00000000 0.00000000 0.00000000 0.00000000 15.00000000 0.00000000 0.00000000 0.00000000 15.00000000" energy_frozen_part=0.00000000 Properties=species:S:1:pos:R:3:velocities:R:3:Z:I:1
H         8.75051296       4.56078620       4.94104518         0.00000000       0.00000000       0.00000000          1
H        10.54760113       2.42616306       5.07561547         0.00000000       0.00000000       0.00000000          1
H        11.84089890       3.65064510       7.22789783         0.00000000       0.00000000       0.00000000          1
H        11.50030480       5.04067311       4.82871482         0.00000000       0.00000000       0.00000000          1
H        10.04380187       5.78526625       7.09333067         0.00000000       0.00000000       0.00000000          1
H         9.09110532       3.17075602       7.34023431         0.00000000       0.00000000       0.00000000          1
6
pbc=[F, F, F] list_num_par=6 frozen=false iter=20000 energy=-1.26974174 Lattice="15.00000000 0.00000000 0.00000000 0.00000000 15.00000000 0.00000000 0.00000000 0.00000000 15.00000000" energy_frozen_part=0.00000000 Properties=species:S:1:pos:R:3:velocities:R:3:Z:I:1
H         8.75007080       4.56107976       4.94144903         0.00000000       0.00000000       0.00000000          1
H        10.54687918       2.42614468       5.07487363         0.00000000       0.00000000       0.00000000          1
H        11.84081778       3.64967550       7.22730714         0.00000000       0.00000000       0.00000000          1
H        11.49990889       5.04060864       4.82869180         0.00000000       0.00000000       0.00000000          1
H        10.04401099       5.78461733       7.09388051         0.00000000       0.00000000       0.00000000          1
H         9.09097519       3.17015607       7.34006214         0.00000000       0.00000000       0.00000000          1
6
pbc=[F, F, F] list_num_par=6 frozen=false iter=20000 energy=-1.26974174 Lattice="15.00000000 0.00000000 0.00000000 0.00000000 15.00000000 0.00000000 0.00000000 0.00000000 15.00000000" energy_frozen_part=0.00000000 Properties=species:S:1:pos:R:3:velocities:R:3:Z:I:1
H         8.75050502       4.56075842       4.94104608         0.00000000       0.00000000       0.00000000          1
H        10.54758893       2.42612224       5.07558730         0.00000000       0.00000000       0.00000000          1
H        11.84091142       3.65058174       7.22786502         0.00000000       0.00000000       0.00000000          1
H        11.50030340       5.04063695       4.82869253         0.00000000       0.00000000       0.00000000          1
H        10.04382165       5.78521996       7.09331943         0.00000000       0.00000000       0.00000000          1
H         9.09111996       3.17070723       7.34022163         0.00000000       0.00000000       0.00000000          1
6
pbc=[F, F, F] list_num_par=6 frozen=false iter=20000 energy=-1.26974174 Lattice="15.00000000 0.00000000 0.00000000 0.00000000 15.00000000 0.00000000 0.00000000 0.00000000 15.00000000" energy_frozen_part=0.00000000 Properties=species:S:1:pos:R:3:velocities:R:3:Z:I:1
H         8.75002844       4.56105935       4.94143988         0.00000000       0.00000000       0.00000000          1
H        10.54687220       2.42614349       5.07488498         0.00000000       0.00000000       0.00000000          1
H        11.84079905       3.64971628       7.22730157         0.00000000       0.00000000       0.00000000          1
H        11.49986581       5.04061213       4.82866523         0.00000000       0.00000000       0.00000000          1
H        10.04396917       5.78462495       7.09385462         0.00000000       0.00000000       0.00000000          1
H         9.09096370       3.17015675       7.34007169         0.00000000       0.00000000       0.00000000          1
6
pbc=[F, F, F] list_num_par=6 frozen=false iter=20000 energy=-1.26974174 Lattice="15.00000000 0.00000000 0.00000000 0.00000000 15.00000000 0.00000000 0.00000000 0.00000000 15.00000000" energy_frozen_part=0.00000000 Properties=species:S:1:pos:R:3:velocities:R:3:Z:I:1
H         8.57731146       8.03486804       6.08933612         0.00000000       0.00000000       0.00000000          1
H         5.78502310       7.97826119       6.15424792         0.00000000       0.00000000       0.00000000          1
H         7.13642778      10.41886410       6.30076484         0.00000000       0.00000000       0.00000000          1
H         5.69892905       9.75413232       3.99945504         0.00000000       0.00000000       0.00000000          1
H         7.13981998       7.37014032       3.78802922         0.00000000       0.00000000       0.00000000          1
H         8.49121731       9.81073699       3.93454395         0.00000000       0.00000000       0.00000000          1
6
pbc=[F, F, F] list_num_par=6 frozen=false iter=20000 energy=-1.26974174 Lattice="15.00000000 0.00000000 0.00000000 0.00000000 15.00000000 0.00000000 0.00000000 0.00000000 15.00000000" energy_frozen_part=0.00000000 Properties=species:S:1:pos:R:3:velocities:R:3:Z:I:1
H         8.75006561       4.56106335       4.94142516         0.00000000       0.00000000       0.00000000          1
H        10.54689772       2.42614767       5.07489764         0.00000000       0.00000000       0.00000000          1
H        11.84081623       3.64972522       7.22732045         0.00000000       0.00000000       0.00000000          1
H        11.49989656       5.04061616       4.82867975         0.00000000       0.00000000       0.00000000          1
H        10.04397680       5.78464130       7.09385373         0.00000000       0.00000000       0.00000000          1
H         9.09098181       3.17017505       7.34006614         0.00000000       0.00000000       0.00000000          1
6
pbc=[F, F, F] list_num_par=6 frozen=false iter=20000 energy=-1.26974174 Lattice="15.00000000 0.00000000 0.00000000 0.00000000 15.00000000 0.00000000 0.00000000 0.00000000 15.00000000" energy_frozen_part=0.00000000 Properties=species:S:1:pos:R:3:velocities:R:3:Z:I:1
H         8.75047412       4.56074507       4.94105879         0.00000000       0.00000000       0.00000000          1
H        10.54756928       2.42612546       5.07559974         0.00000000       0.00000000       0.00000000          1
H        11.84089059       3.65061098       7.22786384         0.00000000       0.00000000       0.00000000          1
H        11.50026841       5.04064192       4.82868793         0.00000000       0.00000000       0.00000000          1
H        10.04379675       5.78523755       7.09331769         0.00000000       0.00000000       0.00000000          1
H         9.09110171       3.17071850       7.34023960         0.00000000       0.00000000       0.00000000          1
6
pbc=[F, F, F] list_num_par=6 frozen=false iter=20000 energy=-1.26974174 Lattice="15.00000000 0.00000000 0.00000000 0.00000000 15.00000000 0.00000000 0.00000000 0.00000000 15.00000000" energy_frozen_part=0.00000000 Properties=species:S:1:pos:R:3:velocities:R:3:Z:I:1
H         8.75047854       4.56074383       4.94105360         0.00000000       0.00000000       0.00000000          1
H        10.54759853       2.42613490       5.07557484         0.00000000       0.00000000       0.00000000          1
H        11.84095976       3.65064597       7.22780077         0.00000000       0.00000000       0.00000000          1
H        11.50026298       5.04065456       4.82862290         0.00000000       0.00000000       0.00000000          1
H        10.04384057       5.78525547       7.09328069         0.00000000       0.00000000       0.00000000          1
H         9.09117233       3.17072630       7.34023509         0.00000000       0.00000000       0.00000000          1
6
pbc=[F, F, F] list_num_par=6 frozen=false iter=20000 energy=-1.26974174 Lattice="15.00000000 0.00000000 0.00000000 0.00000000 15.00000000 0.00000000 0.00000000 0.00000000 15.00000000" energy_frozen_part=0.00000000 Properties=species:S:1:pos:R:3:velocities:R:3:Z:I:1
H         8.75049975       4.56073394       4.94102126         0.00000000       0.00000000       0.00000000          1
H        10.54760886       2.42612453       5.07556876         0.00000000       0.00000000       0.00000000          1
H        11.84096212       3.65064658       7.22779602         0.00000000       0.00000000       0.00000000          1
H        11.50028511       5.04063773       4.82859640         0.00000000       0.00000000       0.00000000          1
H        10.04385454       5.78525544       7.09324143         0.00000000       0.00000000       0.00000000          1
H         9.09117581       3.17073792       7.34022077         0.00000000       0.00000000       0.00000000          1
6
pbc=[F, F, F] list_num_par=6 frozen=false iter=20000 energy=-1.26974174 Lattice="15.00000000 0.00000000 0.00000000 0.00000000 15.00000000 0.00000000 0.00000000 0.00000000 15.00000000" energy_frozen_part=0.00000000 Properties=species:S:1:pos:R:3:velocities:R:3:Z:I:1
H         8.75002808       4.56106766       4.94143725         0.00000000       0.00000000       0.00000000          1
H        10.54686082       2.42615078       5.07487468         0.00000000       0.00000000       0.00000000          1
H        11.84079918       3.64971558       7.22728936         0.00000000       0.00000000       0.00000000          1
H        11.49985700       5.04062213       4.82866185         0.00000000       0.00000000       0.00000000          1
H        10.04396341       5.78463696       7.09384904         0.00000000       0.00000000       0.00000000          1
H         9.09096672       3.17016502       7.34006625         0.00000000       0.00000000       0.00000000          1
6
pbc=[F, F, F] list_num_par=6 frozen=false iter=20000 energy=-1.26974174 Lattice="15.00000000 0.00000000 0.00000000 0.00000000 15.00000000 0.00000000 0.00000000 0.00000000 15.00000000" energy_frozen_part=0.00000000 Properties=species:S:1:pos:R:3:velocities:R:3:Z:I:1
H         8.75048212       4.56072212       4.94104427         0.00000000       0.00000000       0.00000000          1
H        10.54759798       2.42611420       5.07559356         0.00000000       0.00000000       0.00000000          1
H        11.84093521       3.65062525       7.22783322         0.00000000       0.00000000       0.00000000          1
H        11.50027236       5.04062846       4.82864668         0.00000000       0.00000000       0.00000000          1
H        10.04382115       5.78524010       7.09328688         0.00000000       0.00000000       0.00000000          1
H         9.09114868       3.17072173       7.34023852         0.00000000       0.00000000       0.00000000          1
6
pbc=[F, F, F] list_num_par=6 frozen=false iter=20000 energy=-1.26974174 Lattice="15.00000000 0.00000000 0.00000000 0.00000000 15.00000000 0.00000000 0.00000000 0.00000000 15.00000000" energy_frozen_part=0.00000000 Properties=species:S:1:pos:R:3:velocities:R:3:Z:I:1
H         8.75048952       4.56071910       4.94104508         0.00000000       0.00000000       0.00000000          1
H        10.54761310       2.42611593       5.07557167         0.00000000       0.00000000       0.00000000          1
H        11.84094970       3.65062374       7.22781832         0.00000000       0.00000000       0.00000000          1
H        11.50027896       5.04064128       4.82863662         0.00000000       0.00000000       0.00000000          1
H        10.04382965       5.78523312       7.09328286         0.00000000       0.00000000       0.00000000          1
H         9.09116871       3.17069968       7.34022467         0.00000000       0.00000000       0.00000000          1
6
pbc=[F, F, F] list_num_par=6 frozen=false iter=20000 energy=-1.26974174 Lattice="15.00000000 0.00000000 0.00000000 0.00000000 15.00000000 0.00000000 0.00000000 0.00000000 15.00000000" energy_frozen_part=0.00000000 Properties=species:S:1:pos:R:3:velocities:R:3:Z:I:1
H         8.75049275       4.56073170       4.94105317         0.00000000       0.00000000       0.00000000          1
H        10.54760824       2.42612377       5.07559004         0.00000000       0.00000000       0.00000000          1
H        11.84094001       3.65063056       7.22783060         0.00000000       0.00000000       0.00000000          1
H        11.50028076       5.04064753       4.82865055         0.00000000       0.00000000       0.00000000          1
H        10.04382745       5.78523670       7.09329879         0.00000000       0.00000000       0.00000000          1
H         9.09115181       3.17071119       7.34023787         0.00000000       0.00000000       0.00000000          1
6
pbc=[F, F, F] list_num_par=6 frozen=false iter=20000 energy=-1.26974174 Lattice="15.00000000 0.00000000 0.00000000 0.00000000 15.00000000 0.00000000 0.00000000 0.00000000 15.00000000" energy_frozen_part=0.00000000 Properties=species:S:1:pos:R:3:velocities:R:3:Z:I:1
H         8.75155667       4.56025500       4.93982878         0.00000000       0.00000000       0.00000000          1
H        10.54694940       2.42433102       5.07645536         0.00000000       0.00000000       0.00000000          1
H        11.84025596       3.64910999       7.22856062         0.00000000       0.00000000       0.00000000          1
H        11.50176785       5.03796174       4.82839406         0.00000000       0.00000000       0.00000000          1
H        10.04486085       5.78502899       7.09193079         0.00000000       0.00000000       0.00000000          1
H         9.09004521       3.17140281       7.33999719         0.00000000       0.00000000       0.00000000          1
6
pbc=[F, F, F] list_num_par=6 frozen=false iter=20000 energy=-1.26974174 Lattice="15.00000000 0.00000000 0.00000000 0.00000000 15.00000000 0.00000000 0.00000000 0.00000000 15.00000000" energy_frozen_part=0.00000000 Properties=species:S:1:pos:R:3:velocities:R:3:Z:I:1
H         8.75045585       4.56069892       4.94105833         0.00000000       0.00000000       0.00000000          1
H        10.54763739       2.42614387       5.07561990         0.00000000       0.00000000       0.00000000          1
H        11.84091091       3.65068747       7.22787391         0.00000000       0.00000000       0.00000000          1
H        11.50022750       5.04069957       4.82868485         0.00000000       0.00000000       0.00000000          1
H        10.04372818       5.78524125       7.09331693         0.00000000       0.00000000       0.00000000          1
H         9.09113129       3.17069334       7.34024941         0.00000000       0.00000000       0.00000000          1
6
pbc=[F, F, F] list_num_par=6 frozen=false iter=20000 energy=-1.26974174 Lattice="15.00000000 0.00000000 0.00000000 0.00000000 15.00000000 0.00000000 0.00000000 0.00000000 15.00000000" energy_frozen_part=0.00000000 Properties=species:S:1:pos:R:3:velocities:R:3:Z:I:1
H         8.75158404       4.56028267       4.93983640         0.00000000       0.00000000       0.00000000          1
H        10.54694774       2.42433348       5.07648672         0.00000000       0.00000000       0.00000000          1
H        11.84024793       3.64909130       7.22860087         0.00000000       0.00000000       0.00000000          1
H        11.50180333       5.03794836       4.82842589         0.00000000       0.00000000       0.00000000          1
H        10.04488710       5.78504080       7.09194931         0.00000000       0.00000000       0.00000000          1
H         9.09003027       3.17142134       7.34000476         0.00000000       0.00000000       0.00000000          1
6
pbc=[F, F, F] list_num_par=6 frozen=false iter=20000 energy=-1.26974174 Lattice="15.00000000 0.00000000 0.00000000 0.00000000 15.00000000 0.00000000 0.00000000 0.00000000 15.00000000" energy_frozen_part=0.00000000 Properties=species:S:1:pos:R:3:velocities:R:3:Z:I:1
H         8.75050793       4.56073295       4.94101945         0.00000000       0.00000000       0.00000000          1
H        10.54761603       2.42611192       5.07557926         0.00000000       0.00000000       0.00000000          1
H        11.84096904       3.65064116       7.22779948         0.00000000       0.00000000       0.00000000          1
H        11.50029424       5.04062480       4.82859800         0.00000000       0.00000000       0.00000000          1
H        10.04385925       5.78525472       7.09324031         0.00000000       0.00000000       0.00000000          1
H         9.09117859       3.17073567       7.34021840         0.00000000       0.00000000       0.00000000          1
6
pbc=[F, F, F] list_num_par=6 frozen=false iter=20000 energy=-1.26974174 Lattice="15.00000000 0.00000000 0.00000000 0.00000000 15.00000000 0.00000000 0.00000000 0.00000000 15.00000000" energy_frozen_part=0.00000000 Properties=species:S:1:pos:R:3:velocities:R:3:Z:I:1
H         8.75002527       4.56106823       4.94143358         0.00000000       0.00000000       0.00000000          1
H        10.54685591       2.42614584       5.07487691         0.00000000       0.00000000       0.00000000          1
H        11.84080029       3.64971384       7.22729476         0.00000000       0.00000000       0.00000000          1
H        11.49986835       5.04060883       4.82865643         0.00000000       0.00000000       0.00000000          1
H        10.04397279       5.78463155       7.09384607         0.00000000       0.00000000       0.00000000          1
H         9.09096660       3.17016614       7.34006844         0.00000000       0.00000000       0.00000000          1
6
pbc=[F, F, F] list_num_par=6 frozen=false iter=20000 energy=-1.26974174 Lattice="15.00000000 0.00000000 0.00000000 0.00000000 15.00000000 0.00000000 0.00000000 0.00000000 15.00000000" energy_frozen_part=0.00000000 Properties=species:S:1:pos:R:3:velocities:R:3:Z:I:1
H         8.75050151       4.56072928       4.94104796         0.00000000       0.00000000       0.00000000          1
H        10.54760552       2.42611006       5.07560339         0.00000000       0.00000000       0.00000000          1
H        11.84092461       3.65059314       7.22786988         0.00000000       0.00000000       0.00000000          1
H        11.50029307       5.04062872       4.82868854         0.00000000       0.00000000       0.00000000          1
H        10.04382439       5.78521526       7.09331584         0.00000000       0.00000000       0.00000000          1
H         9.09112782       3.17070026       7.34023271         0.00000000       0.00000000       0.00000000          1
6
pbc=[F, F, F] list_num_par=6 frozen=false iter=20000 energy=-1.26974174 Lattice="15.00000000 0.00000000 0.00000000 0.00000000 15.00000000 0.00000000 0.00000000 0.00000000 15.00000000" energy_frozen_part=0.00000000 Properties=species:S:1:pos:R:3:velocities:R:3:Z:I:1
H         8.75007997       4.56109255       4.94144459         0.00000000       0.00000000       0.00000000          1
H        10.54687640       2.42614669       5.07487366         0.00000000       0.00000000       0.00000000          1
H        11.84081938       3.64966596       7.22731625         0.00000000       0.00000000       0.00000000          1
H        11.49991638       5.04060278       4.82869862         0.00000000       0.00000000       0.00000000          1
H        10.04401239       5.78460779       7.09388811         0.00000000       0.00000000       0.00000000          1
H         9.09097177       3.17014963       7.34006694         0.00000000       0.00000000       0.00000000          1
