6
iter=20000 frozen=false energy=-1.26974174 energy_frozen_part=0.00000000 Lattice="15.00000000 0.00000000 0.00000000 0.00000000 15.00000000 0.00000000 0.00000000 0.00000000 15.00000000" pbc=[F, F, F] list_num_par=6 Properties=species:S:1:pos:R:3:Z:I:1:velocities:R:3
H        11.52706406       2.93313807      13.63353515          1         0.00000000       0.00000000       0.00000000
H        13.98110961       1.70810316      14.16384821          1         0.00000000       0.00000000       0.00000000
H        14.58904261       1.74568307      11.43744054          1         0.00000000       0.00000000       0.00000000
H        13.89839433       4.11454282      12.74733188          1         0.00000000       0.00000000       0.00000000
H        12.21770208       0.56428864      12.32363763          1         0.00000000       0.00000000       0.00000000
H        12.13499120       2.97071985      10.90712541          1         0.00000000       0.00000000       0.00000000
6
iter=20000 frozen=false energy=-1.26974174 energy_frozen_part=0.00000000 Lattice="15.00000000 0.00000000 0.00000000 0.00000000 15.00000000 0.00000000 0.00000000 0.00000000 15.00000000" pbc=[F, F, F] list_num_par=6 Properties=species:S:1:pos:R:3:Z:I:1:velocities:R:3
H        11.52586970       2.93995293      13.61345176          1         0.00000000       0.00000000       0.00000000
H        13.96260699       1.69522525      14.17668075          1         0.00000000       0.00000000       0.00000000
H        14.60681020       1.72641665      11.45854387          1         0.00000000       0.00000000       0.00000000
H        13.91827274       4.10151562      12.75819803          1         0.00000000       0.00000000       0.00000000
H        12.21440271       0.56485719      12.31378982          1         0.00000000       0.00000000       0.00000000
H        12.17007621       2.97115111      10.89530746          1         0.00000000       0.00000000       0.00000000
6
iter=20000 frozen=false energy=-1.26974174 energy_frozen_part=0.00000000 Lattice="15.00000000 0.00000000 0.00000000 0.00000000 15.00000000 0.00000000 0.00000000 0.00000000 15.00000000" pbc=[F, F, F] list_num_par=6 Properties=species:S:1:pos:R:3:Z:I:1:velocities:R:3
H        11.52787335       2.93740018      13.61329767          1         0.00000000       0.00000000       0.00000000
H        13.96288391       1.69025518      14.17865166          1         0.00000000       0.00000000       0.00000000
H        14.60639325       1.71439610      11.46027071          1         0.00000000       0.00000000       0.00000000
H        13.92179989       4.09342802      12.75481079          1         0.00000000       0.00000000       0.00000000
H        12.21247354       0.55837125      12.31876818          1         0.00000000       0.00000000       0.00000000
H        12.17138450       2.96155050      10.89492327          1         0.00000000       0.00000000       0.00000000
6
iter=20000 frozen=false energy=-1.26974174 energy_frozen_part=0.00000000 Lattice="15.00000000 0.00000000 0.00000000 0.00000000 15.00000000 0.00000000 0.00000000 0.00000000 15.00000000" pbc=[F, F, F] list_num_par=6 Properties=species:S:1:pos:R:3:Z:I:1:velocities:R:3
H        11.52775904       2.93764226      13.61338924          1         0.00000000       0.00000000       0.00000000
H        13.96277092       1.69050952      14.17877193          1         0.00000000       0.00000000       0.00000000
H        14.60626331       1.71456664      11.46038643          1         0.00000000       0.00000000       0.00000000
H        13.92168316       4.09363826      12.75484994          1         0.00000000       0.00000000       0.00000000
H        12.21234667       0.55857554      12.31892458          1         0.00000000       0.00000000       0.00000000
H        12.17125495       2.96170509      10.89500122          1         0.00000000       0.00000000       0.00000000
6
iter=20000 frozen=false energy=-1.26974174 energy_frozen_part=0.00000000 Lattice="15.00000000 0.00000000 0.00000000 0.00000000 15.00000000 0.00000000 0.00000000 0.00000000 15.00000000" pbc=[F, F, F] list_num_par=6 Properties=species:S:1:pos:R:3:Z:I:1:velocities:R:3
H        11.52736796       2.93329802      13.63331820          1         0.00000000       0.00000000       0.00000000
H        13.98137308       1.70823973      14.16375447          1         0.00000000       0.00000000       0.00000000
H        14.58950156       1.74595195      11.43739744          1         0.00000000       0.00000000       0.00000000
H        13.89876508       4.11474707      12.74735215          1         0.00000000       0.00000000       0.00000000
H        12.21810666       0.56450211      12.32336653          1         0.00000000       0.00000000       0.00000000
H        12.13550024       2.97100106      10.90695799          1         0.00000000       0.00000000       0.00000000
6
iter=20000 frozen=false energy=-1.26974174 energy_frozen_part=0.00000000 Lattice="15.00000000 0.00000000 0.00000000 0.00000000 15.00000000 0.00000000 0.00000000 0.00000000 15.00000000" pbc=[F, F, F] list_num_par=6 Properties=species:S:1:pos:R:3:Z:I:1:velocities:R:3
H        11.52577692       2.93989547      13.61340431          1         0.00000000       0.00000000       0.00000000
H        13.96255526       1.69526799      14.17669428          1         0.00000000       0.00000000       0.00000000
H        14.60682915       1.72650677      11.45856695          1         0.00000000       0.00000000       0.00000000
H        13.91815635       4.10156151      12.75822429          1         0.00000000       0.00000000       0.00000000
H        12.21444965       0.56483888      12.31374768          1         0.00000000       0.00000000       0.00000000
H        12.17005734       2.97113875      10.89528313          1         0.00000000       0.00000000       0.00000000
6
iter=20000 frozen=false energy=-1.26974174 energy_frozen_part=0.00000000 Lattice="15.00000000 0.00000000 0.00000000 0.00000000 15.00000000 0.00000000 0.00000000 0.00000000 15.00000000" pbc=[F, F, F] list_num_par=6 Properties=species:S:1:pos:R:3:Z:I:1:velocities:R:3
H        11.52744370       2.93332773      13.63328731          1         0.00000000       0.00000000       0.00000000
H        13.98144636       1.70821851      14.16364600          1         0.00000000       0.00000000       0.00000000
H        14.58946741       1.74589653      11.43726252          1         0.00000000       0.00000000       0.00000000
H        13.89883484       4.11471235      12.74722738          1         0.00000000       0.00000000       0.00000000
H        12.21807623       0.56450551      12.32332827          1         0.00000000       0.00000000       0.00000000
H        12.13547156       2.97100279      10.90690516          1         0.00000000       0.00000000       0.00000000
6
iter=20000 frozen=false energy=-1.26974174 energy_frozen_part=0.00000000 Lattice="15.00000000 0.00000000 0.00000000 0.00000000 15.00000000 0.00000000 0.00000000 0.00000000 15.00000000" pbc=[F, F, F] list_num_par=6 Properties=species:S:1:pos:R:3:Z:I:1:velocities:R:3
H        11.52578689       2.93986726      13.61348537          1         0.00000000       0.00000000       0.00000000
H        13.96259410       1.69525926      14.17667251          1         0.00000000       0.00000000       0.00000000
H        14.60681538       1.72660733      11.45853037          1         0.00000000       0.00000000       0.00000000
H        13.91812289       4.10160595      12.75829082          1         0.00000000       0.00000000       0.00000000
H        12.21447763       0.56486183      12.31373198          1         0.00000000       0.00000000       0.00000000
H        12.17000138       2.97120416      10.89534329          1         0.00000000       0.00000000       0.00000000
6
iter=20000 frozen=false energy=-1.26974174 energy_frozen_part=0.00000000 Lattice="15.00000000 0.00000000 0.00000000 0.00000000 15.00000000 0.00000000 0.00000000 0.00000000 15.00000000" pbc=[F, F, F] list_num_par=6 Properties=species:S:1:pos:R:3:Z:I:1:velocities:R:3
H        11.52743893       2.93331751      13.63330283          1         0.00000000       0.00000000       0.00000000
H        13.98144699       1.70821725      14.16364615          1         0.00000000       0.00000000       0.00000000
H        14.58945955       1.74589859      11.43726060          1         0.00000000       0.00000000       0.00000000
H        13.89881737       4.11471713      12.74722061          1         0.00000000       0.00000000       0.00000000
H        12.21807576       0.56450044      12.32333844          1         0.00000000       0.00000000       0.00000000
H        12.13545120       2.97099988      10.90691719          1         0.00000000       0.00000000       0.00000000
6
iter=20000 frozen=false energy=-1.26974174 energy_frozen_part=0.00000000 Lattice="15.00000000 0.00000000 0.00000000 0.00000000 15.00000000 0.00000000 0.00000000 0.00000000 15.00000000" pbc=[F, F, F] list_num_par=6 Properties=species:S:1:pos:R:3:Z:I:1:velocities:R:3
H        11.52583610       2.93998004      13.61342423          1         0.00000000       0.00000000       0.00000000
H        13.96256615       1.69523883      14.17669400          1         0.00000000       0.00000000       0.00000000
H        14.60680130       1.72641520      11.45855495          1         0.00000000       0.00000000       0.00000000
H        13.91825865       4.10151757      12.75819864          1         0.00000000       0.00000000       0.00000000
H        12.21437479       0.56487512      12.31378201          1         0.00000000       0.00000000       0.00000000
H        12.17007632       2.97115783      10.89528798          1         0.00000000       0.00000000       0.00000000
6
iter=20000 frozen=false energy=-1.26974174 energy_frozen_part=0.00000000 Lattice="15.00000000 0.00000000 0.00000000 0.00000000 15.00000000 0.00000000 0.00000000 0.00000000 15.00000000" pbc=[F, F, F] list_num_par=6 Properties=species:S:1:pos:R:3:Z:I:1:velocities:R:3
H        11.52575761       2.93986925      13.61343226          1         0.00000000       0.00000000       0.00000000
H        13.96255791       1.69528840      14.17672220          1         0.00000000       0.00000000       0.00000000
H        14.60682469       1.72650983      11.45858805          1         0.00000000       0.00000000       0.00000000
H        13.91811310       4.10156907      12.75822018          1         0.00000000       0.00000000       0.00000000
H        12.21446580       0.56481131      12.31379740          1         0.00000000       0.00000000       0.00000000
H        12.17002316       2.97109371      10.89530415          1         0.00000000       0.00000000       0.00000000
6
iter=20000 frozen=false energy=-1.26974174 energy_frozen_part=0.00000000 Lattice="15.00000000 0.00000000 0.00000000 0.00000000 15.00000000 0.00000000 0.00000000 0.00000000 15.00000000" pbc=[F, F, F] list_num_par=6 Properties=species:S:1:pos:R:3:Z:I:1:velocities:R:3
H        11.52709877       2.93328181      13.63340459          1         0.00000000       0.00000000       0.00000000
H        13.98111982       1.70823999      14.16382896          1         0.00000000       0.00000000       0.00000000
H        14.58920893       1.74589857      11.43746426          1         0.00000000       0.00000000       0.00000000
H        13.89848168       4.11471599      12.74737435          1         0.00000000       0.00000000       0.00000000
H        12.21782973       0.56446029      12.32348624          1         0.00000000       0.00000000       0.00000000
H        12.13518547       2.97093064      10.90703235          1         0.00000000       0.00000000       0.00000000
6
iter=20000 frozen=false energy=-1.26974174 energy_frozen_part=0.00000000 Lattice="15.00000000 0.00000000 0.00000000 0.00000000 15.00000000 0.00000000 0.00000000 0.00000000 15.00000000" pbc=[F, F, F] list_num_par=6 Properties=species:S:1:pos:R:3:Z:I:1:velocities:R:3
H        11.52709535       2.93329268      13.63340501          1         0.00000000       0.00000000       0.00000000
H        13.98110984       1.70824303      14.16384765          1         0.00000000       0.00000000       0.00000000
H        14.58921455       1.74589031      11.43748700          1         0.00000000       0.00000000       0.00000000
H        13.89848791       4.11471805      12.74738835          1         0.00000000       0.00000000       0.00000000
H        12.21782018       0.56446892      12.32350107          1         0.00000000       0.00000000       0.00000000
H        12.13520637       2.97094302      10.90703501          1         0.00000000       0.00000000       0.00000000
6
iter=20000 frozen=false energy=-1.26974174 energy_frozen_part=0.00000000 Lattice="15.00000000 0.00000000 0.00000000 0.00000000 15.00000000 0.00000000 0.00000000 0.00000000 15.00000000" pbc=[F, F, F] list_num_par=6 Properties=species:S:1:pos:R:3:Z:I:1:velocities:R:3
H        11.52786446       2.93740549      13.61330858          1         0.00000000       0.00000000       0.00000000
H        13.96288379       1.69025910      14.17866516          1         0.00000000       0.00000000       0.00000000
H        14.60639890       1.71440461      11.46028263          1         0.00000000       0.00000000       0.00000000
H        13.92179474       4.09343314      12.75482337          1         0.00000000       0.00000000       0.00000000
H        12.21247099       0.55837675      12.31878122          1         0.00000000       0.00000000       0.00000000
H        12.17138607       2.96155385      10.89493177          1         0.00000000       0.00000000       0.00000000
6
iter=20000 frozen=false energy=-1.26974174 energy_frozen_part=0.00000000 Lattice="15.00000000 0.00000000 0.00000000 0.00000000 15.00000000 0.00000000 0.00000000 0.00000000 15.00000000" pbc=[F, F, F] list_num_par=6 Properties=species:S:1:pos:R:3:Z:I:1:velocities:R:3
H        11.52704144       2.93308977      13.63355336          1         0.00000000       0.00000000       0.00000000
H        13.98110927       1.70808278      14.16383311          1         0.00000000       0.00000000       0.00000000
H        14.58901549       1.74569671      11.43741953          1         0.00000000       0.00000000       0.00000000
H        13.89835929       4.11452831      12.74734325          1         0.00000000       0.00000000       0.00000000
H        12.21770195       0.56426421      12.32362434          1         0.00000000       0.00000000       0.00000000
H        12.13494544       2.97071066      10.90713948          1         0.00000000       0.00000000       0.00000000
6
iter=20000 frozen=false energy=-1.26974174 energy_frozen_part=0.00000000 Lattice="15.00000000 0.00000000 0.00000000 0.00000000 15.00000000 0.00000000 0.00000000 0.00000000 15.00000000" pbc=[F, F, F] list_num_par=6 Properties=species:S:1:pos:R:3:Z:I:1:velocities:R:3
H        11.52576524       2.93987791      13.61343335          1         0.00000000       0.00000000       0.00000000
H        13.96256501       1.69529047      14.17671221          1         0.00000000       0.00000000       0.00000000
H        14.60682333       1.72650639      11.45858311          1         0.00000000       0.00000000       0.00000000
H        13.91812090       4.10156924      12.75822191          1         0.00000000       0.00000000       0.00000000
H        12.21446858       0.56481751      12.31379108          1         0.00000000       0.00000000       0.00000000
H        12.17001578       2.97109621      10.89530217          1         0.00000000       0.00000000       0.00000000
6
iter=20000 frozen=false energy=-1.26974174 energy_frozen_part=0.00000000 Lattice="15.00000000 0.00000000 0.00000000 0.00000000 15.00000000 0.00000000 0.00000000 0.00000000 15.00000000" pbc=[F, F, F] list_num_par=6 Properties=species:S:1:pos:R:3:Z:I:1:velocities:R:3
H        11.52707457       2.93312799      13.63352379          1         0.00000000       0.00000000       0.00000000
H        13.98111575       1.70807967      14.16380659          1         0.00000000       0.00000000       0.00000000
H        14.58902369       1.74568452      11.43739789          1         0.00000000       0.00000000       0.00000000
H        13.89839862       4.11453001      12.74730690          1         0.00000000       0.00000000       0.00000000
H        12.21769220       0.56428073      12.32360335          1         0.00000000       0.00000000       0.00000000
H        12.13497501       2.97072280      10.90711169          1         0.00000000       0.00000000       0.00000000
6
iter=20000 frozen=false energy=-1.26974174 energy_frozen_part=0.00000000 Lattice="15.00000000 0.00000000 0.00000000 0.00000000 15.00000000 0.00000000 0.00000000 0.00000000 15.00000000" pbc=[F, F, F] list_num_par=6 Properties=species:S:1:pos:R:3:Z:I:1:velocities:R:3
H        11.52706719       2.93310909      13.63355651          1         0.00000000       0.00000000       0.00000000
H        13.98112286       1.70808448      14.16382752          1         0.00000000       0.00000000       0.00000000
H        14.58899955       1.74568134      11.43740670          1         0.00000000       0.00000000       0.00000000
H        13.89837643       4.11452702      12.74732369          1         0.00000000       0.00000000       0.00000000
H        12.21769374       0.56426359      12.32364337          1         0.00000000       0.00000000       0.00000000
H        12.13493811       2.97070841      10.90713955          1         0.00000000       0.00000000       0.00000000
6
iter=20000 frozen=false energy=-1.26974174 energy_frozen_part=0.00000000 Lattice="15.00000000 0.00000000 0.00000000 0.00000000 15.00000000 0.00000000 0.00000000 0.00000000 15.00000000" pbc=[F, F, F] list_num_par=6 Properties=species:S:1:pos:R:3:Z:I:1:velocities:R:3
H        11.52772752       2.93754738      13.61327249          1         0.00000000       0.00000000       0.00000000
H        13.96265069       1.69027579      14.17874760          1         0.00000000       0.00000000       0.00000000
H        14.60630277       1.71439551      11.46040371          1         0.00000000       0.00000000       0.00000000
H        13.92175121       4.09346197      12.75490237          1         0.00000000       0.00000000       0.00000000
H        12.21227430       0.55848170      12.31876404          1         0.00000000       0.00000000       0.00000000
H        12.17137804       2.96166204      10.89492656          1         0.00000000       0.00000000       0.00000000
6
iter=20000 frozen=false energy=-1.26974174 energy_frozen_part=0.00000000 Lattice="15.00000000 0.00000000 0.00000000 0.00000000 15.00000000 0.00000000 0.00000000 0.00000000 15.00000000" pbc=[F, F, F] list_num_par=6 Properties=species:S:1:pos:R:3:Z:I:1:velocities:R:3
H        11.52578096       2.93987530      13.61347313          1         0.00000000       0.00000000       0.00000000
H        13.96259704       1.69527617      14.17667199          1         0.00000000       0.00000000       0.00000000
H        14.60681545       1.72660284      11.45853678          1         0.00000000       0.00000000       0.00000000
H        13.91812242       4.10160832      12.75828233          1         0.00000000       0.00000000       0.00000000
H        12.21447691       0.56487042      12.31373396          1         0.00000000       0.00000000       0.00000000
H        12.17000542       2.97121135      10.89533784          1         0.00000000       0.00000000       0.00000000
6
iter=20000 frozen=false energy=-1.26974174 energy_frozen_part=0.00000000 Lattice="15.00000000 0.00000000 0.00000000 0.00000000 15.00000000 0.00000000 0.00000000 0.00000000 15.00000000" pbc=[F, F, F] list_num_par=6 Properties=species:S:1:pos:R:3:Z:I:1:velocities:R:3
H        11.52775921       2.93764067      13.61339112          1         0.00000000       0.00000000       0.00000000
H        13.96277270       1.69051431      14.17877122          1         0.00000000       0.00000000       0.00000000
H        14.60627057       1.71457146      11.46038842          1         0.00000000       0.00000000       0.00000000
H        13.92167970       4.09364009      12.75484851          1         0.00000000       0.00000000       0.00000000
H        12.21234783       0.55856651      12.31892593          1         0.00000000       0.00000000       0.00000000
H        12.17125440       2.96170072      10.89500319          1         0.00000000       0.00000000       0.00000000
6
iter=20000 frozen=false energy=-1.26974174 energy_frozen_part=0.00000000 Lattice="15.00000000 0.00000000 0.00000000 0.00000000 15.00000000 0.00000000 0.00000000 0.00000000 15.00000000" pbc=[F, F, F] list_num_par=6 Properties=species:S:1:pos:R:3:Z:I:1:velocities:R:3
H        11.52789180       2.93740818      13.61330374          1         0.00000000       0.00000000       0.00000000
H        13.96289457       1.69025084      14.17865901          1         0.00000000       0.00000000       0.00000000
H        14.60640836       1.71438819      11.46027617          1         0.00000000       0.00000000       0.00000000
H        13.92182699       4.09342840      12.75481334          1         0.00000000       0.00000000       0.00000000
H        12.21247888       0.55837162      12.31877453          1         0.00000000       0.00000000       0.00000000
H        12.17140316       2.96154728      10.89492458          1         0.00000000       0.00000000       0.00000000
6
iter=20000 frozen=false energy=-1.26974174 energy_frozen_part=0.00000000 Lattice="15.00000000 0.00000000 0.00000000 0.00000000 15.00000000 0.00000000 0.00000000 0.00000000 15.00000000" pbc=[F, F, F] list_num_par=6 Properties=species:S:1:pos:R:3:Z:I:1:velocities:R:3
H        11.52706934       2.93330555      13.63336997          1         0.00000000       0.00000000       0.00000000
H        13.98108287       1.70827867      14.16385277          1         0.00000000       0.00000000       0.00000000
H        14.58922951       1.74590135      11.43749073          1         0.00000000       0.00000000       0.00000000
H        13.89846463       4.11473259      12.74736965          1         0.00000000       0.00000000       0.00000000
H        12.21783077       0.56447473      12.32349865          1         0.00000000       0.00000000       0.00000000
H        12.13521529       2.97092549      10.90700632          1         0.00000000       0.00000000       0.00000000
6
iter=20000 frozen=false energy=-1.26974174 energy_frozen_part=0.00000000 Lattice="15.00000000 0.00000000 0.00000000 0.00000000 15.00000000 0.00000000 0.00000000 0.00000000 15.00000000" pbc=[F, F, F] list_num_par=6 Properties=species:S:1:pos:R:3:Z:I:1:velocities:R:3
H        11.52736689       2.93328671      13.63332231          1         0.00000000       0.00000000       0.00000000
H        13.98138830       1.70825551      14.16376285          1         0.00000000       0.00000000       0.00000000
H        14.58951018       1.74595255      11.43740255          1         0.00000000       0.00000000       0.00000000
H        13.89875166       4.11474622      12.74734397          1         0.00000000       0.00000000       0.00000000
H        12.21813237       0.56449157      12.32338291          1         0.00000000       0.00000000       0.00000000
H        12.13549405       2.97098128      10.90696336          1         0.00000000       0.00000000       0.00000000
6
iter=20000 frozen=false energy=-1.26974174 energy_frozen_part=0.00000000 Lattice="15.00000000 0.00000000 0.00000000 0.00000000 15.00000000 0.00000000 0.00000000 0.00000000 15.00000000" pbc=[F, F, F] list_num_par=6 Properties=species:S:1:pos:R:3:Z:I:1:velocities:R:3
H        11.52579028       2.93990515      13.61342744          1         0.00000000       0.00000000       0.00000000
H        13.96259401       1.69530568      14.17666915          1         0.00000000       0.00000000       0.00000000
H        14.60683918       1.72658059      11.45853121          1         0.00000000       0.00000000       0.00000000
H        13.91813996       4.10161177      12.75822406          1         0.00000000       0.00000000       0.00000000
H        12.21448346       0.56487596      12.31373417          1         0.00000000       0.00000000       0.00000000
H        12.17003297       2.97118005      10.89529558          1         0.00000000       0.00000000       0.00000000
6
iter=20000 frozen=false energy=-1.26974174 energy_frozen_part=0.00000000 Lattice="15.00000000 0.00000000 0.00000000 0.00000000 15.00000000 0.00000000 0.00000000 0.00000000 15.00000000" pbc=[F, F, F] list_num_par=6 Properties=species:S:1:pos:R:3:Z:I:1:velocities:R:3
H        11.52579404       2.93986731      13.61347890          1         0.00000000       0.00000000       0.00000000
H        13.96260662       1.69526463      14.17667609          1         0.00000000       0.00000000       0.00000000
H        14.60682299       1.72659441      11.45854168          1         0.00000000       0.00000000       0.00000000
H        13.91813222       4.10159996      12.75827807          1         0.00000000       0.00000000       0.00000000
H        12.21448879       0.56485835      12.31373552          1         0.00000000       0.00000000       0.00000000
H        12.17001157       2.97119960      10.89534042          1         0.00000000       0.00000000       0.00000000
6
iter=20000 frozen=false energy=-1.26974174 energy_frozen_part=0.00000000 Lattice="15.00000000 0.00000000 0.00000000 0.00000000 15.00000000 0.00000000 0.00000000 0.00000000 15.00000000" pbc=[F, F, F] list_num_par=6 Properties=species:S:1:pos:R:3:Z:I:1:velocities:R:3
H        11.52577882       2.93990390      13.61341205          1         0.00000000       0.00000000       0.00000000
H        13.96255440       1.69526783      14.17668549          1         0.00000000       0.00000000       0.00000000
H        14.60682237       1.72650115      11.45855903          1         0.00000000       0.00000000       0.00000000
H        13.91815846       4.10156051      12.75822543          1         0.00000000       0.00000000       0.00000000
H        12.21444719       0.56484181      12.31374992          1         0.00000000       0.00000000       0.00000000
H        12.17004932       2.97114259      10.89528496          1         0.00000000       0.00000000       0.00000000
6
iter=20000 frozen=false energy=-1.26974174 energy_frozen_part=0.00000000 Lattice="15.00000000 0.00000000 0.00000000 0.00000000 15.00000000 0.00000000 0.00000000 0.00000000 15.00000000" pbc=[F, F, F] list_num_par=6 Properties=species:S:1:pos:R:3:Z:I:1:velocities:R:3
H        11.52706352       2.93310720      13.63352926          1         0.00000000       0.00000000       0.00000000
H        13.98111690       1.70808060      14.16380932          1         0.00000000       0.00000000       0.00000000
H        14.58901698       1.74569262      11.43739564          1         0.00000000       0.00000000       0.00000000
H        13.89838837       4.11453158      12.74732163          1         0.00000000       0.00000000       0.00000000
H        12.21770362       0.56426862      12.32360780          1         0.00000000       0.00000000       0.00000000
H        12.13496281       2.97072587      10.90712253          1         0.00000000       0.00000000       0.00000000
6
iter=20000 frozen=false energy=-1.26974174 energy_frozen_part=0.00000000 Lattice="15.00000000 0.00000000 0.00000000 0.00000000 15.00000000 0.00000000 0.00000000 0.00000000 15.00000000" pbc=[F, F, F] list_num_par=6 Properties=species:S:1:pos:R:3:Z:I:1:velocities:R:3
H        11.52742946       2.93332423      13.63329726          1         0.00000000       0.00000000       0.00000000
H        13.98143499       1.70821797      14.16364005          1         0.00000000       0.00000000       0.00000000
H        14.58945491       1.74589932      11.43725244          1         0.00000000       0.00000000       0.00000000
H        13.89882006       4.11470997      12.74723296          1         0.00000000       0.00000000       0.00000000
H        12.21807118       0.56451038      12.32332368          1         0.00000000       0.00000000       0.00000000
H        12.13545182       2.97100806      10.90691666          1         0.00000000       0.00000000       0.00000000
6
iter=20000 frozen=false energy=-1.26974174 energy_frozen_part=0.00000000 Lattice="15.00000000 0.00000000 0.00000000 0.00000000 15.00000000 0.00000000 0.00000000 0.00000000 15.00000000" pbc=[F, F, F] list_num_par=6 Properties=species:S:1:pos:R:3:Z:I:1:velocities:R:3
H        11.52706831       2.93312127      13.63352095          1         0.00000000       0.00000000       0.00000000
H        13.98111176       1.70807673      14.16380635          1         0.00000000       0.00000000       0.00000000
H        14.58902424       1.74567754      11.43739867          1         0.00000000       0.00000000       0.00000000
H        13.89839706       4.11452419      12.74730894          1         0.00000000       0.00000000       0.00000000
H        12.21768935       0.56427752      12.32360002          1         0.00000000       0.00000000       0.00000000
H        12.13497423       2.97071888      10.90711248          1         0.00000000       0.00000000       0.00000000
6
iter=20000 frozen=false energy=-1.26974174 energy_frozen_part=0.00000000 Lattice="15.00000000 0.00000000 0.00000000 0.00000000 15.00000000 0.00000000 0.00000000 0.00000000 15.00000000" pbc=[F, F, F] list_num_par=6 Properties=species:S:1:pos:R:3:Z:I:1:velocities:R:3
H        11.52706462       2.93329207      13.63335511          1         0.00000000       0.00000000       0.00000000
H        13.98106991       1.70826318      14.16385302          1         0.00000000       0.00000000       0.00000000
H        14.58923489       1.74588283      11.43750317          1         0.00000000       0.00000000       0.00000000
H        13.89847303       4.11472188      12.74737384          1         0.00000000       0.00000000       0.00000000
H        12.21782802       0.56445831      12.32348654          1         0.00000000       0.00000000       0.00000000
H        12.13523080       2.97091276      10.90700342          1         0.00000000       0.00000000       0.00000000
6
iter=20000 frozen=false energy=-1.26974174 energy_frozen_part=0.00000000 Lattice="15.00000000 0.00000000 0.00000000 0.00000000 15.00000000 0.00000000 0.00000000 0.00000000 15.00000000" pbc=[F, F, F] list_num_par=6 Properties=species:S:1:pos:R:3:Z:I:1:velocities:R:3
H        11.52585398       2.93994583      13.61346043          1         0.00000000       0.00000000       0.00000000
H        13.96259688       1.69521662      14.17668830          1         0.00000000       0.00000000       0.00000000
H        14.60681255       1.72643134      11.45854895          1         0.00000000       0.00000000       0.00000000
H        13.91825481       4.10151662      12.75822467          1         0.00000000       0.00000000       0.00000000
H        12.21440560       0.56486467      12.31377666          1         0.00000000       0.00000000       0.00000000
H        12.17007006       2.97115969      10.89531392          1         0.00000000       0.00000000       0.00000000
6
iter=20000 frozen=false energy=-1.26974174 energy_frozen_part=0.00000000 Lattice="15.00000000 0.00000000 0.00000000 0.00000000 15.00000000 0.00000000 0.00000000 0.00000000 15.00000000" pbc=[F, F, F] list_num_par=6 Properties=species:S:1:pos:R:3:Z:I:1:velocities:R:3
H        11.52775429       2.93764978      13.61338813          1         0.00000000       0.00000000       0.00000000
H        13.96277331       1.69051255      14.17876817          1         0.00000000       0.00000000       0.00000000
H        14.60627264       1.71457228      11.46038454          1         0.00000000       0.00000000       0.00000000
H        13.92167528       4.09364425      12.75484337          1         0.00000000       0.00000000       0.00000000
H        12.21235354       0.55857316      12.31892702          1         0.00000000       0.00000000       0.00000000
H        12.17125954       2.96170308      10.89500279          1         0.00000000       0.00000000       0.00000000
6
iter=20000 frozen=false energy=-1.26974174 energy_frozen_part=0.00000000 Lattice="15.00000000 0.00000000 0.00000000 0.00000000 15.00000000 0.00000000 0.00000000 0.00000000 15.00000000" pbc=[F, F, F] list_num_par=6 Properties=species:S:1:pos:R:3:Z:I:1:velocities:R:3
H        11.52706959       2.93312861      13.63351792          1         0.00000000       0.00000000       0.00000000
H        13.98111622       1.70807654      14.16379877          1         0.00000000       0.00000000       0.00000000
H        14.58903454       1.74568202      11.43739116          1         0.00000000       0.00000000       0.00000000
H        13.89840306       4.11452968      12.74731006          1         0.00000000       0.00000000       0.00000000
H        12.21769938       0.56428269      12.32359493          1         0.00000000       0.00000000       0.00000000
H        12.13498650       2.97072355      10.90710485          1         0.00000000       0.00000000       0.00000000
6
iter=20000 frozen=false energy=-1.26974174 energy_frozen_part=0.00000000 Lattice="15.00000000 0.00000000 0.00000000 0.00000000 15.00000000 0.00000000 0.00000000 0.00000000 15.00000000" pbc=[F, F, F] list_num_par=6 Properties=species:S:1:pos:R:3:Z:I:1:velocities:R:3
H        11.52706453       2.93310497      13.63352641          1         0.00000000       0.00000000       0.00000000
H        13.98111729       1.70806688      14.16380224          1         0.00000000       0.00000000       0.00000000
H        14.58901932       1.74567768      11.43739462          1         0.00000000       0.00000000       0.00000000
H        13.89839323       4.11451578      12.74731866          1         0.00000000       0.00000000       0.00000000
H        12.21769262       0.56426635      12.32359979          1         0.00000000       0.00000000       0.00000000
H        12.13496447       2.97071675      10.90711977          1         0.00000000       0.00000000       0.00000000
6
iter=20000 frozen=false energy=-1.26974174 energy_frozen_part=0.00000000 Lattice="15.00000000 0.00000000 0.00000000 0.00000000 15.00000000 0.00000000 0.00000000 0.00000000 15.00000000" pbc=[F, F, F] list_num_par=6 Properties=species:S:1:pos:R:3:Z:I:1:velocities:R:3
H        11.52579709       2.93987847      13.61347769          1         0.00000000       0.00000000       0.00000000
H        13.96260801       1.69526337      14.17667463          1         0.00000000       0.00000000       0.00000000
H        14.60682277       1.72658576      11.45853482          1         0.00000000       0.00000000       0.00000000
H        13.91814498       4.10159586      12.75828059          1         0.00000000       0.00000000       0.00000000
H        12.21447911       0.56486508      12.31374019          1         0.00000000       0.00000000       0.00000000
H        12.17001295       2.97120734      10.89534225          1         0.00000000       0.00000000       0.00000000
6
iter=20000 frozen=false energy=-1.26974174 energy_frozen_part=0.00000000 Lattice="15.00000000 0.00000000 0.00000000 0.00000000 15.00000000 0.00000000 0.00000000 0.00000000 15.00000000" pbc=[F, F, F] list_num_par=6 Properties=species:S:1:pos:R:3:Z:I:1:velocities:R:3
H        11.52705704       2.93309410      13.63353897          1         0.00000000       0.00000000       0.00000000
H        13.98112181       1.70807733      14.16381974          1         0.00000000       0.00000000       0.00000000
H        14.58901964       1.74569051      11.43741003          1         0.00000000       0.00000000       0.00000000
H        13.89836490       4.11453195      12.74732722          1         0.00000000       0.00000000       0.00000000
H        12.21770394       0.56426003      12.32361629          1         0.00000000       0.00000000       0.00000000
H        12.13496052       2.97070657      10.90712555          1         0.00000000       0.00000000       0.00000000
6
iter=20000 frozen=false energy=-1.26974174 energy_frozen_part=0.00000000 Lattice="15.00000000 0.00000000 0.00000000 0.00000000 15.00000000 0.00000000 0.00000000 0.00000000 15.00000000" pbc=[F, F, F] list_num_par=6 Properties=species:S:1:pos:R:3:Z:I:1:velocities:R:3
H        11.52706021       2.93310405      13.63353939          1         0.00000000       0.00000000       0.00000000
H        13.98111954       1.70808939      14.16382568          1         0.00000000       0.00000000       0.00000000
H        14.58903060       1.74569520      11.43741313          1         0.00000000       0.00000000       0.00000000
H        13.89837332       4.11452836      12.74732853          1         0.00000000       0.00000000       0.00000000
H        12.21771297       0.56426276      12.32362549          1         0.00000000       0.00000000       0.00000000
H        12.13496772       2.97070422      10.90713047          1         0.00000000       0.00000000       0.00000000
6
iter=20000 frozen=false energy=-1.26974174 energy_frozen_part=0.00000000 Lattice="15.00000000 0.00000000 0.00000000 0.00000000 15.00000000 0.00000000 0.00000000 0.00000000 15.00000000" pbc=[F, F, F] list_num_par=6 Properties=species:S:1:pos:R:3:Z:I:1:velocities:R:3
H        11.52586996       2.93992625      13.61345400          1         0.00000000       0.00000000       0.00000000
H        13.96262743       1.69524328      14.17671533          1         0.00000000       0.00000000       0.00000000
H        14.60685953       1.72642327      11.45857814          1         0.00000000       0.00000000       0.00000000
H        13.91826092       4.10151621      12.75819758          1         0.00000000       0.00000000       0.00000000
H        12.21446330       0.56483032      12.31382045          1         0.00000000       0.00000000       0.00000000
H        12.17009865       2.97110052      10.89531126          1         0.00000000       0.00000000       0.00000000
6
iter=20000 frozen=false energy=-1.26974174 energy_frozen_part=0.00000000 Lattice="15.00000000 0.00000000 0.00000000 0.00000000 15.00000000 0.00000000 0.00000000 0.00000000 15.00000000" pbc=[F, F, F] list_num_par=6 Properties=species:S:1:pos:R:3:Z:I:1:velocities:R:3
H        11.52704741       2.93309338      13.63355002          1         0.00000000       0.00000000       0.00000000
H        13.98111177       1.70808478      14.16383240          1         0.00000000       0.00000000       0.00000000
H        14.58901873       1.74569368      11.43741501          1         0.00000000       0.00000000       0.00000000
H        13.89836674       4.11452590      12.74733299          1         0.00000000       0.00000000       0.00000000
H        12.21770818       0.56425442      12.32363027          1         0.00000000       0.00000000       0.00000000
H        12.13494988       2.97070132      10.90713845          1         0.00000000       0.00000000       0.00000000
6
iter=20000 frozen=false energy=-1.26974174 energy_frozen_part=0.00000000 Lattice="15.00000000 0.00000000 0.00000000 0.00000000 15.00000000 0.00000000 0.00000000 0.00000000 15.00000000" pbc=[F, F, F] list_num_par=6 Properties=species:S:1:pos:R:3:Z:I:1:velocities:R:3
H        11.52586212       2.93992033      13.61343974          1         0.00000000       0.00000000       0.00000000
H        13.96261029       1.69523732      14.17672562          1         0.00000000       0.00000000       0.00000000
H        14.60685923       1.72640319      11.45858333          1         0.00000000       0.00000000       0.00000000
H        13.91826232       4.10150284      12.75820189          1         0.00000000       0.00000000       0.00000000
H        12.21446242       0.56481958      12.31381866          1         0.00000000       0.00000000       0.00000000
H        12.17010595       2.97109369      10.89530539          1         0.00000000       0.00000000       0.00000000
6
iter=20000 frozen=false energy=-1.26974174 energy_frozen_part=0.00000000 Lattice="15.00000000 0.00000000 0.00000000 0.00000000 15.00000000 0.00000000 0.00000000 0.00000000 15.00000000" pbc=[F, F, F] list_num_par=6 Properties=species:S:1:pos:R:3:Z:I:1:velocities:R:3
H        11.52575567       2.93987402      13.61343647          1         0.00000000       0.00000000       0.00000000
H        13.96255987       1.69528378      14.17672196          1         0.00000000       0.00000000       0.00000000
H        14.60681845       1.72650465      11.45859421          1         0.00000000       0.00000000       0.00000000
H        13.91811037       4.10156711      12.75822354          1         0.00000000       0.00000000       0.00000000
H        12.21445957       0.56481619      12.31379823          1         0.00000000       0.00000000       0.00000000
H        12.17001728       2.97109803      10.89530499          1         0.00000000       0.00000000       0.00000000
6
iter=20000 frozen=false energy=-1.26974174 energy_frozen_part=0.00000000 Lattice="15.00000000 0.00000000 0.00000000 0.00000000 15.00000000 0.00000000 0.00000000 0.00000000 15.00000000" pbc=[F, F, F] list_num_par=6 Properties=species:S:1:pos:R:3:Z:I:1:velocities:R:3
H        11.52774760       2.93757190      13.61326801          1         0.00000000       0.00000000       0.00000000
H        13.96266834       1.69031284      14.17875913          1         0.00000000       0.00000000       0.00000000
H        14.60631949       1.71442504      11.46040689          1         0.00000000       0.00000000       0.00000000
H        13.92176737       4.09348861      12.75489866          1         0.00000000       0.00000000       0.00000000
H        12.21230059       0.55850341      12.31878159          1         0.00000000       0.00000000       0.00000000
H        12.17139506       2.96168222      10.89492626          1         0.00000000       0.00000000       0.00000000
6
iter=20000 frozen=false energy=-1.26974174 energy_frozen_part=0.00000000 Lattice="15.00000000 0.00000000 0.00000000 0.00000000 15.00000000 0.00000000 0.00000000 0.00000000 15.00000000" pbc=[F, F, F] list_num_par=6 Properties=species:S:1:pos:R:3:Z:I:1:velocities:R:3
H        11.52578992       2.93984718      13.61346799          1         0.00000000       0.00000000       0.00000000
H        13.96261749       1.69526937      14.17666654          1         0.00000000       0.00000000       0.00000000
H        14.60682819       1.72659927      11.45852194          1         0.00000000       0.00000000       0.00000000
H        13.91810987       4.10159819      12.75824990          1         0.00000000       0.00000000       0.00000000
H        12.21450455       0.56483942      12.31373528          1         0.00000000       0.00000000       0.00000000
H        12.16999745       2.97116505      10.89532580          1         0.00000000       0.00000000       0.00000000
6
iter=20000 frozen=false energy=-1.26974174 energy_frozen_part=0.00000000 Lattice="15.00000000 0.00000000 0.00000000 0.00000000 15.00000000 0.00000000 0.00000000 0.00000000 15.00000000" pbc=[F, F, F] list_num_par=6 Properties=species:S:1:pos:R:3:Z:I:1:velocities:R:3
H        11.52585658       2.93995526      13.61345155          1         0.00000000       0.00000000       0.00000000
H        13.96260107       1.69523119      14.17667665          1         0.00000000       0.00000000       0.00000000
H        14.60680271       1.72643754      11.45853196          1         0.00000000       0.00000000       0.00000000
H        13.91826337       4.10152603      12.75820517          1         0.00000000       0.00000000       0.00000000
H        12.21440553       0.56487272      12.31377744          1         0.00000000       0.00000000       0.00000000
H        12.17006186       2.97117371      10.89531324          1         0.00000000       0.00000000       0.00000000
6
iter=20000 frozen=false energy=-1.26974174 energy_frozen_part=0.00000000 Lattice="15.00000000 0.00000000 0.00000000 0.00000000 15.00000000 0.00000000 0.00000000 0.00000000 15.00000000" pbc=[F, F, F] list_num_par=6 Properties=species:S:1:pos:R:3:Z:I:1:velocities:R:3
H        11.52702084       2.93310521      13.63353584          1         0.00000000       0.00000000       0.00000000
H        13.98107141       1.70806058      14.16384261          1         0.00000000       0.00000000       0.00000000
H        14.58900375       1.74567501      11.43743831          1         0.00000000       0.00000000       0.00000000
H        13.89835315       4.11451623      12.74735733          1         0.00000000       0.00000000       0.00000000
H        12.21766894       0.56426603      12.32362169          1         0.00000000       0.00000000       0.00000000
H        12.13495998       2.97071094      10.90712783          1         0.00000000       0.00000000       0.00000000
6
iter=20000 frozen=false energy=-1.26974174 energy_frozen_part=0.00000000 Lattice="15.00000000 0.00000000 0.00000000 0.00000000 15.00000000 0.00000000 0.00000000 0.00000000 15.00000000" pbc=[F, F, F] list_num_par=6 Properties=species:S:1:pos:R:3:Z:I:1:velocities:R:3
H        11.52706484       2.93329225      13.63335304          1         0.00000000       0.00000000       0.00000000
H        13.98106762       1.70825124      14.16385578          1         0.00000000       0.00000000       0.00000000
H        14.58923129       1.74587724      11.43749826          1         0.00000000       0.00000000       0.00000000
H        13.89847318       4.11470985      12.74737288          1         0.00000000       0.00000000       0.00000000
H        12.21782622       0.56445156      12.32347966          1         0.00000000       0.00000000       0.00000000
H        12.13522844       2.97091647      10.90700302          1         0.00000000       0.00000000       0.00000000
6
iter=20000 frozen=false energy=-1.26974174 energy_frozen_part=0.00000000 Lattice="15.00000000 0.00000000 0.00000000 0.00000000 15.00000000 0.00000000 0.00000000 0.00000000 15.00000000" pbc=[F, F, F] list_num_par=6 Properties=species:S:1:pos:R:3:Z:I:1:velocities:R:3
H        11.52714737       2.93314040      13.63349910          1         0.00000000       0.00000000       0.00000000
H        13.98121737       1.70814494      14.16378380          1         0.00000000       0.00000000       0.00000000
H        14.58915084       1.74581626      11.43738069          1         0.00000000       0.00000000       0.00000000
H        13.89845507       4.11462442      12.74733725          1         0.00000000       0.00000000       0.00000000
H        12.21783754       0.56433432      12.32353903          1         0.00000000       0.00000000       0.00000000
H        12.13508328       2.97081603      10.90709745          1         0.00000000       0.00000000       0.00000000
6
iter=20000 frozen=false energy=-1.26974174 energy_frozen_part=0.00000000 Lattice="15.00000000 0.00000000 0.00000000 0.00000000 15.00000000 0.00000000 0.00000000 0.00000000 15.00000000" pbc=[F, F, F] list_num_par=6 Properties=species:S:1:pos:R:3:Z:I:1:velocities:R:3
H        11.52707692       2.93330152      13.63336125          1         0.00000000       0.00000000       0.00000000
H        13.98108266       1.70826389      14.16385619          1         0.00000000       0.00000000       0.00000000
H        14.58923210       1.74589966      11.43749944          1         0.00000000       0.00000000       0.00000000
H        13.89848041       4.11472599      12.74738264          1         0.00000000       0.00000000       0.00000000
H        12.21783238       0.56446845      12.32348832          1         0.00000000       0.00000000       0.00000000
H        12.13522839       2.97092998      10.90701313          1         0.00000000       0.00000000       0.00000000
6
iter=20000 frozen=false energy=-1.26974174 energy_frozen_part=0.00000000 Lattice="15.00000000 0.00000000 0.00000000 0.00000000 15.00000000 0.00000000 0.00000000 0.00000000 15.00000000" pbc=[F, F, F] list_num_par=6 Properties=species:S:1:pos:R:3:Z:I:1:velocities:R:3
H        11.52704449       2.93310452      13.63354254          1         0.00000000       0.00000000       0.00000000
H        13.98109830       1.70807089      14.16384672          1         0.00000000       0.00000000       0.00000000
H        14.58902906       1.74567633      11.43744037          1         0.00000000       0.00000000       0.00000000
H        13.89838201       4.11451395      12.74735952          1         0.00000000       0.00000000       0.00000000
H        12.21769722       0.56426127      12.32363579          1         0.00000000       0.00000000       0.00000000
H        12.13498197       2.97070957      10.90714109          1         0.00000000       0.00000000       0.00000000
6
iter=20000 frozen=false energy=-1.26974174 energy_frozen_part=0.00000000 Lattice="15.00000000 0.00000000 0.00000000 0.00000000 15.00000000 0.00000000 0.00000000 0.00000000 15.00000000" pbc=[F, F, F] list_num_par=6 Properties=species:S:1:pos:R:3:Z:I:1:velocities:R:3
H        11.52587086       2.93992797      13.61344655          1         0.00000000       0.00000000       0.00000000
H        13.96263253       1.69525207      14.17671420          1         0.00000000       0.00000000       0.00000000
H        14.60686132       1.72641357      11.45857726          1         0.00000000       0.00000000       0.00000000
H        13.91826339       4.10151592      12.75819122          1         0.00000000       0.00000000       0.00000000
H        12.21446892       0.56482631      12.31382044          1         0.00000000       0.00000000       0.00000000
H        12.17010637       2.97109626      10.89530560          1         0.00000000       0.00000000       0.00000000
6
iter=20000 frozen=false energy=-1.26974174 energy_frozen_part=0.00000000 Lattice="15.00000000 0.00000000 0.00000000 0.00000000 15.00000000 0.00000000 0.00000000 0.00000000 15.00000000" pbc=[F, F, F] list_num_par=6 Properties=species:S:1:pos:R:3:Z:I:1:velocities:R:3
H        11.52707232       2.93330220      13.63335643          1         0.00000000       0.00000000       0.00000000
H        13.98108414       1.70827848      14.16385301          1         0.00000000       0.00000000       0.00000000
H        14.58922851       1.74589341      11.43748753          1         0.00000000       0.00000000       0.00000000
H        13.89846575       4.11472995      12.74735798          1         0.00000000       0.00000000       0.00000000
H        12.21782963       0.56446937      12.32348566          1         0.00000000       0.00000000       0.00000000
H        12.13521365       2.97092149      10.90699896          1         0.00000000       0.00000000       0.00000000
6
iter=20000 frozen=false energy=-1.26974174 energy_frozen_part=0.00000000 Lattice="15.00000000 0.00000000 0.00000000 0.00000000 15.00000000 0.00000000 0.00000000 0.00000000 15.00000000" pbc=[F, F, F] list_num_par=6 Properties=species:S:1:pos:R:3:Z:I:1:velocities:R:3
H        11.52736892       2.93328856      13.63332376          1         0.00000000       0.00000000       0.00000000
H        13.98138856       1.70824837      14.16375691          1         0.00000000       0.00000000       0.00000000
H        14.58950974       1.74595578      11.43739791          1         0.00000000       0.00000000       0.00000000
H        13.89875172       4.11474907      12.74734825          1         0.00000000       0.00000000       0.00000000
H        12.21812009       0.56449513      12.32338139          1         0.00000000       0.00000000       0.00000000
H        12.13548586       2.97099336      10.90696406          1         0.00000000       0.00000000       0.00000000
6
iter=20000 frozen=false energy=-1.26974174 energy_frozen_part=0.00000000 Lattice="15.00000000 0.00000000 0.00000000 0.00000000 15.00000000 0.00000000 0.00000000 0.00000000 15.00000000" pbc=[F, F, F] list_num_par=6 Properties=species:S:1:pos:R:3:Z:I:1:velocities:R:3
H        11.52706344       2.93331354      13.63334707          1         0.00000000       0.00000000       0.00000000
H        13.98105712       1.70826542      14.16386964          1         0.00000000       0.00000000       0.00000000
H        14.58923966       1.74587304      11.43751777          1         0.00000000       0.00000000       0.00000000
H        13.89848201       4.11471401      12.74736796          1         0.00000000       0.00000000       0.00000000
H        12.21782158       0.56447260      12.32349187          1         0.00000000       0.00000000       0.00000000
H        12.13523777       2.97092146      10.90699510          1         0.00000000       0.00000000       0.00000000
6
iter=20000 frozen=false energy=-1.26974174 energy_frozen_part=0.00000000 Lattice="15.00000000 0.00000000 0.00000000 0.00000000 15.00000000 0.00000000 0.00000000 0.00000000 15.00000000" pbc=[F, F, F] list_num_par=6 Properties=species:S:1:pos:R:3:Z:I:1:velocities:R:3
H        11.52583471       2.93997746      13.61342693          1         0.00000000       0.00000000       0.00000000
H        13.96256176       1.69524308      14.17669291          1         0.00000000       0.00000000       0.00000000
H        14.60679707       1.72642130      11.45855209          1         0.00000000       0.00000000       0.00000000
H        13.91825684       4.10152308      12.75819815          1         0.00000000       0.00000000       0.00000000
H        12.21437494       0.56487352      12.31378869          1         0.00000000       0.00000000       0.00000000
H        12.17006941       2.97115895      10.89529640          1         0.00000000       0.00000000       0.00000000
6
iter=20000 frozen=false energy=-1.26974174 energy_frozen_part=0.00000000 Lattice="15.00000000 0.00000000 0.00000000 0.00000000 15.00000000 0.00000000 0.00000000 0.00000000 15.00000000" pbc=[F, F, F] list_num_par=6 Properties=species:S:1:pos:R:3:Z:I:1:velocities:R:3
H        11.52577164       2.93988164      13.61341105          1         0.00000000       0.00000000       0.00000000
H        13.96255526       1.69526541      14.17671844          1         0.00000000       0.00000000       0.00000000
H        14.60684495       1.72648785      11.45859522          1         0.00000000       0.00000000       0.00000000
H        13.91814467       4.10154644      12.75822695          1         0.00000000       0.00000000       0.00000000
H        12.21446470       0.56481237      12.31377496          1         0.00000000       0.00000000       0.00000000
H        12.17005971       2.97109498      10.89528636          1         0.00000000       0.00000000       0.00000000
6
iter=20000 frozen=false energy=-1.26974174 energy_frozen_part=0.00000000 Lattice="15.00000000 0.00000000 0.00000000 0.00000000 15.00000000 0.00000000 0.00000000 0.00000000 15.00000000" pbc=[F, F, F] list_num_par=6 Properties=species:S:1:pos:R:3:Z:I:1:velocities:R:3
H        11.52707974       2.93329085      13.63336024          1         0.00000000       0.00000000       0.00000000
H        13.98108599       1.70824253      14.16385146          1         0.00000000       0.00000000       0.00000000
H        14.58922888       1.74586532      11.43749607          1         0.00000000       0.00000000       0.00000000
H        13.89848816       4.11469973      12.74737729          1         0.00000000       0.00000000       0.00000000
H        12.21782537       0.56444974      12.32348988          1         0.00000000       0.00000000       0.00000000
H        12.13522758       2.97091339      10.90700762          1         0.00000000       0.00000000       0.00000000
6
iter=20000 frozen=false energy=-1.26974174 energy_frozen_part=0.00000000 Lattice="15.00000000 0.00000000 0.00000000 0.00000000 15.00000000 0.00000000 0.00000000 0.00000000 15.00000000" pbc=[F, F, F] list_num_par=6 Properties=species:S:1:pos:R:3:Z:I:1:velocities:R:3
H        11.52743636       2.93332230      13.63330270          1         0.00000000       0.00000000       0.00000000
H        13.98144207       1.70821996      14.16363677          1         0.00000000       0.00000000       0.00000000
H        14.58945069       1.74591156      11.43725075          1         0.00000000       0.00000000       0.00000000
H        13.89881367       4.11472099      12.74722613          1         0.00000000       0.00000000       0.00000000
H        12.21806532       0.56451109      12.32333262          1         0.00000000       0.00000000       0.00000000
H        12.13544251       2.97100526      10.90691809          1         0.00000000       0.00000000       0.00000000
6
iter=20000 frozen=false energy=-1.26974174 energy_frozen_part=0.00000000 Lattice="15.00000000 0.00000000 0.00000000 0.00000000 15.00000000 0.00000000 0.00000000 0.00000000 15.00000000" pbc=[F, F, F] list_num_par=6 Properties=species:S:1:pos:R:3:Z:I:1:velocities:R:3
H        11.52706529       2.93313930      13.63353682          1         0.00000000       0.00000000       0.00000000
H        13.98110391       1.70809672      14.16385080          1         0.00000000       0.00000000       0.00000000
H        14.58903589       1.74569092      11.43744521          1         0.00000000       0.00000000       0.00000000
H        13.89839638       4.11454216      12.74733914          1         0.00000000       0.00000000       0.00000000
H        12.21769740       0.56428668      12.32363423          1         0.00000000       0.00000000       0.00000000
H        12.13498831       2.97072361      10.90712775          1         0.00000000       0.00000000       0.00000000
6
iter=20000 frozen=false energy=-1.26974174 energy_frozen_part=0.00000000 Lattice="15.00000000 0.00000000 0.00000000 0.00000000 15.00000000 0.00000000 0.00000000 0.00000000 15.00000000" pbc=[F, F, F] list_num_par=6 Properties=species:S:1:pos:R:3:Z:I:1:velocities:R:3
H        11.52582789       2.93997720      13.61342663          1         0.00000000       0.00000000       0.00000000
H        13.96255061       1.69523665      14.17668862          1         0.00000000       0.00000000       0.00000000
H        14.60679929       1.72642508      11.45855852          1         0.00000000       0.00000000       0.00000000
H        13.91825732       4.10152455      12.75820128          1         0.00000000       0.00000000       0.00000000
H        12.21437212       0.56487865      12.31377460          1         0.00000000       0.00000000       0.00000000
H        12.17007331       2.97116648      10.89529439          1         0.00000000       0.00000000       0.00000000
6
iter=20000 frozen=false energy=-1.26974174 energy_frozen_part=0.00000000 Lattice="15.00000000 0.00000000 0.00000000 0.00000000 15.00000000 0.00000000 0.00000000 0.00000000 15.00000000" pbc=[F, F, F] list_num_par=6 Properties=species:S:1:pos:R:3:Z:I:1:velocities:R:3
H        11.52578267       2.93986326      13.61347782          1         0.00000000       0.00000000       0.00000000
H        13.96259424       1.69525829      14.17667575          1         0.00000000       0.00000000       0.00000000
H        14.60681718       1.72659175      11.45853769          1         0.00000000       0.00000000       0.00000000
H        13.91812814       4.10160118      12.75828807          1         0.00000000       0.00000000       0.00000000
H        12.21447453       0.56486017      12.31373211          1         0.00000000       0.00000000       0.00000000
H        12.17000986       2.97120344      10.89534788          1         0.00000000       0.00000000       0.00000000
6
iter=20000 frozen=false energy=-1.26974174 energy_frozen_part=0.00000000 Lattice="15.00000000 0.00000000 0.00000000 0.00000000 15.00000000 0.00000000 0.00000000 0.00000000 15.00000000" pbc=[F, F, F] list_num_par=6 Properties=species:S:1:pos:R:3:Z:I:1:velocities:R:3
H        11.52704004       2.93329021      13.63336030          1         0.00000000       0.00000000       0.00000000
H        13.98105025       1.70826315      14.16387567          1         0.00000000       0.00000000       0.00000000
H        14.58922547       1.74587581      11.43752823          1         0.00000000       0.00000000       0.00000000
H        13.89844903       4.11471548      12.74738614          1         0.00000000       0.00000000       0.00000000
H        12.21781556       0.56445051      12.32350559          1         0.00000000       0.00000000       0.00000000
H        12.13521619       2.97090196      10.90701498          1         0.00000000       0.00000000       0.00000000
6
iter=20000 frozen=false energy=-1.26974174 energy_frozen_part=0.00000000 Lattice="15.00000000 0.00000000 0.00000000 0.00000000 15.00000000 0.00000000 0.00000000 0.00000000 15.00000000" pbc=[F, F, F] list_num_par=6 Properties=species:S:1:pos:R:3:Z:I:1:velocities:R:3
H        11.52788746       2.93742785      13.61331121          1         0.00000000       0.00000000       0.00000000
H        13.96288565       1.69025200      14.17866960          1         0.00000000       0.00000000       0.00000000
H        14.60639748       1.71437544      11.46028714          1         0.00000000       0.00000000       0.00000000
H        13.92182742       4.09341819      12.75480929          1         0.00000000       0.00000000       0.00000000
H        12.21246537       0.55838133      12.31878510          1         0.00000000       0.00000000       0.00000000
H        12.17139712       2.96155186      10.89493396          1         0.00000000       0.00000000       0.00000000
6
iter=20000 frozen=false energy=-1.26974174 energy_frozen_part=0.00000000 Lattice="15.00000000 0.00000000 0.00000000 0.00000000 15.00000000 0.00000000 0.00000000 0.00000000 15.00000000" pbc=[F, F, F] list_num_par=6 Properties=species:S:1:pos:R:3:Z:I:1:velocities:R:3
H        11.52705717       2.93311552      13.63351529          1         0.00000000       0.00000000       0.00000000
H        13.98111340       1.70808642      14.16380742          1         0.00000000       0.00000000       0.00000000
H        14.58901638       1.74568613      11.43739587          1         0.00000000       0.00000000       0.00000000
H        13.89838435       4.11452705      12.74730906          1         0.00000000       0.00000000       0.00000000
H        12.21769380       0.56426797      12.32360646          1         0.00000000       0.00000000       0.00000000
H        12.13496086       2.97071438      10.90710675          1         0.00000000       0.00000000       0.00000000
6
iter=20000 frozen=false energy=-1.26974174 energy_frozen_part=0.00000000 Lattice="15.00000000 0.00000000 0.00000000 0.00000000 15.00000000 0.00000000 0.00000000 0.00000000 15.00000000" pbc=[F, F, F] list_num_par=6 Properties=species:S:1:pos:R:3:Z:I:1:velocities:R:3
H        11.52577115       2.93988283      13.61341392          1         0.00000000       0.00000000       0.00000000
H        13.96255614       1.69526797      14.17671415          1         0.00000000       0.00000000       0.00000000
H        14.60684342       1.72648394      11.45858497          1         0.00000000       0.00000000       0.00000000
H        13.91814802       4.10155053      12.75822685          1         0.00000000       0.00000000       0.00000000
H        12.21445997       0.56481924      12.31377295          1         0.00000000       0.00000000       0.00000000
H        12.17006220       2.97110018      10.89528782          1         0.00000000       0.00000000       0.00000000
6
iter=20000 frozen=false energy=-1.26974174 energy_frozen_part=0.00000000 Lattice="15.00000000 0.00000000 0.00000000 0.00000000 15.00000000 0.00000000 0.00000000 0.00000000 15.00000000" pbc=[F, F, F] list_num_par=6 Properties=species:S:1:pos:R:3:Z:I:1:velocities:R:3
H        11.52585998       2.93992693      13.61343094          1         0.00000000       0.00000000       0.00000000
H        13.96260920       1.69525097      14.17672735          1         0.00000000       0.00000000       0.00000000
H        14.60686512       1.72640979      11.45859462          1         0.00000000       0.00000000       0.00000000
H        13.91825940       4.10151964      12.75820855          1         0.00000000       0.00000000       0.00000000
H        12.21446445       0.56482452      12.31382311          1         0.00000000       0.00000000       0.00000000
H        12.17011910       2.97109472      10.89529646          1         0.00000000       0.00000000       0.00000000
6
iter=20000 frozen=false energy=-1.26974174 energy_frozen_part=0.00000000 Lattice="15.00000000 0.00000000 0.00000000 0.00000000 15.00000000 0.00000000 0.00000000 0.00000000 15.00000000" pbc=[F, F, F] list_num_par=6 Properties=species:S:1:pos:R:3:Z:I:1:velocities:R:3
H        11.52706551       2.93313317      13.63353651          1         0.00000000       0.00000000       0.00000000
H        13.98110501       1.70809656      14.16384931          1         0.00000000       0.00000000       0.00000000
H        14.58904340       1.74568891      11.43744237          1         0.00000000       0.00000000       0.00000000
H        13.89840011       4.11453675      12.74734995          1         0.00000000       0.00000000       0.00000000
H        12.21770709       0.56428826      12.32363323          1         0.00000000       0.00000000       0.00000000
H        12.13499519       2.97072708      10.90713181          1         0.00000000       0.00000000       0.00000000
6
iter=20000 frozen=false energy=-1.26974174 energy_frozen_part=0.00000000 Lattice="15.00000000 0.00000000 0.00000000 0.00000000 15.00000000 0.00000000 0.00000000 0.00000000 15.00000000" pbc=[F, F, F] list_num_par=6 Properties=species:S:1:pos:R:3:Z:I:1:velocities:R:3
H        11.52709460       2.93328812      13.63339879          1         0.00000000       0.00000000       0.00000000
H        13.98111985       1.70825220      14.16384020          1         0.00000000       0.00000000       0.00000000
H        14.58921681       1.74589995      11.43747289          1         0.00000000       0.00000000       0.00000000
H        13.89847836       4.11472196      12.74737688          1         0.00000000       0.00000000       0.00000000
H        12.21783537       0.56446417      12.32350315          1         0.00000000       0.00000000       0.00000000
H        12.13519398       2.97093452      10.90703325          1         0.00000000       0.00000000       0.00000000
6
iter=20000 frozen=false energy=-1.26974174 energy_frozen_part=0.00000000 Lattice="15.00000000 0.00000000 0.00000000 0.00000000 15.00000000 0.00000000 0.00000000 0.00000000 15.00000000" pbc=[F, F, F] list_num_par=6 Properties=species:S:1:pos:R:3:Z:I:1:velocities:R:3
H        11.52705307       2.93309730      13.63353597          1         0.00000000       0.00000000       0.00000000
H        13.98111830       1.70808768      14.16382234          1         0.00000000       0.00000000       0.00000000
H        14.58902224       1.74569078      11.43740460          1         0.00000000       0.00000000       0.00000000
H        13.89837196       4.11452690      12.74732324          1         0.00000000       0.00000000       0.00000000
H        12.21771530       0.56426026      12.32362306          1         0.00000000       0.00000000       0.00000000
H        12.13496048       2.97070752      10.90712679          1         0.00000000       0.00000000       0.00000000
6
iter=20000 frozen=false energy=-1.26974174 energy_frozen_part=0.00000000 Lattice="15.00000000 0.00000000 0.00000000 0.00000000 15.00000000 0.00000000 0.00000000 0.00000000 15.00000000" pbc=[F, F, F] list_num_par=6 Properties=species:S:1:pos:R:3:Z:I:1:velocities:R:3
H        11.52585024       2.93995094      13.61344820          1         0.00000000       0.00000000       0.00000000
H        13.96259066       1.69522607      14.17668631          1         0.00000000       0.00000000       0.00000000
H        14.60681113       1.72643374      11.45854721          1         0.00000000       0.00000000       0.00000000
H        13.91825551       4.10151918      12.75821780          1         0.00000000       0.00000000       0.00000000
H        12.21441024       0.56486228      12.31377893          1         0.00000000       0.00000000       0.00000000
H        12.17007567       2.97116406      10.89530845          1         0.00000000       0.00000000       0.00000000
6
iter=20000 frozen=false energy=-1.26974174 energy_frozen_part=0.00000000 Lattice="15.00000000 0.00000000 0.00000000 0.00000000 15.00000000 0.00000000 0.00000000 0.00000000 15.00000000" pbc=[F, F, F] list_num_par=6 Properties=species:S:1:pos:R:3:Z:I:1:velocities:R:3
H        11.52787396       2.93741682      13.61331427          1         0.00000000       0.00000000       0.00000000
H        13.96287401       1.69026507      14.17867643          1         0.00000000       0.00000000       0.00000000
H        14.60639526       1.71439806      11.46030050          1         0.00000000       0.00000000       0.00000000
H        13.92180222       4.09343537      12.75481456          1         0.00000000       0.00000000       0.00000000
H        12.21246685       0.55837344      12.31878851          1         0.00000000       0.00000000       0.00000000
H        12.17138615       2.96154456      10.89493305          1         0.00000000       0.00000000       0.00000000
6
iter=20000 frozen=false energy=-1.26974174 energy_frozen_part=0.00000000 Lattice="15.00000000 0.00000000 0.00000000 0.00000000 15.00000000 0.00000000 0.00000000 0.00000000 15.00000000" pbc=[F, F, F] list_num_par=6 Properties=species:S:1:pos:R:3:Z:I:1:velocities:R:3
H        11.52705240       2.93328283      13.63336337          1         0.00000000       0.00000000       0.00000000
H        13.98106254       1.70825768      14.16387529          1         0.00000000       0.00000000       0.00000000
H        14.58921779       1.74587100      11.43751187          1         0.00000000       0.00000000       0.00000000
H        13.89845728       4.11470715      12.74737850          1         0.00000000       0.00000000       0.00000000
H        12.21781606       0.56444549      12.32350204          1         0.00000000       0.00000000       0.00000000
H        12.13520888       2.97089907      10.90701161          1         0.00000000       0.00000000       0.00000000
6
iter=20000 frozen=false energy=-1.26974174 energy_frozen_part=0.00000000 Lattice="15.00000000 0.00000000 0.00000000 0.00000000 15.00000000 0.00000000 0.00000000 0.00000000 15.00000000" pbc=[F, F, F] list_num_par=6 Properties=species:S:1:pos:R:3:Z:I:1:velocities:R:3
H        11.52574479       2.93984782      13.61341534          1         0.00000000       0.00000000       0.00000000
H        13.96255057       1.69526853      14.17669710          1         0.00000000       0.00000000       0.00000000
H        14.60683345       1.72652268      11.45857211          1         0.00000000       0.00000000       0.00000000
H        13.91809716       4.10156485      12.75823122          1         0.00000000       0.00000000       0.00000000
H        12.21447542       0.56480224      12.31375092          1         0.00000000       0.00000000       0.00000000
H        12.17002361       2.97109674      10.89528208          1         0.00000000       0.00000000       0.00000000
6
iter=20000 frozen=false energy=-1.26974174 energy_frozen_part=0.00000000 Lattice="15.00000000 0.00000000 0.00000000 0.00000000 15.00000000 0.00000000 0.00000000 0.00000000 15.00000000" pbc=[F, F, F] list_num_par=6 Properties=species:S:1:pos:R:3:Z:I:1:velocities:R:3
H        11.52585980       2.93991967      13.61343766          1         0.00000000       0.00000000       0.00000000
H        13.96262306       1.69525034      14.17671174          1         0.00000000       0.00000000       0.00000000
H        14.60686123       1.72641924      11.45857302          1         0.00000000       0.00000000       0.00000000
H        13.91826116       4.10151483      12.75819960          1         0.00000000       0.00000000       0.00000000
H        12.21446899       0.56482614      12.31381361          1         0.00000000       0.00000000       0.00000000
H        12.17010860       2.97110002      10.89530238          1         0.00000000       0.00000000       0.00000000
6
iter=20000 frozen=false energy=-1.26974174 energy_frozen_part=0.00000000 Lattice="15.00000000 0.00000000 0.00000000 0.00000000 15.00000000 0.00000000 0.00000000 0.00000000 15.00000000" pbc=[F, F, F] list_num_par=6 Properties=species:S:1:pos:R:3:Z:I:1:velocities:R:3
H        11.52706305       2.93313657      13.63353706          1         0.00000000       0.00000000       0.00000000
H        13.98111530       1.70809329      14.16383277          1         0.00000000       0.00000000       0.00000000
H        14.58903182       1.74570406      11.43742407          1         0.00000000       0.00000000       0.00000000
H        13.89839191       4.11454765      12.74734882          1         0.00000000       0.00000000       0.00000000
H        12.21770325       0.56428990      12.32362545          1         0.00000000       0.00000000       0.00000000
H        12.13498638       2.97074065      10.90713347          1         0.00000000       0.00000000       0.00000000
6
iter=20000 frozen=false energy=-1.26974174 energy_frozen_part=0.00000000 Lattice="15.00000000 0.00000000 0.00000000 0.00000000 15.00000000 0.00000000 0.00000000 0.00000000 15.00000000" pbc=[F, F, F] list_num_par=6 Properties=species:S:1:pos:R:3:Z:I:1:velocities:R:3
H        11.52772561       2.93754660      13.61327142          1         0.00000000       0.00000000       0.00000000
H        13.96264660       1.69027815      14.17875044          1         0.00000000       0.00000000       0.00000000
H        14.60630374       1.71439309      11.46040598          1         0.00000000       0.00000000       0.00000000
H        13.92175492       4.09346279      12.75490654          1         0.00000000       0.00000000       0.00000000
H        12.21227404       0.55848337      12.31876404          1         0.00000000       0.00000000       0.00000000
H        12.17138553       2.96166713      10.89492937          1         0.00000000       0.00000000       0.00000000
6
iter=20000 frozen=false energy=-1.26974174 energy_frozen_part=0.00000000 Lattice="15.00000000 0.00000000 0.00000000 0.00000000 15.00000000 0.00000000 0.00000000 0.00000000 15.00000000" pbc=[F, F, F] list_num_par=6 Properties=species:S:1:pos:R:3:Z:I:1:velocities:R:3
H        11.52788249       2.93757175      13.61326694          1         0.00000000       0.00000000       0.00000000
H        13.96279582       1.69028660      14.17873336          1         0.00000000       0.00000000       0.00000000
H        14.60642896       1.71437718      11.46038230          1         0.00000000       0.00000000       0.00000000
H        13.92191282       4.09345536      12.75487482          1         0.00000000       0.00000000       0.00000000
H        12.21239115       0.55849329      12.31877850          1         0.00000000       0.00000000       0.00000000
H        12.17151532       2.96166664      10.89491619          1         0.00000000       0.00000000       0.00000000
6
iter=20000 frozen=false energy=-1.26974174 energy_frozen_part=0.00000000 Lattice="15.00000000 0.00000000 0.00000000 0.00000000 15.00000000 0.00000000 0.00000000 0.00000000 15.00000000" pbc=[F, F, F] list_num_par=6 Properties=species:S:1:pos:R:3:Z:I:1:velocities:R:3
H        11.52742686       2.93331584      13.63330628          1         0.00000000       0.00000000       0.00000000
H        13.98144614       1.70823395      14.16364017          1         0.00000000       0.00000000       0.00000000
H        14.58944679       1.74592211      11.43725158          1         0.00000000       0.00000000       0.00000000
H        13.89879894       4.11473273      12.74722184          1         0.00000000       0.00000000       0.00000000
H        12.21807601       0.56450743      12.32333426          1         0.00000000       0.00000000       0.00000000
H        12.13542725       2.97100907      10.90691686          1         0.00000000       0.00000000       0.00000000
6
iter=20000 frozen=false energy=-1.26974174 energy_frozen_part=0.00000000 Lattice="15.00000000 0.00000000 0.00000000 0.00000000 15.00000000 0.00000000 0.00000000 0.00000000 15.00000000" pbc=[F, F, F] list_num_par=6 Properties=species:S:1:pos:R:3:Z:I:1:velocities:R:3
H        11.52586504       2.93992326      13.61343900          1         0.00000000       0.00000000       0.00000000
H        13.96262238       1.69524216      14.17670484          1         0.00000000       0.00000000       0.00000000
H        14.60685060       1.72641445      11.45856664          1         0.00000000       0.00000000       0.00000000
H        13.91825819       4.10151098      12.75819096          1         0.00000000       0.00000000       0.00000000
H        12.21445952       0.56481851      12.31381027          1         0.00000000       0.00000000       0.00000000
H        12.17009407       2.97108646      10.89529836          1         0.00000000       0.00000000       0.00000000
6
iter=20000 frozen=false energy=-1.26974174 energy_frozen_part=0.00000000 Lattice="15.00000000 0.00000000 0.00000000 0.00000000 15.00000000 0.00000000 0.00000000 0.00000000 15.00000000" pbc=[F, F, F] list_num_par=6 Properties=species:S:1:pos:R:3:Z:I:1:velocities:R:3
H        11.52736879       2.93330166      13.63332469          1         0.00000000       0.00000000       0.00000000
H        13.98138230       1.70825802      14.16377167          1         0.00000000       0.00000000       0.00000000
H        14.58950539       1.74595793      11.43740776          1         0.00000000       0.00000000       0.00000000
H        13.89876316       4.11475167      12.74734749          1         0.00000000       0.00000000       0.00000000
H        12.21811766       0.56450889      12.32338077          1         0.00000000       0.00000000       0.00000000
H        12.13549503       2.97100457      10.90696559          1         0.00000000       0.00000000       0.00000000
6
iter=20000 frozen=false energy=-1.26974174 energy_frozen_part=0.00000000 Lattice="15.00000000 0.00000000 0.00000000 0.00000000 15.00000000 0.00000000 0.00000000 0.00000000 15.00000000" pbc=[F, F, F] list_num_par=6 Properties=species:S:1:pos:R:3:Z:I:1:velocities:R:3
H        11.52705451       2.93313829      13.63352666          1         0.00000000       0.00000000       0.00000000
H        13.98109108       1.70809283      14.16385444          1         0.00000000       0.00000000       0.00000000
H        14.58903986       1.74568282      11.43744901          1         0.00000000       0.00000000       0.00000000
H        13.89839784       4.11453267      12.74734862          1         0.00000000       0.00000000       0.00000000
H        12.21769417       0.56428520      12.32363254          1         0.00000000       0.00000000       0.00000000
H        12.13499767       2.97072529      10.90713121          1         0.00000000       0.00000000       0.00000000
6
iter=20000 frozen=false energy=-1.26974174 energy_frozen_part=0.00000000 Lattice="15.00000000 0.00000000 0.00000000 0.00000000 15.00000000 0.00000000 0.00000000 0.00000000 15.00000000" pbc=[F, F, F] list_num_par=6 Properties=species:S:1:pos:R:3:Z:I:1:velocities:R:3
H        11.52585836       2.93998351      13.61343832          1         0.00000000       0.00000000       0.00000000
H        13.96258465       1.69525033      14.17670613          1         0.00000000       0.00000000       0.00000000
H        14.60681124       1.72641421      11.45856595          1         0.00000000       0.00000000       0.00000000
H        13.91827169       4.10152430      12.75819120          1         0.00000000       0.00000000       0.00000000
H        12.21439754       0.56487517      12.31380590          1         0.00000000       0.00000000       0.00000000
H        12.17007973       2.97114799      10.89529969          1         0.00000000       0.00000000       0.00000000
6
iter=20000 frozen=false energy=-1.26974174 energy_frozen_part=0.00000000 Lattice="15.00000000 0.00000000 0.00000000 0.00000000 15.00000000 0.00000000 0.00000000 0.00000000 15.00000000" pbc=[F, F, F] list_num_par=6 Properties=species:S:1:pos:R:3:Z:I:1:velocities:R:3
H        11.52585576       2.93993981      13.61346625          1         0.00000000       0.00000000       0.00000000
H        13.96260352       1.69521230      14.17668241          1         0.00000000       0.00000000       0.00000000
H        14.60681286       1.72642117      11.45854106          1         0.00000000       0.00000000       0.00000000
H        13.91826032       4.10151194      12.75821648          1         0.00000000       0.00000000       0.00000000
H        12.21440197       0.56485279      12.31378957          1         0.00000000       0.00000000       0.00000000
H        12.17006715       2.97114997      10.89532165          1         0.00000000       0.00000000       0.00000000
6
iter=20000 frozen=false energy=-1.26974174 energy_frozen_part=0.00000000 Lattice="15.00000000 0.00000000 0.00000000 0.00000000 15.00000000 0.00000000 0.00000000 0.00000000 15.00000000" pbc=[F, F, F] list_num_par=6 Properties=species:S:1:pos:R:3:Z:I:1:velocities:R:3
H        11.52587090       2.93992371      13.61344626          1         0.00000000       0.00000000       0.00000000
H        13.96262890       1.69525095      14.17671521          1         0.00000000       0.00000000       0.00000000
H        14.60686108       1.72642341      11.45858258          1         0.00000000       0.00000000       0.00000000
H        13.91825976       4.10152468      12.75820773          1         0.00000000       0.00000000       0.00000000
H        12.21446531       0.56483134      12.31381595          1         0.00000000       0.00000000       0.00000000
H        12.17010546       2.97110270      10.89530737          1         0.00000000       0.00000000       0.00000000
6
iter=20000 frozen=false energy=-1.26974174 energy_frozen_part=0.00000000 Lattice="15.00000000 0.00000000 0.00000000 0.00000000 15.00000000 0.00000000 0.00000000 0.00000000 15.00000000" pbc=[F, F, F] list_num_par=6 Properties=species:S:1:pos:R:3:Z:I:1:velocities:R:3
H        11.52788869       2.93741907      13.61331232          1         0.00000000       0.00000000       0.00000000
H        13.96289150       1.69025342      14.17866333          1         0.00000000       0.00000000       0.00000000
H        14.60640286       1.71437684      11.46028525          1         0.00000000       0.00000000       0.00000000
H        13.92182032       4.09342364      12.75481144          1         0.00000000       0.00000000       0.00000000
H        12.21246880       0.55837302      12.31878606          1         0.00000000       0.00000000       0.00000000
H        12.17139729       2.96154344      10.89492718          1         0.00000000       0.00000000       0.00000000
6
iter=20000 frozen=false energy=-1.26974174 energy_frozen_part=0.00000000 Lattice="15.00000000 0.00000000 0.00000000 0.00000000 15.00000000 0.00000000 0.00000000 0.00000000 15.00000000" pbc=[F, F, F] list_num_par=6 Properties=species:S:1:pos:R:3:Z:I:1:velocities:R:3
H        11.52775675       2.93764857      13.61339496          1         0.00000000       0.00000000       0.00000000
H        13.96277129       1.69052131      14.17877867          1         0.00000000       0.00000000       0.00000000
H        14.60626412       1.71457467      11.46039109          1         0.00000000       0.00000000       0.00000000
H        13.92167954       4.09364607      12.75485003          1         0.00000000       0.00000000       0.00000000
H        12.21234824       0.55857630      12.31893211          1         0.00000000       0.00000000       0.00000000
H        12.17125473       2.96170381      10.89500777          1         0.00000000       0.00000000       0.00000000
6
iter=20000 frozen=false energy=-1.26974174 energy_frozen_part=0.00000000 Lattice="15.00000000 0.00000000 0.00000000 0.00000000 15.00000000 0.00000000 0.00000000 0.00000000 15.00000000" pbc=[F, F, F] list_num_par=6 Properties=species:S:1:pos:R:3:Z:I:1:velocities:R:3
H        11.52578164       2.93987440      13.61347178          1         0.00000000       0.00000000       0.00000000
H        13.96259871       1.69528155      14.17668199          1         0.00000000       0.00000000       0.00000000
H        14.60682865       1.72659619      11.45854607          1         0.00000000       0.00000000       0.00000000
H        13.91813143       4.10160995      12.75827711          1         0.00000000       0.00000000       0.00000000
H        12.21448807       0.56486538      12.31373909          1         0.00000000       0.00000000       0.00000000
H        12.17001643       2.97119435      10.89533352          1         0.00000000       0.00000000       0.00000000
6
iter=20000 frozen=false energy=-1.26974174 energy_frozen_part=0.00000000 Lattice="15.00000000 0.00000000 0.00000000 0.00000000 15.00000000 0.00000000 0.00000000 0.00000000 15.00000000" pbc=[F, F, F] list_num_par=6 Properties=species:S:1:pos:R:3:Z:I:1:velocities:R:3
H        11.52576783       2.93983362      13.61345485          1         0.00000000       0.00000000       0.00000000
H        13.96259675       1.69526961      14.17666463          1         0.00000000       0.00000000       0.00000000
H        14.60682067       1.72659609      11.45852540          1         0.00000000       0.00000000       0.00000000
H        13.91809559       4.10159674      12.75824725          1         0.00000000       0.00000000       0.00000000
H        12.21449748       0.56482308      12.31372994          1         0.00000000       0.00000000       0.00000000
H        12.16998831       2.97115180      10.89531690          1         0.00000000       0.00000000       0.00000000
6
iter=20000 frozen=false energy=-1.26974174 energy_frozen_part=0.00000000 Lattice="15.00000000 0.00000000 0.00000000 0.00000000 15.00000000 0.00000000 0.00000000 0.00000000 15.00000000" pbc=[F, F, F] list_num_par=6 Properties=species:S:1:pos:R:3:Z:I:1:velocities:R:3
H        11.52744742       2.93331456      13.63331230          1         0.00000000       0.00000000       0.00000000
H        13.98145899       1.70821455      14.16363495          1         0.00000000       0.00000000       0.00000000
H        14.58945771       1.74590142      11.43724687          1         0.00000000       0.00000000       0.00000000
H        13.89881809       4.11471346      12.74722376          1         0.00000000       0.00000000       0.00000000
H        12.21808238       0.56450211      12.32333177          1         0.00000000       0.00000000       0.00000000
H        12.13545029       2.97100478      10.90692194          1         0.00000000       0.00000000       0.00000000
6
iter=20000 frozen=false energy=-1.26974174 energy_frozen_part=0.00000000 Lattice="15.00000000 0.00000000 0.00000000 0.00000000 15.00000000 0.00000000 0.00000000 0.00000000 15.00000000" pbc=[F, F, F] list_num_par=6 Properties=species:S:1:pos:R:3:Z:I:1:velocities:R:3
H        11.52786548       2.93739601      13.61330510          1         0.00000000       0.00000000       0.00000000
H        13.96288392       1.69025973      14.17865931          1         0.00000000       0.00000000       0.00000000
H        14.60639689       1.71440422      11.46027524          1         0.00000000       0.00000000       0.00000000
H        13.92179101       4.09343488      12.75481669          1         0.00000000       0.00000000       0.00000000
H        12.21247552       0.55837504      12.31876941          1         0.00000000       0.00000000       0.00000000
H        12.17138468       2.96155024      10.89492693          1         0.00000000       0.00000000       0.00000000
6
iter=20000 frozen=false energy=-1.26974174 energy_frozen_part=0.00000000 Lattice="15.00000000 0.00000000 0.00000000 0.00000000 15.00000000 0.00000000 0.00000000 0.00000000 15.00000000" pbc=[F, F, F] list_num_par=6 Properties=species:S:1:pos:R:3:Z:I:1:velocities:R:3
H        11.52789738       2.93743209      13.61331891          1         0.00000000       0.00000000       0.00000000
H        13.96288962       1.69024632      14.17867634          1         0.00000000       0.00000000       0.00000000
H        14.60640493       1.71437712      11.46029373          1         0.00000000       0.00000000       0.00000000
H        13.92183642       4.09341784      12.75482150          1         0.00000000       0.00000000       0.00000000
H        12.21246132       0.55838934      12.31879708          1         0.00000000       0.00000000       0.00000000
H        12.17140821       2.96155624      10.89493433          1         0.00000000       0.00000000       0.00000000
6
iter=20000 frozen=false energy=-1.26974174 energy_frozen_part=0.00000000 Lattice="15.00000000 0.00000000 0.00000000 0.00000000 15.00000000 0.00000000 0.00000000 0.00000000 15.00000000" pbc=[F, F, F] list_num_par=6 Properties=species:S:1:pos:R:3:Z:I:1:velocities:R:3
H        11.52704815       2.93328473      13.63336905          1         0.00000000       0.00000000       0.00000000
H        13.98105402       1.70825796      14.16387166          1         0.00000000       0.00000000       0.00000000
H        14.58922006       1.74587851      11.43751385          1         0.00000000       0.00000000       0.00000000
H        13.89845264       4.11470907      12.74738174          1         0.00000000       0.00000000       0.00000000
H        12.21781581       0.56444886      12.32350373          1         0.00000000       0.00000000       0.00000000
H        12.13521197       2.97090298      10.90701162          1         0.00000000       0.00000000       0.00000000
6
iter=20000 frozen=false energy=-1.26974174 energy_frozen_part=0.00000000 Lattice="15.00000000 0.00000000 0.00000000 0.00000000 15.00000000 0.00000000 0.00000000 0.00000000 15.00000000" pbc=[F, F, F] list_num_par=6 Properties=species:S:1:pos:R:3:Z:I:1:velocities:R:3
H        11.52577857       2.93987078      13.61345603          1         0.00000000       0.00000000       0.00000000
H        13.96258257       1.69528956      14.17672219          1         0.00000000       0.00000000       0.00000000
H        14.60681891       1.72650553      11.45857802          1         0.00000000       0.00000000       0.00000000
H        13.91812404       4.10156637      12.75822028          1         0.00000000       0.00000000       0.00000000
H        12.21447649       0.56481024      12.31381602          1         0.00000000       0.00000000       0.00000000
H        12.17001399       2.97108987      10.89532071          1         0.00000000       0.00000000       0.00000000
6
iter=20000 frozen=false energy=-1.26974174 energy_frozen_part=0.00000000 Lattice="15.00000000 0.00000000 0.00000000 0.00000000 15.00000000 0.00000000 0.00000000 0.00000000 15.00000000" pbc=[F, F, F] list_num_par=6 Properties=species:S:1:pos:R:3:Z:I:1:velocities:R:3
H        11.52705356       2.93328261      13.63335429          1         0.00000000       0.00000000       0.00000000
H        13.98107251       1.70826461      14.16385759          1         0.00000000       0.00000000       0.00000000
H        14.58922809       1.74588172      11.43750104          1         0.00000000       0.00000000       0.00000000
H        13.89845383       4.11471418      12.74736954          1         0.00000000       0.00000000       0.00000000
H        12.21783320       0.56444238      12.32349184          1         0.00000000       0.00000000       0.00000000
H        12.13521585       2.97089842      10.90700155          1         0.00000000       0.00000000       0.00000000
6
iter=20000 frozen=false energy=-1.26974174 energy_frozen_part=0.00000000 Lattice="15.00000000 0.00000000 0.00000000 0.00000000 15.00000000 0.00000000 0.00000000 0.00000000 15.00000000" pbc=[F, F, F] list_num_par=6 Properties=species:S:1:pos:R:3:Z:I:1:velocities:R:3
H        11.52707301       2.93314431      13.63351847          1         0.00000000       0.00000000       0.00000000
H        13.98110455       1.70808757      14.16383387          1         0.00000000       0.00000000       0.00000000
H        14.58904494       1.74568292      11.43742623          1         0.00000000       0.00000000       0.00000000
H        13.89841479       4.11453274      12.74733987          1         0.00000000       0.00000000       0.00000000
H        12.21769805       0.56429035      12.32361500          1         0.00000000       0.00000000       0.00000000
H        12.13500602       2.97073622      10.90711566          1         0.00000000       0.00000000       0.00000000
6
iter=20000 frozen=false energy=-1.26974174 energy_frozen_part=0.00000000 Lattice="15.00000000 0.00000000 0.00000000 0.00000000 15.00000000 0.00000000 0.00000000 0.00000000 15.00000000" pbc=[F, F, F] list_num_par=6 Properties=species:S:1:pos:R:3:Z:I:1:velocities:R:3
H        11.52705223       2.93312756      13.63353260          1         0.00000000       0.00000000       0.00000000
H        13.98109816       1.70809661      14.16385553          1         0.00000000       0.00000000       0.00000000
H        14.58903709       1.74569244      11.43744684          1         0.00000000       0.00000000       0.00000000
H        13.89838989       4.11454027      12.74735515          1         0.00000000       0.00000000       0.00000000
H        12.21770204       0.56428371      12.32363120          1         0.00000000       0.00000000       0.00000000
H        12.13499641       2.97072342      10.90712855          1         0.00000000       0.00000000       0.00000000
6
iter=20000 frozen=false energy=-1.26974174 energy_frozen_part=0.00000000 Lattice="15.00000000 0.00000000 0.00000000 0.00000000 15.00000000 0.00000000 0.00000000 0.00000000 15.00000000" pbc=[F, F, F] list_num_par=6 Properties=species:S:1:pos:R:3:Z:I:1:velocities:R:3
H        11.52744242       2.93331985      13.63329600          1         0.00000000       0.00000000       0.00000000
H        13.98144286       1.70821368      14.16363911          1         0.00000000       0.00000000       0.00000000
H        14.58945885       1.74590172      11.43725589          1         0.00000000       0.00000000       0.00000000
H        13.89882727       4.11471745      12.74722357          1         0.00000000       0.00000000       0.00000000
H        12.21807302       0.56450776      12.32332159          1         0.00000000       0.00000000       0.00000000
H        12.13545504       2.97100635      10.90690958          1         0.00000000       0.00000000       0.00000000
6
iter=20000 frozen=false energy=-1.26974174 energy_frozen_part=0.00000000 Lattice="15.00000000 0.00000000 0.00000000 0.00000000 15.00000000 0.00000000 0.00000000 0.00000000 15.00000000" pbc=[F, F, F] list_num_par=6 Properties=species:S:1:pos:R:3:Z:I:1:velocities:R:3
H        11.52586644       2.93992076      13.61343626          1         0.00000000       0.00000000       0.00000000
H        13.96262639       1.69523845      14.17671425          1         0.00000000       0.00000000       0.00000000
H        14.60686821       1.72640029      11.45858235          1         0.00000000       0.00000000       0.00000000
H        13.91826294       4.10150758      12.75819598          1         0.00000000       0.00000000       0.00000000
H        12.21446968       0.56481598      12.31382522          1         0.00000000       0.00000000       0.00000000
H        12.17011477       2.97107807      10.89529811          1         0.00000000       0.00000000       0.00000000
6
iter=20000 frozen=false energy=-1.26974174 energy_frozen_part=0.00000000 Lattice="15.00000000 0.00000000 0.00000000 0.00000000 15.00000000 0.00000000 0.00000000 0.00000000 15.00000000" pbc=[F, F, F] list_num_par=6 Properties=species:S:1:pos:R:3:Z:I:1:velocities:R:3
H        11.52706224       2.93327935      13.63335807          1         0.00000000       0.00000000       0.00000000
H        13.98107184       1.70824108      14.16385148          1         0.00000000       0.00000000       0.00000000
H        14.58923455       1.74587666      11.43749641          1         0.00000000       0.00000000       0.00000000
H        13.89846852       4.11470468      12.74738695          1         0.00000000       0.00000000       0.00000000
H        12.21782760       0.56445407      12.32347544          1         0.00000000       0.00000000       0.00000000
H        12.13522772       2.97091628      10.90700632          1         0.00000000       0.00000000       0.00000000
6
iter=20000 frozen=false energy=-1.26974174 energy_frozen_part=0.00000000 Lattice="15.00000000 0.00000000 0.00000000 0.00000000 15.00000000 0.00000000 0.00000000 0.00000000 15.00000000" pbc=[F, F, F] list_num_par=6 Properties=species:S:1:pos:R:3:Z:I:1:velocities:R:3
H        11.52743330       2.93331415      13.63331551          1         0.00000000       0.00000000       0.00000000
H        13.98144272       1.70820575      14.16363398          1         0.00000000       0.00000000       0.00000000
H        14.58944785       1.74589921      11.43724992          1         0.00000000       0.00000000       0.00000000
H        13.89880971       4.11470769      12.74722618          1         0.00000000       0.00000000       0.00000000
H        12.21806290       0.56450406      12.32332759          1         0.00000000       0.00000000       0.00000000
H        12.13543518       2.97100561      10.90692434          1         0.00000000       0.00000000       0.00000000
6
iter=20000 frozen=false energy=-1.26974174 energy_frozen_part=0.00000000 Lattice="15.00000000 0.00000000 0.00000000 0.00000000 15.00000000 0.00000000 0.00000000 0.00000000 15.00000000" pbc=[F, F, F] list_num_par=6 Properties=species:S:1:pos:R:3:Z:I:1:velocities:R:3
H        11.52736268       2.93329925      13.63332040          1         0.00000000       0.00000000       0.00000000
H        13.98137549       1.70824399      14.16376108          1         0.00000000       0.00000000       0.00000000
H        14.58950744       1.74594686      11.43739868          1         0.00000000       0.00000000       0.00000000
H        13.89876096       4.11474321      12.74734565          1         0.00000000       0.00000000       0.00000000
H        12.21811245       0.56449990      12.32337163          1         0.00000000       0.00000000       0.00000000
H        12.13549897       2.97099518      10.90696155          1         0.00000000       0.00000000       0.00000000
6
iter=20000 frozen=false energy=-1.26974174 energy_frozen_part=0.00000000 Lattice="15.00000000 0.00000000 0.00000000 0.00000000 15.00000000 0.00000000 0.00000000 0.00000000 15.00000000" pbc=[F, F, F] list_num_par=6 Properties=species:S:1:pos:R:3:Z:I:1:velocities:R:3
H        11.52586422       2.93993953      13.61343658          1         0.00000000       0.00000000       0.00000000
H        13.96262597       1.69527490      14.17671694          1         0.00000000       0.00000000       0.00000000
H        14.60686133       1.72643007      11.45857807          1         0.00000000       0.00000000       0.00000000
H        13.91825365       4.10153190      12.75818193          1         0.00000000       0.00000000       0.00000000
H        12.21446788       0.56483567      12.31382401          1         0.00000000       0.00000000       0.00000000
H        12.17010208       2.97109612      10.89529570          1         0.00000000       0.00000000       0.00000000
6
iter=20000 frozen=false energy=-1.26974174 energy_frozen_part=0.00000000 Lattice="15.00000000 0.00000000 0.00000000 0.00000000 15.00000000 0.00000000 0.00000000 0.00000000 15.00000000" pbc=[F, F, F] list_num_par=6 Properties=species:S:1:pos:R:3:Z:I:1:velocities:R:3
H        11.52577377       2.93987521      13.61345013          1         0.00000000       0.00000000       0.00000000
H        13.96258011       1.69529174      14.17671720          1         0.00000000       0.00000000       0.00000000
H        14.60682621       1.72650706      11.45858836          1         0.00000000       0.00000000       0.00000000
H        13.91812196       4.10157048      12.75822107          1         0.00000000       0.00000000       0.00000000
H        12.21447709       0.56481493      12.31380608          1         0.00000000       0.00000000       0.00000000
H        12.17001796       2.97109191      10.89531182          1         0.00000000       0.00000000       0.00000000
6
iter=20000 frozen=false energy=-1.26974174 energy_frozen_part=0.00000000 Lattice="15.00000000 0.00000000 0.00000000 0.00000000 15.00000000 0.00000000 0.00000000 0.00000000 15.00000000" pbc=[F, F, F] list_num_par=6 Properties=species:S:1:pos:R:3:Z:I:1:velocities:R:3
H        11.52774818       2.93758156      13.61324686          1         0.00000000       0.00000000       0.00000000
H        13.96266287       1.69030739      14.17873291          1         0.00000000       0.00000000       0.00000000
H        14.60632399       1.71442213      11.46038706          1         0.00000000       0.00000000       0.00000000
H        13.92177833       4.09348949      12.75488198          1         0.00000000       0.00000000       0.00000000
H        12.21229016       0.55851236      12.31874899          1         0.00000000       0.00000000       0.00000000
H        12.17140705       2.96168781      10.89490080          1         0.00000000       0.00000000       0.00000000
6
iter=20000 frozen=false energy=-1.26974174 energy_frozen_part=0.00000000 Lattice="15.00000000 0.00000000 0.00000000 0.00000000 15.00000000 0.00000000 0.00000000 0.00000000 15.00000000" pbc=[F, F, F] list_num_par=6 Properties=species:S:1:pos:R:3:Z:I:1:velocities:R:3
H        11.52707339       2.93329769      13.63335557          1         0.00000000       0.00000000       0.00000000
H        13.98107752       1.70826392      14.16385891          1         0.00000000       0.00000000       0.00000000
H        14.58923891       1.74589191      11.43749931          1         0.00000000       0.00000000       0.00000000
H        13.89847507       4.11472442      12.74737007          1         0.00000000       0.00000000       0.00000000
H        12.21783363       0.56446321      12.32348098          1         0.00000000       0.00000000       0.00000000
H        12.13522809       2.97091983      10.90700092          1         0.00000000       0.00000000       0.00000000
6
iter=20000 frozen=false energy=-1.26974174 energy_frozen_part=0.00000000 Lattice="15.00000000 0.00000000 0.00000000 0.00000000 15.00000000 0.00000000 0.00000000 0.00000000 15.00000000" pbc=[F, F, F] list_num_par=6 Properties=species:S:1:pos:R:3:Z:I:1:velocities:R:3
H        11.52577465       2.93984058      13.61345361          1         0.00000000       0.00000000       0.00000000
H        13.96260056       1.69527735      14.17666551          1         0.00000000       0.00000000       0.00000000
H        14.60682014       1.72660282      11.45852884          1         0.00000000       0.00000000       0.00000000
H        13.91809475       4.10160853      12.75824934          1         0.00000000       0.00000000       0.00000000
H        12.21449831       0.56483336      12.31372660          1         0.00000000       0.00000000       0.00000000
H        12.16999116       2.97116284      10.89531497          1         0.00000000       0.00000000       0.00000000
6
iter=20000 frozen=false energy=-1.26974174 energy_frozen_part=0.00000000 Lattice="15.00000000 0.00000000 0.00000000 0.00000000 15.00000000 0.00000000 0.00000000 0.00000000 15.00000000" pbc=[F, F, F] list_num_par=6 Properties=species:S:1:pos:R:3:Z:I:1:velocities:R:3
H        11.52586207       2.93991213      13.61344402          1         0.00000000       0.00000000       0.00000000
H        13.96261456       1.69522892      14.17672055          1         0.00000000       0.00000000       0.00000000
H        14.60686561       1.72641685      11.45858456          1         0.00000000       0.00000000       0.00000000
H        13.91825337       4.10150891      12.75821781          1         0.00000000       0.00000000       0.00000000
H        12.21447069       0.56481471      12.31381290          1         0.00000000       0.00000000       0.00000000
H        12.17010619       2.97109287      10.89531119          1         0.00000000       0.00000000       0.00000000
6
iter=20000 frozen=false energy=-1.26974174 energy_frozen_part=0.00000000 Lattice="15.00000000 0.00000000 0.00000000 0.00000000 15.00000000 0.00000000 0.00000000 0.00000000 15.00000000" pbc=[F, F, F] list_num_par=6 Properties=species:S:1:pos:R:3:Z:I:1:velocities:R:3
H        11.52706052       2.93329514      13.63335081          1         0.00000000       0.00000000       0.00000000
H        13.98107741       1.70826785      14.16384845          1         0.00000000       0.00000000       0.00000000
H        14.58922796       1.74589505      11.43749298          1         0.00000000       0.00000000       0.00000000
H        13.89845884       4.11472865      12.74736751          1         0.00000000       0.00000000       0.00000000
H        12.21782686       0.56446508      12.32347590          1         0.00000000       0.00000000       0.00000000
H        12.13521909       2.97092484      10.90699610          1         0.00000000       0.00000000       0.00000000
6
iter=20000 frozen=false energy=-1.26974174 energy_frozen_part=0.00000000 Lattice="15.00000000 0.00000000 0.00000000 0.00000000 15.00000000 0.00000000 0.00000000 0.00000000 15.00000000" pbc=[F, F, F] list_num_par=6 Properties=species:S:1:pos:R:3:Z:I:1:velocities:R:3
H        11.52773251       2.93755151      13.61327710          1         0.00000000       0.00000000       0.00000000
H        13.96264578       1.69027425      14.17875410          1         0.00000000       0.00000000       0.00000000
H        14.60631143       1.71439987      11.46040909          1         0.00000000       0.00000000       0.00000000
H        13.92176143       4.09346143      12.75491773          1         0.00000000       0.00000000       0.00000000
H        12.21227815       0.55848953      12.31876425          1         0.00000000       0.00000000       0.00000000
H        12.17139738       2.96167076      10.89493048          1         0.00000000       0.00000000       0.00000000
6
iter=20000 frozen=false energy=-1.26974174 energy_frozen_part=0.00000000 Lattice="15.00000000 0.00000000 0.00000000 0.00000000 15.00000000 0.00000000 0.00000000 0.00000000 15.00000000" pbc=[F, F, F] list_num_par=6 Properties=species:S:1:pos:R:3:Z:I:1:velocities:R:3
H        11.52787397       2.93739592      13.61330688          1         0.00000000       0.00000000       0.00000000
H        13.96288348       1.69025943      14.17866650          1         0.00000000       0.00000000       0.00000000
H        14.60640758       1.71441070      11.46029103          1         0.00000000       0.00000000       0.00000000
H        13.92179271       4.09344005      12.75482300          1         0.00000000       0.00000000       0.00000000
H        12.21248280       0.55837453      12.31876685          1         0.00000000       0.00000000       0.00000000
H        12.17139059       2.96155344      10.89492611          1         0.00000000       0.00000000       0.00000000
6
iter=20000 frozen=false energy=-1.26974174 energy_frozen_part=0.00000000 Lattice="15.00000000 0.00000000 0.00000000 0.00000000 15.00000000 0.00000000 0.00000000 0.00000000 15.00000000" pbc=[F, F, F] list_num_par=6 Properties=species:S:1:pos:R:3:Z:I:1:velocities:R:3
H        11.52736544       2.93329142      13.63332393          1         0.00000000       0.00000000       0.00000000
H        13.98138748       1.70825197      14.16375500          1         0.00000000       0.00000000       0.00000000
H        14.58950923       1.74595530      11.43739154          1         0.00000000       0.00000000       0.00000000
H        13.89874978       4.11474854      12.74734163          1         0.00000000       0.00000000       0.00000000
H        12.21811590       0.56449732      12.32337929          1         0.00000000       0.00000000       0.00000000
H        12.13548742       2.97098905      10.90696078          1         0.00000000       0.00000000       0.00000000
6
iter=20000 frozen=false energy=-1.26974174 energy_frozen_part=0.00000000 Lattice="15.00000000 0.00000000 0.00000000 0.00000000 15.00000000 0.00000000 0.00000000 0.00000000 15.00000000" pbc=[F, F, F] list_num_par=6 Properties=species:S:1:pos:R:3:Z:I:1:velocities:R:3
H        11.52706151       2.93314094      13.63353372          1         0.00000000       0.00000000       0.00000000
H        13.98110449       1.70809469      14.16384002          1         0.00000000       0.00000000       0.00000000
H        14.58903011       1.74568244      11.43742946          1         0.00000000       0.00000000       0.00000000
H        13.89840696       4.11453605      12.74733803          1         0.00000000       0.00000000       0.00000000
H        12.21769674       0.56428747      12.32363142          1         0.00000000       0.00000000       0.00000000
H        12.13499308       2.97072995      10.90712752          1         0.00000000       0.00000000       0.00000000
6
iter=20000 frozen=false energy=-1.26974174 energy_frozen_part=0.00000000 Lattice="15.00000000 0.00000000 0.00000000 0.00000000 15.00000000 0.00000000 0.00000000 0.00000000 15.00000000" pbc=[F, F, F] list_num_par=6 Properties=species:S:1:pos:R:3:Z:I:1:velocities:R:3
H        11.52583825       2.93989974      13.61343891          1         0.00000000       0.00000000       0.00000000
H        13.96260549       1.69523976      14.17670499          1         0.00000000       0.00000000       0.00000000
H        14.60684772       1.72644187      11.45857216          1         0.00000000       0.00000000       0.00000000
H        13.91822483       4.10151952      12.75821709          1         0.00000000       0.00000000       0.00000000
H        12.21446441       0.56482271      12.31379847          1         0.00000000       0.00000000       0.00000000
H        12.17008318       2.97110354      10.89530545          1         0.00000000       0.00000000       0.00000000
6
iter=20000 frozen=false energy=-1.26974174 energy_frozen_part=0.00000000 Lattice="15.00000000 0.00000000 0.00000000 0.00000000 15.00000000 0.00000000 0.00000000 0.00000000 15.00000000" pbc=[F, F, F] list_num_par=6 Properties=species:S:1:pos:R:3:Z:I:1:velocities:R:3
H        11.52705986       2.93313601      13.63353151          1         0.00000000       0.00000000       0.00000000
H        13.98111338       1.70810472      14.16383098          1         0.00000000       0.00000000       0.00000000
H        14.58903612       1.74569288      11.43742576          1         0.00000000       0.00000000       0.00000000
H        13.89839550       4.11454353      12.74733251          1         0.00000000       0.00000000       0.00000000
H        12.21770393       0.56428936      12.32362122          1         0.00000000       0.00000000       0.00000000
H        12.13498842       2.97073374      10.90712582          1         0.00000000       0.00000000       0.00000000
6
iter=20000 frozen=false energy=-1.26974174 energy_frozen_part=0.00000000 Lattice="15.00000000 0.00000000 0.00000000 0.00000000 15.00000000 0.00000000 0.00000000 0.00000000 15.00000000" pbc=[F, F, F] list_num_par=6 Properties=species:S:1:pos:R:3:Z:I:1:velocities:R:3
H        11.52586112       2.93995379      13.61346473          1         0.00000000       0.00000000       0.00000000
H        13.96260328       1.69522703      14.17668777          1         0.00000000       0.00000000       0.00000000
H        14.60680918       1.72643257      11.45854074          1         0.00000000       0.00000000       0.00000000
H        13.91826220       4.10152010      12.75821511          1         0.00000000       0.00000000       0.00000000
H        12.21440837       0.56486297      12.31379641          1         0.00000000       0.00000000       0.00000000
H        12.17007054       2.97116010      10.89531848          1         0.00000000       0.00000000       0.00000000
6
iter=20000 frozen=false energy=-1.26974174 energy_frozen_part=0.00000000 Lattice="15.00000000 0.00000000 0.00000000 0.00000000 15.00000000 0.00000000 0.00000000 0.00000000 15.00000000" pbc=[F, F, F] list_num_par=6 Properties=species:S:1:pos:R:3:Z:I:1:velocities:R:3
H        11.52579078       2.93985703      13.61347461          1         0.00000000       0.00000000       0.00000000
H        13.96261786       1.69528520      14.17666780          1         0.00000000       0.00000000       0.00000000
H        14.60682515       1.72659705      11.45852871          1         0.00000000       0.00000000       0.00000000
H        13.91811606       4.10161057      12.75825033          1         0.00000000       0.00000000       0.00000000
H        12.21450203       0.56484365      12.31374900          1         0.00000000       0.00000000       0.00000000
H        12.16999631       2.97117242      10.89532977          1         0.00000000       0.00000000       0.00000000
6
iter=20000 frozen=false energy=-1.26974174 energy_frozen_part=0.00000000 Lattice="15.00000000 0.00000000 0.00000000 0.00000000 15.00000000 0.00000000 0.00000000 0.00000000 15.00000000" pbc=[F, F, F] list_num_par=6 Properties=species:S:1:pos:R:3:Z:I:1:velocities:R:3
H        11.52702311       2.93310679      13.63353644          1         0.00000000       0.00000000       0.00000000
H        13.98107014       1.70806888      14.16384011          1         0.00000000       0.00000000       0.00000000
H        14.58900175       1.74567341      11.43743219          1         0.00000000       0.00000000       0.00000000
H        13.89835918       4.11451877      12.74734940          1         0.00000000       0.00000000       0.00000000
H        12.21767057       0.56426948      12.32361879          1         0.00000000       0.00000000       0.00000000
H        12.13495608       2.97071866      10.90712931          1         0.00000000       0.00000000       0.00000000
6
iter=20000 frozen=false energy=-1.26974174 energy_frozen_part=0.00000000 Lattice="15.00000000 0.00000000 0.00000000 0.00000000 15.00000000 0.00000000 0.00000000 0.00000000 15.00000000" pbc=[F, F, F] list_num_par=6 Properties=species:S:1:pos:R:3:Z:I:1:velocities:R:3
H        11.52772240       2.93753383      13.61326824          1         0.00000000       0.00000000       0.00000000
H        13.96264390       1.69026453      14.17874975          1         0.00000000       0.00000000       0.00000000
H        14.60630599       1.71439125      11.46040735          1         0.00000000       0.00000000       0.00000000
H        13.92174526       4.09344812      12.75490855          1         0.00000000       0.00000000       0.00000000
H        12.21227655       0.55847637      12.31876628          1         0.00000000       0.00000000       0.00000000
H        12.17138235       2.96165561      10.89492213          1         0.00000000       0.00000000       0.00000000
6
iter=20000 frozen=false energy=-1.26974174 energy_frozen_part=0.00000000 Lattice="15.00000000 0.00000000 0.00000000 0.00000000 15.00000000 0.00000000 0.00000000 0.00000000 15.00000000" pbc=[F, F, F] list_num_par=6 Properties=species:S:1:pos:R:3:Z:I:1:velocities:R:3
H        11.52743103       2.93331430      13.63330175          1         0.00000000       0.00000000       0.00000000
H        13.98143670       1.70821090      14.16363496          1         0.00000000       0.00000000       0.00000000
H        14.58945025       1.74589618      11.43724501          1         0.00000000       0.00000000       0.00000000
H        13.89881664       4.11470580      12.74722622          1         0.00000000       0.00000000       0.00000000
H        12.21806281       0.56450500      12.32332214          1         0.00000000       0.00000000       0.00000000
H        12.13544347       2.97100412      10.90691358          1         0.00000000       0.00000000       0.00000000
6
iter=20000 frozen=false energy=-1.26974174 energy_frozen_part=0.00000000 Lattice="15.00000000 0.00000000 0.00000000 0.00000000 15.00000000 0.00000000 0.00000000 0.00000000 15.00000000" pbc=[F, F, F] list_num_par=6 Properties=species:S:1:pos:R:3:Z:I:1:velocities:R:3
H        11.52578217       2.93988848      13.61340161          1         0.00000000       0.00000000       0.00000000
H        13.96256316       1.69526008      14.17669474          1         0.00000000       0.00000000       0.00000000
H        14.60684010       1.72649350      11.45856124          1         0.00000000       0.00000000       0.00000000
H        13.91816413       4.10155179      12.75821771          1         0.00000000       0.00000000       0.00000000
H        12.21446519       0.56483181      12.31374578          1         0.00000000       0.00000000       0.00000000
H        12.17005984       2.97112437      10.89527323          1         0.00000000       0.00000000       0.00000000
