6
pbc=[F, F, F] list_num_par=6 frozen=false iter=20000 energy=-1.26974174 Lattice="15.00000000 0.00000000 0.00000000 0.00000000 15.00000000 0.00000000 0.00000000 0.00000000 15.00000000" energy_frozen_part=0.00000000 Properties=species:S:1:pos:R:3:velocities:R:3:Z:I:1
H        13.16551954       6.59342588       9.96293542         0.00000000       0.00000000       0.00000000          1
H        12.75567640       9.77760352       7.66041146         0.00000000       0.00000000       0.00000000          1
H        13.50550639       7.11947229       7.24044032         0.00000000       0.00000000       0.00000000          1
H        11.07295188       7.70495075       8.48309245         0.00000000       0.00000000       0.00000000          1
H        12.41570036       9.25155731      10.38290893         0.00000000       0.00000000       0.00000000          1
H        14.84825618       8.66608384       9.14025453         0.00000000       0.00000000       0.00000000          1
6
pbc=[F, F, F] list_num_par=6 frozen=false iter=20000 energy=-1.26974174 Lattice="15.00000000 0.00000000 0.00000000 0.00000000 15.00000000 0.00000000 0.00000000 0.00000000 15.00000000" energy_frozen_part=0.00000000 Properties=species:S:1:pos:R:3:velocities:R:3:Z:I:1
H        13.16523553       6.59354705       9.96297306         0.00000000       0.00000000       0.00000000          1
H        12.75526395       9.77782543       7.66061463         0.00000000       0.00000000       0.00000000          1
H        13.50468358       7.11961125       7.24041222         0.00000000       0.00000000       0.00000000          1
H        11.07246806       7.70534894       8.48361009         0.00000000       0.00000000       0.00000000          1
H        12.41581293       9.25175236      10.38317518         0.00000000       0.00000000       0.00000000          1
H        14.84802553       8.66602512       9.13997483         0.00000000       0.00000000       0.00000000          1
6
pbc=[F, F, F] list_num_par=6 frozen=false iter=20000 energy=-1.26974174 Lattice="15.00000000 0.00000000 0.00000000 0.00000000 15.00000000 0.00000000 0.00000000 0.00000000 15.00000000" energy_frozen_part=0.00000000 Properties=species:S:1:pos:R:3:velocities:R:3:Z:I:1
H        13.30415330       6.86153024      10.24391007         0.00000000       0.00000000       0.00000000          1
H        11.43210084       9.06070685       7.54806520         0.00000000       0.00000000       0.00000000          1
H        13.21300126       6.91047522       7.45221963         0.00000000       0.00000000       0.00000000          1
H        10.84753481       6.70048228       8.92353557         0.00000000       0.00000000       0.00000000          1
H        11.52324702       9.01175398      10.33976195         0.00000000       0.00000000       0.00000000          1
H        13.88871141       9.22175467       8.86844789         0.00000000       0.00000000       0.00000000          1
6
pbc=[F, F, F] list_num_par=6 frozen=false iter=20000 energy=-1.26974174 Lattice="15.00000000 0.00000000 0.00000000 0.00000000 15.00000000 0.00000000 0.00000000 0.00000000 15.00000000" energy_frozen_part=0.00000000 Properties=species:S:1:pos:R:3:velocities:R:3:Z:I:1
H        13.16549636       6.59343216       9.96293305         0.00000000       0.00000000       0.00000000          1
H        12.75571267       9.77760820       7.66040315         0.00000000       0.00000000       0.00000000          1
H        13.50548347       7.11945799       7.24043799         0.00000000       0.00000000       0.00000000          1
H        11.07294036       7.70499150       8.48309448         0.00000000       0.00000000       0.00000000          1
H        12.41572939       9.25158616      10.38290371         0.00000000       0.00000000       0.00000000          1
H        14.84826413       8.66604802       9.14025079         0.00000000       0.00000000       0.00000000          1
6
pbc=[F, F, F] list_num_par=6 frozen=false iter=20000 energy=-1.26974174 Lattice="15.00000000 0.00000000 0.00000000 0.00000000 15.00000000 0.00000000 0.00000000 0.00000000 15.00000000" energy_frozen_part=0.00000000 Properties=species:S:1:pos:R:3:velocities:R:3:Z:I:1
H        13.16523890       6.59354135       9.96295241         0.00000000       0.00000000       0.00000000          1
H        12.75525301       9.77782056       7.66060396         0.00000000       0.00000000       0.00000000          1
H        13.50468786       7.11962106       7.24040109         0.00000000       0.00000000       0.00000000          1
H        11.07246876       7.70533328       8.48359226         0.00000000       0.00000000       0.00000000          1
H        12.41580042       9.25174281      10.38316058         0.00000000       0.00000000       0.00000000          1
H        14.84802316       8.66603543       9.13997346         0.00000000       0.00000000       0.00000000          1
6
pbc=[F, F, F] list_num_par=6 frozen=false iter=20000 energy=-1.26974174 Lattice="15.00000000 0.00000000 0.00000000 0.00000000 15.00000000 0.00000000 0.00000000 0.00000000 15.00000000" energy_frozen_part=0.00000000 Properties=species:S:1:pos:R:3:velocities:R:3:Z:I:1
H        13.30417858       6.86145022      10.24381099         0.00000000       0.00000000       0.00000000          1
H        11.43229918       9.06065514       7.54785442         0.00000000       0.00000000       0.00000000          1
H        13.21310827       6.91033786       7.45211040         0.00000000       0.00000000       0.00000000          1
H        10.84759766       6.70048294       8.92335695         0.00000000       0.00000000       0.00000000          1
H        11.52336691       9.01175955      10.33955649         0.00000000       0.00000000       0.00000000          1
H        13.88888197       9.22161159       8.86830213         0.00000000       0.00000000       0.00000000          1
6
pbc=[F, F, F] list_num_par=6 frozen=false iter=20000 energy=-1.26974174 Lattice="15.00000000 0.00000000 0.00000000 0.00000000 15.00000000 0.00000000 0.00000000 0.00000000 15.00000000" energy_frozen_part=0.00000000 Properties=species:S:1:pos:R:3:velocities:R:3:Z:I:1
H        13.16544938       6.59347068       9.96301015         0.00000000       0.00000000       0.00000000          1
H        12.75569398       9.77757879       7.66036870         0.00000000       0.00000000       0.00000000          1
H        13.50545403       7.11940533       7.24049395         0.00000000       0.00000000       0.00000000          1
H        11.07291041       7.70499189       8.48311390         0.00000000       0.00000000       0.00000000          1
H        12.41569138       9.25163683      10.38288082         0.00000000       0.00000000       0.00000000          1
H        14.84823046       8.66605874       9.14026256         0.00000000       0.00000000       0.00000000          1
6
pbc=[F, F, F] list_num_par=6 frozen=false iter=20000 energy=-1.26974174 Lattice="15.00000000 0.00000000 0.00000000 0.00000000 15.00000000 0.00000000 0.00000000 0.00000000 15.00000000" energy_frozen_part=0.00000000 Properties=species:S:1:pos:R:3:velocities:R:3:Z:I:1
H        13.30417754       6.86144811      10.24380315         0.00000000       0.00000000       0.00000000          1
H        11.43229570       9.06065093       7.54785653         0.00000000       0.00000000       0.00000000          1
H        13.21310432       6.91033626       7.45210469         0.00000000       0.00000000       0.00000000          1
H        10.84759017       6.70048884       8.92335797         0.00000000       0.00000000       0.00000000          1
H        11.52336622       9.01175866      10.33956192         0.00000000       0.00000000       0.00000000          1
H        13.88887473       9.22161497       8.86830301         0.00000000       0.00000000       0.00000000          1
6
pbc=[F, F, F] list_num_par=6 frozen=false iter=20000 energy=-1.26974174 Lattice="15.00000000 0.00000000 0.00000000 0.00000000 15.00000000 0.00000000 0.00000000 0.00000000 15.00000000" energy_frozen_part=0.00000000 Properties=species:S:1:pos:R:3:velocities:R:3:Z:I:1
H        13.17408253       6.61589090       9.96396807         0.00000000       0.00000000       0.00000000          1
H        12.74676354       9.77613103       7.63183933         0.00000000       0.00000000       0.00000000          1
H        13.50222149       7.11602472       7.23514999         0.00000000       0.00000000       0.00000000          1
H        11.07284289       7.70715813       8.48132799         0.00000000       0.00000000       0.00000000          1
H        12.41862551       9.27599951      10.36066311         0.00000000       0.00000000       0.00000000          1
H        14.84800443       8.68486472       9.11447838         0.00000000       0.00000000       0.00000000          1
6
pbc=[F, F, F] list_num_par=6 frozen=false iter=20000 energy=-1.26974174 Lattice="15.00000000 0.00000000 0.00000000 0.00000000 15.00000000 0.00000000 0.00000000 0.00000000 15.00000000" energy_frozen_part=0.00000000 Properties=species:S:1:pos:R:3:velocities:R:3:Z:I:1
H        13.17393208       6.61569157       9.96397037         0.00000000       0.00000000       0.00000000          1
H        12.74652498       9.77613630       7.63212865         0.00000000       0.00000000       0.00000000          1
H        13.50199030       7.11606368       7.23518656         0.00000000       0.00000000       0.00000000          1
H        11.07264225       7.70707651       8.48148085         0.00000000       0.00000000       0.00000000          1
H        12.41846511       9.27576554      10.36091208         0.00000000       0.00000000       0.00000000          1
H        14.84781255       8.68475079       9.11462029         0.00000000       0.00000000       0.00000000          1
6
pbc=[F, F, F] list_num_par=6 frozen=false iter=20000 energy=-1.26974174 Lattice="15.00000000 0.00000000 0.00000000 0.00000000 15.00000000 0.00000000 0.00000000 0.00000000 15.00000000" energy_frozen_part=0.00000000 Properties=species:S:1:pos:R:3:velocities:R:3:Z:I:1
H        13.16545088       6.59344060       9.96295988         0.00000000       0.00000000       0.00000000          1
H        12.75566229       9.77757086       7.66035549         0.00000000       0.00000000       0.00000000          1
H        13.50546407       7.11941760       7.24046052         0.00000000       0.00000000       0.00000000          1
H        11.07290584       7.70494965       8.48307274         0.00000000       0.00000000       0.00000000          1
H        12.41565531       9.25158781      10.38286413         0.00000000       0.00000000       0.00000000          1
H        14.84821308       8.66606178       9.14024887         0.00000000       0.00000000       0.00000000          1
6
pbc=[F, F, F] list_num_par=6 frozen=false iter=20000 energy=-1.26974174 Lattice="15.00000000 0.00000000 0.00000000 0.00000000 15.00000000 0.00000000 0.00000000 0.00000000 15.00000000" energy_frozen_part=0.00000000 Properties=species:S:1:pos:R:3:velocities:R:3:Z:I:1
H        13.16550662       6.59342282       9.96292974         0.00000000       0.00000000       0.00000000          1
H        12.75570413       9.77760026       7.66040233         0.00000000       0.00000000       0.00000000          1
H        13.50549218       7.11945960       7.24043844         0.00000000       0.00000000       0.00000000          1
H        11.07294389       7.70497600       8.48309506         0.00000000       0.00000000       0.00000000          1
H        12.41572841       9.25156941      10.38289987         0.00000000       0.00000000       0.00000000          1
H        14.84827145       8.66605823       9.14024645         0.00000000       0.00000000       0.00000000          1
6
pbc=[F, F, F] list_num_par=6 frozen=false iter=20000 energy=-1.26974174 Lattice="15.00000000 0.00000000 0.00000000 0.00000000 15.00000000 0.00000000 0.00000000 0.00000000 15.00000000" energy_frozen_part=0.00000000 Properties=species:S:1:pos:R:3:velocities:R:3:Z:I:1
H        13.16546572       6.59345274       9.96298935         0.00000000       0.00000000       0.00000000          1
H        12.75574342       9.77761890       7.66042926         0.00000000       0.00000000       0.00000000          1
H        13.50549464       7.11946287       7.24049789         0.00000000       0.00000000       0.00000000          1
H        11.07294127       7.70501979       8.48310958         0.00000000       0.00000000       0.00000000          1
H        12.41571403       9.25160443      10.38292691         0.00000000       0.00000000       0.00000000          1
H        14.84826878       8.66604912       9.14031175         0.00000000       0.00000000       0.00000000          1
6
pbc=[F, F, F] list_num_par=6 frozen=false iter=20000 energy=-1.26974174 Lattice="15.00000000 0.00000000 0.00000000 0.00000000 15.00000000 0.00000000 0.00000000 0.00000000 15.00000000" energy_frozen_part=0.00000000 Properties=species:S:1:pos:R:3:velocities:R:3:Z:I:1
H        13.30411833       6.86153252      10.24393012         0.00000000       0.00000000       0.00000000          1
H        11.43212533       9.06071620       7.54805073         0.00000000       0.00000000       0.00000000          1
H        13.21295387       6.91042918       7.45223323         0.00000000       0.00000000       0.00000000          1
H        10.84749193       6.70053244       8.92356391         0.00000000       0.00000000       0.00000000          1
H        11.52328444       9.01181894      10.33974616         0.00000000       0.00000000       0.00000000          1
H        13.88875154       9.22171058       8.86840874         0.00000000       0.00000000       0.00000000          1
6
pbc=[F, F, F] list_num_par=6 frozen=false iter=20000 energy=-1.26974174 Lattice="15.00000000 0.00000000 0.00000000 0.00000000 15.00000000 0.00000000 0.00000000 0.00000000 15.00000000" energy_frozen_part=0.00000000 Properties=species:S:1:pos:R:3:velocities:R:3:Z:I:1
H        13.16523282       6.59353253       9.96295215         0.00000000       0.00000000       0.00000000          1
H        12.75527282       9.77782326       7.66061618         0.00000000       0.00000000       0.00000000          1
H        13.50470430       7.11961825       7.24040473         0.00000000       0.00000000       0.00000000          1
H        11.07247439       7.70532834       8.48357581         0.00000000       0.00000000       0.00000000          1
H        12.41579551       9.25173067      10.38316480         0.00000000       0.00000000       0.00000000          1
H        14.84802636       8.66601652       9.13998839         0.00000000       0.00000000       0.00000000          1
6
pbc=[F, F, F] list_num_par=6 frozen=false iter=20000 energy=-1.26974174 Lattice="15.00000000 0.00000000 0.00000000 0.00000000 15.00000000 0.00000000 0.00000000 0.00000000 15.00000000" energy_frozen_part=0.00000000 Properties=species:S:1:pos:R:3:velocities:R:3:Z:I:1
H        13.16551396       6.59342017       9.96290946         0.00000000       0.00000000       0.00000000          1
H        12.75571380       9.77761573       7.66039182         0.00000000       0.00000000       0.00000000          1
H        13.50547595       7.11946650       7.24041143         0.00000000       0.00000000       0.00000000          1
H        11.07295117       7.70498973       8.48308370         0.00000000       0.00000000       0.00000000          1
H        12.41575643       9.25157469      10.38288662         0.00000000       0.00000000       0.00000000          1
H        14.84828183       8.66604123       9.14020918         0.00000000       0.00000000       0.00000000          1
6
pbc=[F, F, F] list_num_par=6 frozen=false iter=20000 energy=-1.26974174 Lattice="15.00000000 0.00000000 0.00000000 0.00000000 15.00000000 0.00000000 0.00000000 0.00000000 15.00000000" energy_frozen_part=0.00000000 Properties=species:S:1:pos:R:3:velocities:R:3:Z:I:1
H        13.17406178       6.61586938       9.96394840         0.00000000       0.00000000       0.00000000          1
H        12.74678976       9.77613693       7.63183489         0.00000000       0.00000000       0.00000000          1
H        13.50222862       7.11601503       7.23512795         0.00000000       0.00000000       0.00000000          1
H        11.07284865       7.70717459       8.48129681         0.00000000       0.00000000       0.00000000          1
H        12.41862378       9.27598428      10.36065519         0.00000000       0.00000000       0.00000000          1
H        14.84800351       8.68483748       9.11447862         0.00000000       0.00000000       0.00000000          1
6
pbc=[F, F, F] list_num_par=6 frozen=false iter=20000 energy=-1.26974174 Lattice="15.00000000 0.00000000 0.00000000 0.00000000 15.00000000 0.00000000 0.00000000 0.00000000 15.00000000" energy_frozen_part=0.00000000 Properties=species:S:1:pos:R:3:velocities:R:3:Z:I:1
H        13.30413698       6.86147167      10.24380846         0.00000000       0.00000000       0.00000000          1
H        11.43224099       9.06068052       7.54787131         0.00000000       0.00000000       0.00000000          1
H        13.21300698       6.91032833       7.45210472         0.00000000       0.00000000       0.00000000          1
H        10.84752544       6.70053803       8.92341765         0.00000000       0.00000000       0.00000000          1
H        11.52337157       9.01181464      10.33956925         0.00000000       0.00000000       0.00000000          1
H        13.88885917       9.22160491       8.86825701         0.00000000       0.00000000       0.00000000          1
6
pbc=[F, F, F] list_num_par=6 frozen=false iter=20000 energy=-1.26974174 Lattice="15.00000000 0.00000000 0.00000000 0.00000000 15.00000000 0.00000000 0.00000000 0.00000000 15.00000000" energy_frozen_part=0.00000000 Properties=species:S:1:pos:R:3:velocities:R:3:Z:I:1
H        13.16518820       6.59354317       9.96294349         0.00000000       0.00000000       0.00000000          1
H        12.75531916       9.77783611       7.66057561         0.00000000       0.00000000       0.00000000          1
H        13.50470942       7.11961481       7.24039362         0.00000000       0.00000000       0.00000000          1
H        11.07247453       7.70538030       8.48353502         0.00000000       0.00000000       0.00000000          1
H        12.41580417       9.25176734      10.38312956         0.00000000       0.00000000       0.00000000          1
H        14.84803741       8.66599583       9.13998747         0.00000000       0.00000000       0.00000000          1
6
pbc=[F, F, F] list_num_par=6 frozen=false iter=20000 energy=-1.26974174 Lattice="15.00000000 0.00000000 0.00000000 0.00000000 15.00000000 0.00000000 0.00000000 0.00000000 15.00000000" energy_frozen_part=0.00000000 Properties=species:S:1:pos:R:3:velocities:R:3:Z:I:1
H        13.17402428       6.61574456       9.96383969         0.00000000       0.00000000       0.00000000          1
H        12.74689682       9.77624738       7.63203430         0.00000000       0.00000000       0.00000000          1
H        13.50230093       7.11615596       7.23509165         0.00000000       0.00000000       0.00000000          1
H        11.07288315       7.70722203       8.48122402         0.00000000       0.00000000       0.00000000          1
H        12.41861630       9.27583188      10.36078828         0.00000000       0.00000000       0.00000000          1
H        14.84803614       8.68476104       9.11465425         0.00000000       0.00000000       0.00000000          1
6
pbc=[F, F, F] list_num_par=6 frozen=false iter=20000 energy=-1.26974174 Lattice="15.00000000 0.00000000 0.00000000 0.00000000 15.00000000 0.00000000 0.00000000 0.00000000 15.00000000" energy_frozen_part=0.00000000 Properties=species:S:1:pos:R:3:velocities:R:3:Z:I:1
H        13.30413960       6.86146847      10.24381201         0.00000000       0.00000000       0.00000000          1
H        11.43223884       9.06066858       7.54786938         0.00000000       0.00000000       0.00000000          1
H        13.21299735       6.91032187       7.45211341         0.00000000       0.00000000       0.00000000          1
H        10.84751477       6.70053445       8.92342369         0.00000000       0.00000000       0.00000000          1
H        11.52337242       9.01181785      10.33957000         0.00000000       0.00000000       0.00000000          1
H        13.88885662       9.22160545       8.86825425         0.00000000       0.00000000       0.00000000          1
6
pbc=[F, F, F] list_num_par=6 frozen=false iter=20000 energy=-1.26974174 Lattice="15.00000000 0.00000000 0.00000000 0.00000000 15.00000000 0.00000000 0.00000000 0.00000000 15.00000000" energy_frozen_part=0.00000000 Properties=species:S:1:pos:R:3:velocities:R:3:Z:I:1
H        13.16549340       6.59346148       9.96293160         0.00000000       0.00000000       0.00000000          1
H        12.75570799       9.77761108       7.66036335         0.00000000       0.00000000       0.00000000          1
H        13.50547118       7.11945468       7.24043144         0.00000000       0.00000000       0.00000000          1
H        11.07293210       7.70500711       8.48308561         0.00000000       0.00000000       0.00000000          1
H        12.41572810       9.25161615      10.38286789         0.00000000       0.00000000       0.00000000          1
H        14.84825994       8.66606799       9.14022125         0.00000000       0.00000000       0.00000000          1
6
pbc=[F, F, F] list_num_par=6 frozen=false iter=20000 energy=-1.26974174 Lattice="15.00000000 0.00000000 0.00000000 0.00000000 15.00000000 0.00000000 0.00000000 0.00000000 15.00000000" energy_frozen_part=0.00000000 Properties=species:S:1:pos:R:3:velocities:R:3:Z:I:1
H        13.17402832       6.61596022       9.96426502         0.00000000       0.00000000       0.00000000          1
H        12.74675943       9.77596818       7.63180975         0.00000000       0.00000000       0.00000000          1
H        13.50216423       7.11580254       7.23538961         0.00000000       0.00000000       0.00000000          1
H        11.07280367       7.70711936       8.48151911         0.00000000       0.00000000       0.00000000          1
H        12.41863096       9.27612422      10.36068428         0.00000000       0.00000000       0.00000000          1
H        14.84798810       8.68481284       9.11454826         0.00000000       0.00000000       0.00000000          1
6
pbc=[F, F, F] list_num_par=6 frozen=false iter=20000 energy=-1.26974174 Lattice="15.00000000 0.00000000 0.00000000 0.00000000 15.00000000 0.00000000 0.00000000 0.00000000 15.00000000" energy_frozen_part=0.00000000 Properties=species:S:1:pos:R:3:velocities:R:3:Z:I:1
H        13.30416737       6.86144883      10.24380056         0.00000000       0.00000000       0.00000000          1
H        11.43229036       9.06064838       7.54784343         0.00000000       0.00000000       0.00000000          1
H        13.21308865       6.91032875       7.45209897         0.00000000       0.00000000       0.00000000          1
H        10.84758223       6.70048908       8.92336377         0.00000000       0.00000000       0.00000000          1
H        11.52336919       9.01177018      10.33954416         0.00000000       0.00000000       0.00000000          1
H        13.88887399       9.22161673       8.86828151         0.00000000       0.00000000       0.00000000          1
6
pbc=[F, F, F] list_num_par=6 frozen=false iter=20000 energy=-1.26974174 Lattice="15.00000000 0.00000000 0.00000000 0.00000000 15.00000000 0.00000000 0.00000000 0.00000000 15.00000000" energy_frozen_part=0.00000000 Properties=species:S:1:pos:R:3:velocities:R:3:Z:I:1
H        13.30411412       6.86144784      10.24383486         0.00000000       0.00000000       0.00000000          1
H        11.43228208       9.06066345       7.54785653         0.00000000       0.00000000       0.00000000          1
H        13.21303881       6.91030200       7.45213677         0.00000000       0.00000000       0.00000000          1
H        10.84752360       6.70052879       8.92339674         0.00000000       0.00000000       0.00000000          1
H        11.52335748       9.01180353      10.33956502         0.00000000       0.00000000       0.00000000          1
H        13.88886556       9.22158753       8.86829705         0.00000000       0.00000000       0.00000000          1
6
pbc=[F, F, F] list_num_par=6 frozen=false iter=20000 energy=-1.26974174 Lattice="15.00000000 0.00000000 0.00000000 0.00000000 15.00000000 0.00000000 0.00000000 0.00000000 15.00000000" energy_frozen_part=0.00000000 Properties=species:S:1:pos:R:3:velocities:R:3:Z:I:1
H        13.17402932       6.61574550       9.96385659         0.00000000       0.00000000       0.00000000          1
H        12.74688611       9.77624405       7.63202573         0.00000000       0.00000000       0.00000000          1
H        13.50230698       7.11615171       7.23509759         0.00000000       0.00000000       0.00000000          1
H        11.07288914       7.70721851       8.48122831         0.00000000       0.00000000       0.00000000          1
H        12.41860700       9.27584013      10.36078457         0.00000000       0.00000000       0.00000000          1
H        14.84803014       8.68477468       9.11465915         0.00000000       0.00000000       0.00000000          1
6
pbc=[F, F, F] list_num_par=6 frozen=false iter=20000 energy=-1.26974174 Lattice="15.00000000 0.00000000 0.00000000 0.00000000 15.00000000 0.00000000 0.00000000 0.00000000 15.00000000" energy_frozen_part=0.00000000 Properties=species:S:1:pos:R:3:velocities:R:3:Z:I:1
H        13.17405263       6.61587146       9.96394429         0.00000000       0.00000000       0.00000000          1
H        12.74679291       9.77613220       7.63182543         0.00000000       0.00000000       0.00000000          1
H        13.50222417       7.11601771       7.23512674         0.00000000       0.00000000       0.00000000          1
H        11.07284295       7.70717394       8.48129540         0.00000000       0.00000000       0.00000000          1
H        12.41863344       9.27599172      10.36064611         0.00000000       0.00000000       0.00000000          1
H        14.84800570       8.68483142       9.11447611         0.00000000       0.00000000       0.00000000          1
6
pbc=[F, F, F] list_num_par=6 frozen=false iter=20000 energy=-1.26974174 Lattice="15.00000000 0.00000000 0.00000000 0.00000000 15.00000000 0.00000000 0.00000000 0.00000000 15.00000000" energy_frozen_part=0.00000000 Properties=species:S:1:pos:R:3:velocities:R:3:Z:I:1
H        13.30414193       6.86154223      10.24392238         0.00000000       0.00000000       0.00000000          1
H        11.43210495       9.06071118       7.54805841         0.00000000       0.00000000       0.00000000          1
H        13.21299936       6.91047152       7.45221999         0.00000000       0.00000000       0.00000000          1
H        10.84753515       6.70049952       8.92353658         0.00000000       0.00000000       0.00000000          1
H        11.52326076       9.01178427      10.33975495         0.00000000       0.00000000       0.00000000          1
H        13.88872243       9.22174858       8.86843123         0.00000000       0.00000000       0.00000000          1
6
pbc=[F, F, F] list_num_par=6 frozen=false iter=20000 energy=-1.26974174 Lattice="15.00000000 0.00000000 0.00000000 0.00000000 15.00000000 0.00000000 0.00000000 0.00000000 15.00000000" energy_frozen_part=0.00000000 Properties=species:S:1:pos:R:3:velocities:R:3:Z:I:1
H        13.30411837       6.86145952      10.24385138         0.00000000       0.00000000       0.00000000          1
H        11.43229367       9.06065026       7.54785053         0.00000000       0.00000000       0.00000000          1
H        13.21305020       6.91029463       7.45214372         0.00000000       0.00000000       0.00000000          1
H        10.84753724       6.70052166       8.92339866         0.00000000       0.00000000       0.00000000          1
H        11.52335255       9.01180816      10.33955831         0.00000000       0.00000000       0.00000000          1
H        13.88887544       9.22158612       8.86830003         0.00000000       0.00000000       0.00000000          1
6
pbc=[F, F, F] list_num_par=6 frozen=false iter=20000 energy=-1.26974174 Lattice="15.00000000 0.00000000 0.00000000 0.00000000 15.00000000 0.00000000 0.00000000 0.00000000 15.00000000" energy_frozen_part=0.00000000 Properties=species:S:1:pos:R:3:velocities:R:3:Z:I:1
H        13.30413163       6.86154132      10.24391755         0.00000000       0.00000000       0.00000000          1
H        11.43208342       9.06071542       7.54806058         0.00000000       0.00000000       0.00000000          1
H        13.21297780       6.91048454       7.45222269         0.00000000       0.00000000       0.00000000          1
H        10.84751863       6.70050219       8.92354041         0.00000000       0.00000000       0.00000000          1
H        11.52323299       9.01178022      10.33976321         0.00000000       0.00000000       0.00000000          1
H        13.88869857       9.22176189       8.86844311         0.00000000       0.00000000       0.00000000          1
6
pbc=[F, F, F] list_num_par=6 frozen=false iter=20000 energy=-1.26974174 Lattice="15.00000000 0.00000000 0.00000000 0.00000000 15.00000000 0.00000000 0.00000000 0.00000000 15.00000000" energy_frozen_part=0.00000000 Properties=species:S:1:pos:R:3:velocities:R:3:Z:I:1
H        13.16546125       6.59345326       9.96295498         0.00000000       0.00000000       0.00000000          1
H        12.75568594       9.77760476       7.66037484         0.00000000       0.00000000       0.00000000          1
H        13.50543642       7.11944062       7.24044948         0.00000000       0.00000000       0.00000000          1
H        11.07291341       7.70500463       8.48310779         0.00000000       0.00000000       0.00000000          1
H        12.41571622       9.25161708      10.38288083         0.00000000       0.00000000       0.00000000          1
H        14.84824304       8.66604776       9.14022138         0.00000000       0.00000000       0.00000000          1
6
pbc=[F, F, F] list_num_par=6 frozen=false iter=20000 energy=-1.26974174 Lattice="15.00000000 0.00000000 0.00000000 0.00000000 15.00000000 0.00000000 0.00000000 0.00000000 15.00000000" energy_frozen_part=0.00000000 Properties=species:S:1:pos:R:3:velocities:R:3:Z:I:1
H        13.30417980       6.86143264      10.24379783         0.00000000       0.00000000       0.00000000          1
H        11.43229080       9.06065809       7.54786657         0.00000000       0.00000000       0.00000000          1
H        13.21309997       6.91034186       7.45209483         0.00000000       0.00000000       0.00000000          1
H        10.84759059       6.70048376       8.92336306         0.00000000       0.00000000       0.00000000          1
H        11.52336819       9.01174528      10.33957308         0.00000000       0.00000000       0.00000000          1
H        13.88887607       9.22161110       8.86830779         0.00000000       0.00000000       0.00000000          1
6
pbc=[F, F, F] list_num_par=6 frozen=false iter=20000 energy=-1.26974174 Lattice="15.00000000 0.00000000 0.00000000 0.00000000 15.00000000 0.00000000 0.00000000 0.00000000 15.00000000" energy_frozen_part=0.00000000 Properties=species:S:1:pos:R:3:velocities:R:3:Z:I:1
H        13.17407528       6.61587412       9.96395728         0.00000000       0.00000000       0.00000000          1
H        12.74679302       9.77612040       7.63182509         0.00000000       0.00000000       0.00000000          1
H        13.50223355       7.11599883       7.23513739         0.00000000       0.00000000       0.00000000          1
H        11.07285312       7.70716345       8.48130016         0.00000000       0.00000000       0.00000000          1
H        12.41862730       9.27599226      10.36064266         0.00000000       0.00000000       0.00000000          1
H        14.84801126       8.68483274       9.11447755         0.00000000       0.00000000       0.00000000          1
6
pbc=[F, F, F] list_num_par=6 frozen=false iter=20000 energy=-1.26974174 Lattice="15.00000000 0.00000000 0.00000000 0.00000000 15.00000000 0.00000000 0.00000000 0.00000000 15.00000000" energy_frozen_part=0.00000000 Properties=species:S:1:pos:R:3:velocities:R:3:Z:I:1
H        13.30410174       6.86146330      10.24384431         0.00000000       0.00000000       0.00000000          1
H        11.43229294       9.06066007       7.54784672         0.00000000       0.00000000       0.00000000          1
H        13.21305384       6.91030714       7.45214548         0.00000000       0.00000000       0.00000000          1
H        10.84752174       6.70053150       8.92338956         0.00000000       0.00000000       0.00000000          1
H        11.52333623       9.01181144      10.33955169         0.00000000       0.00000000       0.00000000          1
H        13.88886612       9.22159568       8.86831445         0.00000000       0.00000000       0.00000000          1
6
pbc=[F, F, F] list_num_par=6 frozen=false iter=20000 energy=-1.26974174 Lattice="15.00000000 0.00000000 0.00000000 0.00000000 15.00000000 0.00000000 0.00000000 0.00000000 15.00000000" energy_frozen_part=0.00000000 Properties=species:S:1:pos:R:3:velocities:R:3:Z:I:1
H        13.17404989       6.61574791       9.96384481         0.00000000       0.00000000       0.00000000          1
H        12.74688718       9.77623531       7.63201544         0.00000000       0.00000000       0.00000000          1
H        13.50230023       7.11614147       7.23508089         0.00000000       0.00000000       0.00000000          1
H        11.07288992       7.70720626       8.48123125         0.00000000       0.00000000       0.00000000          1
H        12.41862839       9.27583304      10.36077041         0.00000000       0.00000000       0.00000000          1
H        14.84804409       8.68476828       9.11462590         0.00000000       0.00000000       0.00000000          1
6
pbc=[F, F, F] list_num_par=6 frozen=false iter=20000 energy=-1.26974174 Lattice="15.00000000 0.00000000 0.00000000 0.00000000 15.00000000 0.00000000 0.00000000 0.00000000 15.00000000" energy_frozen_part=0.00000000 Properties=species:S:1:pos:R:3:velocities:R:3:Z:I:1
H        13.30417461       6.86145272      10.24379787         0.00000000       0.00000000       0.00000000          1
H        11.43228932       9.06065317       7.54784416         0.00000000       0.00000000       0.00000000          1
H        13.21309515       6.91033909       7.45209803         0.00000000       0.00000000       0.00000000          1
H        10.84758389       6.70049160       8.92335772         0.00000000       0.00000000       0.00000000          1
H        11.52336538       9.01177107      10.33954577         0.00000000       0.00000000       0.00000000          1
H        13.88888090       9.22161727       8.86828768         0.00000000       0.00000000       0.00000000          1
6
pbc=[F, F, F] list_num_par=6 frozen=false iter=20000 energy=-1.26974174 Lattice="15.00000000 0.00000000 0.00000000 0.00000000 15.00000000 0.00000000 0.00000000 0.00000000 15.00000000" energy_frozen_part=0.00000000 Properties=species:S:1:pos:R:3:velocities:R:3:Z:I:1
H        13.17406211       6.61585663       9.96390551         0.00000000       0.00000000       0.00000000          1
H        12.74678983       9.77616789       7.63184725         0.00000000       0.00000000       0.00000000          1
H        13.50224856       7.11606033       7.23509934         0.00000000       0.00000000       0.00000000          1
H        11.07285887       7.70717554       8.48125392         0.00000000       0.00000000       0.00000000          1
H        12.41860158       9.27596250      10.36065829         0.00000000       0.00000000       0.00000000          1
H        14.84799591       8.68484901       9.11449973         0.00000000       0.00000000       0.00000000          1
6
pbc=[F, F, F] list_num_par=6 frozen=false iter=20000 energy=-1.26974174 Lattice="15.00000000 0.00000000 0.00000000 0.00000000 15.00000000 0.00000000 0.00000000 0.00000000 15.00000000" energy_frozen_part=0.00000000 Properties=species:S:1:pos:R:3:velocities:R:3:Z:I:1
H        13.16548429       6.59345619       9.96294389         0.00000000       0.00000000       0.00000000          1
H        12.75565997       9.77762898       7.66041985         0.00000000       0.00000000       0.00000000          1
H        13.50543712       7.11948771       7.24044696         0.00000000       0.00000000       0.00000000          1
H        11.07290879       7.70500027       8.48311863         0.00000000       0.00000000       0.00000000          1
H        12.41570232       9.25159972      10.38292033         0.00000000       0.00000000       0.00000000          1
H        14.84823569       8.66608083       9.14024345         0.00000000       0.00000000       0.00000000          1
6
pbc=[F, F, F] list_num_par=6 frozen=false iter=20000 energy=-1.26974174 Lattice="15.00000000 0.00000000 0.00000000 0.00000000 15.00000000 0.00000000 0.00000000 0.00000000 15.00000000" energy_frozen_part=0.00000000 Properties=species:S:1:pos:R:3:velocities:R:3:Z:I:1
H        13.16548478       6.59343435       9.96299716         0.00000000       0.00000000       0.00000000          1
H        12.75572327       9.77759070       7.66042425         0.00000000       0.00000000       0.00000000          1
H        13.50548701       7.11942603       7.24049674         0.00000000       0.00000000       0.00000000          1
H        11.07294470       7.70498679       8.48313006         0.00000000       0.00000000       0.00000000          1
H        12.41573085       9.25159520      10.38292209         0.00000000       0.00000000       0.00000000          1
H        14.84826827       8.66603664       9.14028976         0.00000000       0.00000000       0.00000000          1
6
pbc=[F, F, F] list_num_par=6 frozen=false iter=20000 energy=-1.26974174 Lattice="15.00000000 0.00000000 0.00000000 0.00000000 15.00000000 0.00000000 0.00000000 0.00000000 15.00000000" energy_frozen_part=0.00000000 Properties=species:S:1:pos:R:3:velocities:R:3:Z:I:1
H        13.30410293       6.86144973      10.24386202         0.00000000       0.00000000       0.00000000          1
H        11.43229890       9.06064916       7.54785254         0.00000000       0.00000000       0.00000000          1
H        13.21305042       6.91029140       7.45215466         0.00000000       0.00000000       0.00000000          1
H        10.84752209       6.70053030       8.92340687         0.00000000       0.00000000       0.00000000          1
H        11.52334946       9.01181232      10.33955828         0.00000000       0.00000000       0.00000000          1
H        13.88888068       9.22157496       8.86831208         0.00000000       0.00000000       0.00000000          1
6
pbc=[F, F, F] list_num_par=6 frozen=false iter=20000 energy=-1.26974174 Lattice="15.00000000 0.00000000 0.00000000 0.00000000 15.00000000 0.00000000 0.00000000 0.00000000 15.00000000" energy_frozen_part=0.00000000 Properties=species:S:1:pos:R:3:velocities:R:3:Z:I:1
H        13.30416906       6.86143681      10.24380867         0.00000000       0.00000000       0.00000000          1
H        11.43229493       9.06064673       7.54785445         0.00000000       0.00000000       0.00000000          1
H        13.21310669       6.91033939       7.45210505         0.00000000       0.00000000       0.00000000          1
H        10.84758934       6.70047863       8.92335935         0.00000000       0.00000000       0.00000000          1
H        11.52336924       9.01175220      10.33956120         0.00000000       0.00000000       0.00000000          1
H        13.88888075       9.22161026       8.86830590         0.00000000       0.00000000       0.00000000          1
6
pbc=[F, F, F] list_num_par=6 frozen=false iter=20000 energy=-1.26974174 Lattice="15.00000000 0.00000000 0.00000000 0.00000000 15.00000000 0.00000000 0.00000000 0.00000000 15.00000000" energy_frozen_part=0.00000000 Properties=species:S:1:pos:R:3:velocities:R:3:Z:I:1
H        13.17402171       6.61575406       9.96385070         0.00000000       0.00000000       0.00000000          1
H        12.74689216       9.77624697       7.63202510         0.00000000       0.00000000       0.00000000          1
H        13.50232235       7.11615929       7.23509621         0.00000000       0.00000000       0.00000000          1
H        11.07289199       7.70721816       8.48121347         0.00000000       0.00000000       0.00000000          1
H        12.41860585       9.27584473      10.36077829         0.00000000       0.00000000       0.00000000          1
H        14.84802877       8.68478531       9.11466356         0.00000000       0.00000000       0.00000000          1
6
pbc=[F, F, F] list_num_par=6 frozen=false iter=20000 energy=-1.26974174 Lattice="15.00000000 0.00000000 0.00000000 0.00000000 15.00000000 0.00000000 0.00000000 0.00000000 15.00000000" energy_frozen_part=0.00000000 Properties=species:S:1:pos:R:3:velocities:R:3:Z:I:1
H        13.16546630       6.59346130       9.96293843         0.00000000       0.00000000       0.00000000          1
H        12.75570186       9.77759913       7.66035339         0.00000000       0.00000000       0.00000000          1
H        13.50542974       7.11942862       7.24043301         0.00000000       0.00000000       0.00000000          1
H        11.07290997       7.70501514       8.48308986         0.00000000       0.00000000       0.00000000          1
H        12.41573153       9.25162422      10.38286137         0.00000000       0.00000000       0.00000000          1
H        14.84825797       8.66604452       9.14019579         0.00000000       0.00000000       0.00000000          1
6
pbc=[F, F, F] list_num_par=6 frozen=false iter=20000 energy=-1.26974174 Lattice="15.00000000 0.00000000 0.00000000 0.00000000 15.00000000 0.00000000 0.00000000 0.00000000 15.00000000" energy_frozen_part=0.00000000 Properties=species:S:1:pos:R:3:velocities:R:3:Z:I:1
H        13.16547483       6.59342689       9.96295897         0.00000000       0.00000000       0.00000000          1
H        12.75565623       9.77757133       7.66038958         0.00000000       0.00000000       0.00000000          1
H        13.50545500       7.11942605       7.24046411         0.00000000       0.00000000       0.00000000          1
H        11.07290422       7.70494601       8.48310598         0.00000000       0.00000000       0.00000000          1
H        12.41567712       9.25157263      10.38289256         0.00000000       0.00000000       0.00000000          1
H        14.84822314       8.66605814       9.14024399         0.00000000       0.00000000       0.00000000          1
6
pbc=[F, F, F] list_num_par=6 frozen=false iter=20000 energy=-1.26974174 Lattice="15.00000000 0.00000000 0.00000000 0.00000000 15.00000000 0.00000000 0.00000000 0.00000000 15.00000000" energy_frozen_part=0.00000000 Properties=species:S:1:pos:R:3:velocities:R:3:Z:I:1
H        13.30416890       6.86144966      10.24381154         0.00000000       0.00000000       0.00000000          1
H        11.43230344       9.06064474       7.54784664         0.00000000       0.00000000       0.00000000          1
H        13.21311658       6.91033697       7.45210694         0.00000000       0.00000000       0.00000000          1
H        10.84759792       6.70048464       8.92335506         0.00000000       0.00000000       0.00000000          1
H        11.52336881       9.01177029      10.33954648         0.00000000       0.00000000       0.00000000          1
H        13.88888532       9.22161474       8.86829838         0.00000000       0.00000000       0.00000000          1
6
pbc=[F, F, F] list_num_par=6 frozen=false iter=20000 energy=-1.26974174 Lattice="15.00000000 0.00000000 0.00000000 0.00000000 15.00000000 0.00000000 0.00000000 0.00000000 15.00000000" energy_frozen_part=0.00000000 Properties=species:S:1:pos:R:3:velocities:R:3:Z:I:1
H        13.30413006       6.86147152      10.24382488         0.00000000       0.00000000       0.00000000          1
H        11.43223498       9.06066276       7.54787557         0.00000000       0.00000000       0.00000000          1
H        13.21299967       6.91031924       7.45211748         0.00000000       0.00000000       0.00000000          1
H        10.84751585       6.70052603       8.92342805         0.00000000       0.00000000       0.00000000          1
H        11.52336185       9.01181140      10.33957290         0.00000000       0.00000000       0.00000000          1
H        13.88884945       9.22160002       8.86826643         0.00000000       0.00000000       0.00000000          1
6
pbc=[F, F, F] list_num_par=6 frozen=false iter=20000 energy=-1.26974174 Lattice="15.00000000 0.00000000 0.00000000 0.00000000 15.00000000 0.00000000 0.00000000 0.00000000 15.00000000" energy_frozen_part=0.00000000 Properties=species:S:1:pos:R:3:velocities:R:3:Z:I:1
H        13.30412932       6.86146883      10.24381295         0.00000000       0.00000000       0.00000000          1
H        11.43224623       9.06067450       7.54787157         0.00000000       0.00000000       0.00000000          1
H        13.21299722       6.91031762       7.45211172         0.00000000       0.00000000       0.00000000          1
H        10.84751251       6.70054291       8.92341898         0.00000000       0.00000000       0.00000000          1
H        11.52337170       9.01181941      10.33956593         0.00000000       0.00000000       0.00000000          1
H        13.88886077       9.22160140       8.86826002         0.00000000       0.00000000       0.00000000          1
6
pbc=[F, F, F] list_num_par=6 frozen=false iter=20000 energy=-1.26974174 Lattice="15.00000000 0.00000000 0.00000000 0.00000000 15.00000000 0.00000000 0.00000000 0.00000000 15.00000000" energy_frozen_part=0.00000000 Properties=species:S:1:pos:R:3:velocities:R:3:Z:I:1
H        13.30417669       6.86144283      10.24380282         0.00000000       0.00000000       0.00000000          1
H        11.43229354       9.06064846       7.54786298         0.00000000       0.00000000       0.00000000          1
H        13.21309774       6.91033821       7.45210242         0.00000000       0.00000000       0.00000000          1
H        10.84759023       6.70047995       8.92336457         0.00000000       0.00000000       0.00000000          1
H        11.52337407       9.01175909      10.33955764         0.00000000       0.00000000       0.00000000          1
H        13.88888176       9.22161381       8.86830318         0.00000000       0.00000000       0.00000000          1
6
pbc=[F, F, F] list_num_par=6 frozen=false iter=20000 energy=-1.26974174 Lattice="15.00000000 0.00000000 0.00000000 0.00000000 15.00000000 0.00000000 0.00000000 0.00000000 15.00000000" energy_frozen_part=0.00000000 Properties=species:S:1:pos:R:3:velocities:R:3:Z:I:1
H        13.16522758       6.59352531       9.96295694         0.00000000       0.00000000       0.00000000          1
H        12.75526375       9.77782285       7.66061431         0.00000000       0.00000000       0.00000000          1
H        13.50469831       7.11961704       7.24040555         0.00000000       0.00000000       0.00000000          1
H        11.07247230       7.70532948       8.48358197         0.00000000       0.00000000       0.00000000          1
H        12.41578408       9.25173330      10.38315915         0.00000000       0.00000000       0.00000000          1
H        14.84801889       8.66602193       9.13999130         0.00000000       0.00000000       0.00000000          1
6
pbc=[F, F, F] list_num_par=6 frozen=false iter=20000 energy=-1.26974174 Lattice="15.00000000 0.00000000 0.00000000 0.00000000 15.00000000 0.00000000 0.00000000 0.00000000 15.00000000" energy_frozen_part=0.00000000 Properties=species:S:1:pos:R:3:velocities:R:3:Z:I:1
H        13.30413508       6.86147191      10.24381033         0.00000000       0.00000000       0.00000000          1
H        11.43225399       9.06066616       7.54785831         0.00000000       0.00000000       0.00000000          1
H        13.21300747       6.91031750       7.45211073         0.00000000       0.00000000       0.00000000          1
H        10.84752094       6.70053888       8.92342410         0.00000000       0.00000000       0.00000000          1
H        11.52338033       9.01182824      10.33956487         0.00000000       0.00000000       0.00000000          1
H        13.88886416       9.22160064       8.86825608         0.00000000       0.00000000       0.00000000          1
6
pbc=[F, F, F] list_num_par=6 frozen=false iter=20000 energy=-1.26974174 Lattice="15.00000000 0.00000000 0.00000000 0.00000000 15.00000000 0.00000000 0.00000000 0.00000000 15.00000000" energy_frozen_part=0.00000000 Properties=species:S:1:pos:R:3:velocities:R:3:Z:I:1
H        13.30412422       6.86147041      10.24383010         0.00000000       0.00000000       0.00000000          1
H        11.43225036       9.06066033       7.54787372         0.00000000       0.00000000       0.00000000          1
H        13.21301818       6.91031287       7.45212590         0.00000000       0.00000000       0.00000000          1
H        10.84752267       6.70052408       8.92342392         0.00000000       0.00000000       0.00000000          1
H        11.52335483       9.01181075      10.33957619         0.00000000       0.00000000       0.00000000          1
H        13.88885455       9.22159889       8.86827505         0.00000000       0.00000000       0.00000000          1
6
pbc=[F, F, F] list_num_par=6 frozen=false iter=20000 energy=-1.26974174 Lattice="15.00000000 0.00000000 0.00000000 0.00000000 15.00000000 0.00000000 0.00000000 0.00000000 15.00000000" energy_frozen_part=0.00000000 Properties=species:S:1:pos:R:3:velocities:R:3:Z:I:1
H        13.16546922       6.59345533       9.96293880         0.00000000       0.00000000       0.00000000          1
H        12.75569298       9.77760661       7.66037435         0.00000000       0.00000000       0.00000000          1
H        13.50545469       7.11945224       7.24043704         0.00000000       0.00000000       0.00000000          1
H        11.07291803       7.70501158       8.48308918         0.00000000       0.00000000       0.00000000          1
H        12.41571812       9.25161465      10.38288272         0.00000000       0.00000000       0.00000000          1
H        14.84825012       8.66605767       9.14022210         0.00000000       0.00000000       0.00000000          1
6
pbc=[F, F, F] list_num_par=6 frozen=false iter=20000 energy=-1.26974174 Lattice="15.00000000 0.00000000 0.00000000 0.00000000 15.00000000 0.00000000 0.00000000 0.00000000 15.00000000" energy_frozen_part=0.00000000 Properties=species:S:1:pos:R:3:velocities:R:3:Z:I:1
H        13.30417485       6.86145665      10.24381409         0.00000000       0.00000000       0.00000000          1
H        11.43230763       9.06064712       7.54784477         0.00000000       0.00000000       0.00000000          1
H        13.21312220       6.91033794       7.45210809         0.00000000       0.00000000       0.00000000          1
H        10.84760004       6.70048273       8.92335963         0.00000000       0.00000000       0.00000000          1
H        11.52335878       9.01176143      10.33954946         0.00000000       0.00000000       0.00000000          1
H        13.88888115       9.22161758       8.86830587         0.00000000       0.00000000       0.00000000          1
6
pbc=[F, F, F] list_num_par=6 frozen=false iter=20000 energy=-1.26974174 Lattice="15.00000000 0.00000000 0.00000000 0.00000000 15.00000000 0.00000000 0.00000000 0.00000000 15.00000000" energy_frozen_part=0.00000000 Properties=species:S:1:pos:R:3:velocities:R:3:Z:I:1
H        13.16520988       6.59351871       9.96292957         0.00000000       0.00000000       0.00000000          1
H        12.75528416       9.77782382       7.66058617         0.00000000       0.00000000       0.00000000          1
H        13.50470270       7.11961174       7.24038157         0.00000000       0.00000000       0.00000000          1
H        11.07247236       7.70534557       8.48354411         0.00000000       0.00000000       0.00000000          1
H        12.41578977       9.25172729      10.38313785         0.00000000       0.00000000       0.00000000          1
H        14.84802415       8.66599959       9.13997732         0.00000000       0.00000000       0.00000000          1
6
pbc=[F, F, F] list_num_par=6 frozen=false iter=20000 energy=-1.26974174 Lattice="15.00000000 0.00000000 0.00000000 0.00000000 15.00000000 0.00000000 0.00000000 0.00000000 15.00000000" energy_frozen_part=0.00000000 Properties=species:S:1:pos:R:3:velocities:R:3:Z:I:1
H        13.30412445       6.86152213      10.24390738         0.00000000       0.00000000       0.00000000          1
H        11.43209640       9.06072521       7.54805177         0.00000000       0.00000000       0.00000000          1
H        13.21293265       6.91044490       7.45220479         0.00000000       0.00000000       0.00000000          1
H        10.84748771       6.70053647       8.92356532         0.00000000       0.00000000       0.00000000          1
H        11.52328949       9.01180778      10.33975090         0.00000000       0.00000000       0.00000000          1
H        13.88873112       9.22171718       8.86839993         0.00000000       0.00000000       0.00000000          1
6
pbc=[F, F, F] list_num_par=6 frozen=false iter=20000 energy=-1.26974174 Lattice="15.00000000 0.00000000 0.00000000 0.00000000 15.00000000 0.00000000 0.00000000 0.00000000 15.00000000" energy_frozen_part=0.00000000 Properties=species:S:1:pos:R:3:velocities:R:3:Z:I:1
H        13.17402738       6.61595949       9.96426062         0.00000000       0.00000000       0.00000000          1
H        12.74676435       9.77597456       7.63181546         0.00000000       0.00000000       0.00000000          1
H        13.50215806       7.11580440       7.23538415         0.00000000       0.00000000       0.00000000          1
H        11.07281115       7.70712583       8.48152572         0.00000000       0.00000000       0.00000000          1
H        12.41862834       9.27612801      10.36069185         0.00000000       0.00000000       0.00000000          1
H        14.84798393       8.68481082       9.11454961         0.00000000       0.00000000       0.00000000          1
6
pbc=[F, F, F] list_num_par=6 frozen=false iter=20000 energy=-1.26974174 Lattice="15.00000000 0.00000000 0.00000000 0.00000000 15.00000000 0.00000000 0.00000000 0.00000000 15.00000000" energy_frozen_part=0.00000000 Properties=species:S:1:pos:R:3:velocities:R:3:Z:I:1
H        13.30416740       6.86143423      10.24378907         0.00000000       0.00000000       0.00000000          1
H        11.43228132       9.06065862       7.54786011         0.00000000       0.00000000       0.00000000          1
H        13.21308401       6.91034920       7.45208871         0.00000000       0.00000000       0.00000000          1
H        10.84758084       6.70047684       8.92335272         0.00000000       0.00000000       0.00000000          1
H        11.52335729       9.01174466      10.33956190         0.00000000       0.00000000       0.00000000          1
H        13.88887180       9.22161487       8.86830060         0.00000000       0.00000000       0.00000000          1
6
pbc=[F, F, F] list_num_par=6 frozen=false iter=20000 energy=-1.26974174 Lattice="15.00000000 0.00000000 0.00000000 0.00000000 15.00000000 0.00000000 0.00000000 0.00000000 15.00000000" energy_frozen_part=0.00000000 Properties=species:S:1:pos:R:3:velocities:R:3:Z:I:1
H        13.16548861       6.59346911       9.96297401         0.00000000       0.00000000       0.00000000          1
H        12.75567910       9.77758368       7.66035110         0.00000000       0.00000000       0.00000000          1
H        13.50546462       7.11942634       7.24046565         0.00000000       0.00000000       0.00000000          1
H        11.07292365       7.70497991       8.48310044         0.00000000       0.00000000       0.00000000          1
H        12.41570227       9.25162776      10.38286234         0.00000000       0.00000000       0.00000000          1
H        14.84824026       8.66608404       9.14022356         0.00000000       0.00000000       0.00000000          1
6
pbc=[F, F, F] list_num_par=6 frozen=false iter=20000 energy=-1.26974174 Lattice="15.00000000 0.00000000 0.00000000 0.00000000 15.00000000 0.00000000 0.00000000 0.00000000 15.00000000" energy_frozen_part=0.00000000 Properties=species:S:1:pos:R:3:velocities:R:3:Z:I:1
H        13.30409741       6.86154340      10.24393693         0.00000000       0.00000000       0.00000000          1
H        11.43211220       9.06072503       7.54804116         0.00000000       0.00000000       0.00000000          1
H        13.21296796       6.91045191       7.45223403         0.00000000       0.00000000       0.00000000          1
H        10.84749194       6.70053461       8.92354317         0.00000000       0.00000000       0.00000000          1
H        11.52324866       9.01181684      10.33973777         0.00000000       0.00000000       0.00000000          1
H        13.88872743       9.22173584       8.86843222         0.00000000       0.00000000       0.00000000          1
6
pbc=[F, F, F] list_num_par=6 frozen=false iter=20000 energy=-1.26974174 Lattice="15.00000000 0.00000000 0.00000000 0.00000000 15.00000000 0.00000000 0.00000000 0.00000000 15.00000000" energy_frozen_part=0.00000000 Properties=species:S:1:pos:R:3:velocities:R:3:Z:I:1
H        13.30410577       6.86144562      10.24382995         0.00000000       0.00000000       0.00000000          1
H        11.43228503       9.06066952       7.54786089         0.00000000       0.00000000       0.00000000          1
H        13.21303914       6.91031820       7.45212227         0.00000000       0.00000000       0.00000000          1
H        10.84752220       6.70052979       8.92338749         0.00000000       0.00000000       0.00000000          1
H        11.52335588       9.01180620      10.33956078         0.00000000       0.00000000       0.00000000          1
H        13.88887479       9.22158290       8.86830723         0.00000000       0.00000000       0.00000000          1
6
pbc=[F, F, F] list_num_par=6 frozen=false iter=20000 energy=-1.26974174 Lattice="15.00000000 0.00000000 0.00000000 0.00000000 15.00000000 0.00000000 0.00000000 0.00000000 15.00000000" energy_frozen_part=0.00000000 Properties=species:S:1:pos:R:3:velocities:R:3:Z:I:1
H        13.17408987       6.61588285       9.96395557         0.00000000       0.00000000       0.00000000          1
H        12.74678870       9.77614309       7.63185582         0.00000000       0.00000000       0.00000000          1
H        13.50223167       7.11603407       7.23513407         0.00000000       0.00000000       0.00000000          1
H        11.07285793       7.70717147       8.48132630         0.00000000       0.00000000       0.00000000          1
H        12.41864235       9.27599258      10.36067028         0.00000000       0.00000000       0.00000000          1
H        14.84801832       8.68484716       9.11448507         0.00000000       0.00000000       0.00000000          1
6
pbc=[F, F, F] list_num_par=6 frozen=false iter=20000 energy=-1.26974174 Lattice="15.00000000 0.00000000 0.00000000 0.00000000 15.00000000 0.00000000 0.00000000 0.00000000 15.00000000" energy_frozen_part=0.00000000 Properties=species:S:1:pos:R:3:velocities:R:3:Z:I:1
H        13.16548244       6.59346801       9.96298394         0.00000000       0.00000000       0.00000000          1
H        12.75565988       9.77757802       7.66035812         0.00000000       0.00000000       0.00000000          1
H        13.50545300       7.11942530       7.24047255         0.00000000       0.00000000       0.00000000          1
H        11.07291090       7.70496617       8.48311546         0.00000000       0.00000000       0.00000000          1
H        12.41569804       9.25162462      10.38287521         0.00000000       0.00000000       0.00000000          1
H        14.84823508       8.66607766       9.14022769         0.00000000       0.00000000       0.00000000          1
6
pbc=[F, F, F] list_num_par=6 frozen=false iter=20000 energy=-1.26974174 Lattice="15.00000000 0.00000000 0.00000000 0.00000000 15.00000000 0.00000000 0.00000000 0.00000000 15.00000000" energy_frozen_part=0.00000000 Properties=species:S:1:pos:R:3:velocities:R:3:Z:I:1
H        13.30418325       6.86145449      10.24380604         0.00000000       0.00000000       0.00000000          1
H        11.43230777       9.06066372       7.54786166         0.00000000       0.00000000       0.00000000          1
H        13.21310894       6.91034020       7.45210081         0.00000000       0.00000000       0.00000000          1
H        10.84759727       6.70049816       8.92336351         0.00000000       0.00000000       0.00000000          1
H        11.52337782       9.01176922      10.33956523         0.00000000       0.00000000       0.00000000          1
H        13.88888880       9.22161543       8.86830078         0.00000000       0.00000000       0.00000000          1
6
pbc=[F, F, F] list_num_par=6 frozen=false iter=20000 energy=-1.26974174 Lattice="15.00000000 0.00000000 0.00000000 0.00000000 15.00000000 0.00000000 0.00000000 0.00000000 15.00000000" energy_frozen_part=0.00000000 Properties=species:S:1:pos:R:3:velocities:R:3:Z:I:1
H        13.16552596       6.59342147       9.96293389         0.00000000       0.00000000       0.00000000          1
H        12.75567767       9.77760777       7.66042528         0.00000000       0.00000000       0.00000000          1
H        13.50551026       7.11947745       7.24043487         0.00000000       0.00000000       0.00000000          1
H        11.07295290       7.70493953       8.48308930         0.00000000       0.00000000       0.00000000          1
H        12.41568820       9.25155052      10.38291298         0.00000000       0.00000000       0.00000000          1
H        14.84824923       8.66608478       9.14026367         0.00000000       0.00000000       0.00000000          1
6
pbc=[F, F, F] list_num_par=6 frozen=false iter=20000 energy=-1.26974174 Lattice="15.00000000 0.00000000 0.00000000 0.00000000 15.00000000 0.00000000 0.00000000 0.00000000 15.00000000" energy_frozen_part=0.00000000 Properties=species:S:1:pos:R:3:velocities:R:3:Z:I:1
H        13.16548246       6.59346891       9.96298830         0.00000000       0.00000000       0.00000000          1
H        12.75566720       9.77757826       7.66035706         0.00000000       0.00000000       0.00000000          1
H        13.50545258       7.11941886       7.24046836         0.00000000       0.00000000       0.00000000          1
H        11.07291473       7.70497094       8.48311106         0.00000000       0.00000000       0.00000000          1
H        12.41569393       9.25162352      10.38286760         0.00000000       0.00000000       0.00000000          1
H        14.84823361       8.66607717       9.14022634         0.00000000       0.00000000       0.00000000          1
6
pbc=[F, F, F] list_num_par=6 frozen=false iter=20000 energy=-1.26974174 Lattice="15.00000000 0.00000000 0.00000000 0.00000000 15.00000000 0.00000000 0.00000000 0.00000000 15.00000000" energy_frozen_part=0.00000000 Properties=species:S:1:pos:R:3:velocities:R:3:Z:I:1
H        13.16550203       6.59343310       9.96292511         0.00000000       0.00000000       0.00000000          1
H        12.75572208       9.77761190       7.66039981         0.00000000       0.00000000       0.00000000          1
H        13.50547450       7.11946313       7.24042897         0.00000000       0.00000000       0.00000000          1
H        11.07294251       7.70499662       8.48309507         0.00000000       0.00000000       0.00000000          1
H        12.41574840       9.25158052      10.38289877         0.00000000       0.00000000       0.00000000          1
H        14.84827766       8.66604720       9.14022976         0.00000000       0.00000000       0.00000000          1
6
pbc=[F, F, F] list_num_par=6 frozen=false iter=20000 energy=-1.26974174 Lattice="15.00000000 0.00000000 0.00000000 0.00000000 15.00000000 0.00000000 0.00000000 0.00000000 15.00000000" energy_frozen_part=0.00000000 Properties=species:S:1:pos:R:3:velocities:R:3:Z:I:1
H        13.16552274       6.59342991       9.96294103         0.00000000       0.00000000       0.00000000          1
H        12.75566891       9.77759252       7.66040844         0.00000000       0.00000000       0.00000000          1
H        13.50549827       7.11946541       7.24044320         0.00000000       0.00000000       0.00000000          1
H        11.07294493       7.70493592       8.48309562         0.00000000       0.00000000       0.00000000          1
H        12.41568910       9.25155883      10.38290851         0.00000000       0.00000000       0.00000000          1
H        14.84824950       8.66608628       9.14025315         0.00000000       0.00000000       0.00000000          1
6
pbc=[F, F, F] list_num_par=6 frozen=false iter=20000 energy=-1.26974174 Lattice="15.00000000 0.00000000 0.00000000 0.00000000 15.00000000 0.00000000 0.00000000 0.00000000 15.00000000" energy_frozen_part=0.00000000 Properties=species:S:1:pos:R:3:velocities:R:3:Z:I:1
H        13.16550408       6.59342445       9.96297749         0.00000000       0.00000000       0.00000000          1
H        12.75570959       9.77759799       7.66043817         0.00000000       0.00000000       0.00000000          1
H        13.50547600       7.11944935       7.24047136         0.00000000       0.00000000       0.00000000          1
H        11.07294509       7.70497972       8.48314191         0.00000000       0.00000000       0.00000000          1
H        12.41574608       9.25157781      10.38293888         0.00000000       0.00000000       0.00000000          1
H        14.84827164       8.66603917       9.14026630         0.00000000       0.00000000       0.00000000          1
6
pbc=[F, F, F] list_num_par=6 frozen=false iter=20000 energy=-1.26974174 Lattice="15.00000000 0.00000000 0.00000000 0.00000000 15.00000000 0.00000000 0.00000000 0.00000000 15.00000000" energy_frozen_part=0.00000000 Properties=species:S:1:pos:R:3:velocities:R:3:Z:I:1
H        13.17392843       6.61569185       9.96396661         0.00000000       0.00000000       0.00000000          1
H        12.74652393       9.77612967       7.63212358         0.00000000       0.00000000       0.00000000          1
H        13.50200000       7.11605693       7.23517890         0.00000000       0.00000000       0.00000000          1
H        11.07264712       7.70706629       8.48147069         0.00000000       0.00000000       0.00000000          1
H        12.41845767       9.27576251      10.36091186         0.00000000       0.00000000       0.00000000          1
H        14.84781213       8.68474889       9.11461087         0.00000000       0.00000000       0.00000000          1
6
pbc=[F, F, F] list_num_par=6 frozen=false iter=20000 energy=-1.26974174 Lattice="15.00000000 0.00000000 0.00000000 0.00000000 15.00000000 0.00000000 0.00000000 0.00000000 15.00000000" energy_frozen_part=0.00000000 Properties=species:S:1:pos:R:3:velocities:R:3:Z:I:1
H        13.30413199       6.86153975      10.24394086         0.00000000       0.00000000       0.00000000          1
H        11.43212434       9.06072446       7.54805467         0.00000000       0.00000000       0.00000000          1
H        13.21299964       6.91047440       7.45223983         0.00000000       0.00000000       0.00000000          1
H        10.84752734       6.70051417       8.92353606         0.00000000       0.00000000       0.00000000          1
H        11.52325762       9.01178996      10.33975400         0.00000000       0.00000000       0.00000000          1
H        13.88873205       9.22174913       8.86845227         0.00000000       0.00000000       0.00000000          1
6
pbc=[F, F, F] list_num_par=6 frozen=false iter=20000 energy=-1.26974174 Lattice="15.00000000 0.00000000 0.00000000 0.00000000 15.00000000 0.00000000 0.00000000 0.00000000 15.00000000" energy_frozen_part=0.00000000 Properties=species:S:1:pos:R:3:velocities:R:3:Z:I:1
H        13.16549158       6.59346159       9.96296743         0.00000000       0.00000000       0.00000000          1
H        12.75567589       9.77757474       7.66034591         0.00000000       0.00000000       0.00000000          1
H        13.50545455       7.11941799       7.24045280         0.00000000       0.00000000       0.00000000          1
H        11.07292032       7.70497099       8.48310702         0.00000000       0.00000000       0.00000000          1
H        12.41570242       9.25162515      10.38286035         0.00000000       0.00000000       0.00000000          1
H        14.84824151       8.66607169       9.14021533         0.00000000       0.00000000       0.00000000          1
6
pbc=[F, F, F] list_num_par=6 frozen=false iter=20000 energy=-1.26974174 Lattice="15.00000000 0.00000000 0.00000000 0.00000000 15.00000000 0.00000000 0.00000000 0.00000000 15.00000000" energy_frozen_part=0.00000000 Properties=species:S:1:pos:R:3:velocities:R:3:Z:I:1
H        13.16523772       6.59353530       9.96296362         0.00000000       0.00000000       0.00000000          1
H        12.75526349       9.77781926       7.66060079         0.00000000       0.00000000       0.00000000          1
H        13.50469451       7.11960528       7.24040608         0.00000000       0.00000000       0.00000000          1
H        11.07247682       7.70533205       8.48358962         0.00000000       0.00000000       0.00000000          1
H        12.41581088       9.25174330      10.38315606         0.00000000       0.00000000       0.00000000          1
H        14.84802554       8.66601842       9.13997288         0.00000000       0.00000000       0.00000000          1
6
pbc=[F, F, F] list_num_par=6 frozen=false iter=20000 energy=-1.26974174 Lattice="15.00000000 0.00000000 0.00000000 0.00000000 15.00000000 0.00000000 0.00000000 0.00000000 15.00000000" energy_frozen_part=0.00000000 Properties=species:S:1:pos:R:3:velocities:R:3:Z:I:1
H        13.30413605       6.86146180      10.24380332         0.00000000       0.00000000       0.00000000          1
H        11.43224148       9.06066985       7.54786273         0.00000000       0.00000000       0.00000000          1
H        13.21300792       6.91032865       7.45210313         0.00000000       0.00000000       0.00000000          1
H        10.84752256       6.70052926       8.92340999         0.00000000       0.00000000       0.00000000          1
H        11.52337426       9.01180981      10.33956525         0.00000000       0.00000000       0.00000000          1
H        13.88886157       9.22160488       8.86825433         0.00000000       0.00000000       0.00000000          1
6
pbc=[F, F, F] list_num_par=6 frozen=false iter=20000 energy=-1.26974174 Lattice="15.00000000 0.00000000 0.00000000 0.00000000 15.00000000 0.00000000 0.00000000 0.00000000 15.00000000" energy_frozen_part=0.00000000 Properties=species:S:1:pos:R:3:velocities:R:3:Z:I:1
H        13.16544513       6.59346671       9.96300639         0.00000000       0.00000000       0.00000000          1
H        12.75570411       9.77757735       7.66037205         0.00000000       0.00000000       0.00000000          1
H        13.50545270       7.11940352       7.24049354         0.00000000       0.00000000       0.00000000          1
H        11.07290982       7.70499319       8.48310737         0.00000000       0.00000000       0.00000000          1
H        12.41568670       9.25163589      10.38287861         0.00000000       0.00000000       0.00000000          1
H        14.84823842       8.66604858       9.14026294         0.00000000       0.00000000       0.00000000          1
6
pbc=[F, F, F] list_num_par=6 frozen=false iter=20000 energy=-1.26974174 Lattice="15.00000000 0.00000000 0.00000000 0.00000000 15.00000000 0.00000000 0.00000000 0.00000000 15.00000000" energy_frozen_part=0.00000000 Properties=species:S:1:pos:R:3:velocities:R:3:Z:I:1
H        13.30413980       6.86154226      10.24391876         0.00000000       0.00000000       0.00000000          1
H        11.43207486       9.06071833       7.54807516         0.00000000       0.00000000       0.00000000          1
H        13.21297921       6.91049048       7.45221529         0.00000000       0.00000000       0.00000000          1
H        10.84752552       6.70049856       8.92354423         0.00000000       0.00000000       0.00000000          1
H        11.52323907       9.01177704      10.33977445         0.00000000       0.00000000       0.00000000          1
H        13.88869257       9.22176690       8.86844271         0.00000000       0.00000000       0.00000000          1
6
pbc=[F, F, F] list_num_par=6 frozen=false iter=20000 energy=-1.26974174 Lattice="15.00000000 0.00000000 0.00000000 0.00000000 15.00000000 0.00000000 0.00000000 0.00000000 15.00000000" energy_frozen_part=0.00000000 Properties=species:S:1:pos:R:3:velocities:R:3:Z:I:1
H        13.17406762       6.61587754       9.96396425         0.00000000       0.00000000       0.00000000          1
H        12.74679696       9.77611515       7.63182378         0.00000000       0.00000000       0.00000000          1
H        13.50222928       7.11599611       7.23514113         0.00000000       0.00000000       0.00000000          1
H        11.07285260       7.70716067       8.48131203         0.00000000       0.00000000       0.00000000          1
H        12.41863061       9.27600286      10.36064466         0.00000000       0.00000000       0.00000000          1
H        14.84801441       8.68483131       9.11447805         0.00000000       0.00000000       0.00000000          1
6
pbc=[F, F, F] list_num_par=6 frozen=false iter=20000 energy=-1.26974174 Lattice="15.00000000 0.00000000 0.00000000 0.00000000 15.00000000 0.00000000 0.00000000 0.00000000 15.00000000" energy_frozen_part=0.00000000 Properties=species:S:1:pos:R:3:velocities:R:3:Z:I:1
H        13.16548430       6.59346940       9.96297587         0.00000000       0.00000000       0.00000000          1
H        12.75565864       9.77757753       7.66036151         0.00000000       0.00000000       0.00000000          1
H        13.50544641       7.11941835       7.24046627         0.00000000       0.00000000       0.00000000          1
H        11.07291049       7.70497446       8.48312315         0.00000000       0.00000000       0.00000000          1
H        12.41570114       9.25162632      10.38287605         0.00000000       0.00000000       0.00000000          1
H        14.84823768       8.66607797       9.14021445         0.00000000       0.00000000       0.00000000          1
6
pbc=[F, F, F] list_num_par=6 frozen=false iter=20000 energy=-1.26974174 Lattice="15.00000000 0.00000000 0.00000000 0.00000000 15.00000000 0.00000000 0.00000000 0.00000000 15.00000000" energy_frozen_part=0.00000000 Properties=species:S:1:pos:R:3:velocities:R:3:Z:I:1
H        13.30416652       6.86144018      10.24380453         0.00000000       0.00000000       0.00000000          1
H        11.43229662       9.06063616       7.54784040         0.00000000       0.00000000       0.00000000          1
H        13.21310392       6.91032878       7.45210313         0.00000000       0.00000000       0.00000000          1
H        10.84758686       6.70046763       8.92335192         0.00000000       0.00000000       0.00000000          1
H        11.52335551       9.01174900      10.33954594         0.00000000       0.00000000       0.00000000          1
H        13.88887145       9.22160877       8.86830498         0.00000000       0.00000000       0.00000000          1
6
pbc=[F, F, F] list_num_par=6 frozen=false iter=20000 energy=-1.26974174 Lattice="15.00000000 0.00000000 0.00000000 0.00000000 15.00000000 0.00000000 0.00000000 0.00000000 15.00000000" energy_frozen_part=0.00000000 Properties=species:S:1:pos:R:3:velocities:R:3:Z:I:1
H        13.30418572       6.86143533      10.24379722         0.00000000       0.00000000       0.00000000          1
H        11.43229504       9.06066780       7.54787149         0.00000000       0.00000000       0.00000000          1
H        13.21310499       6.91035248       7.45210061         0.00000000       0.00000000       0.00000000          1
H        10.84759834       6.70048170       8.92335903         0.00000000       0.00000000       0.00000000          1
H        11.52337625       9.01174713      10.33957114         0.00000000       0.00000000       0.00000000          1
H        13.88888206       9.22161848       8.86831125         0.00000000       0.00000000       0.00000000          1
6
pbc=[F, F, F] list_num_par=6 frozen=false iter=20000 energy=-1.26974174 Lattice="15.00000000 0.00000000 0.00000000 0.00000000 15.00000000 0.00000000 0.00000000 0.00000000 15.00000000" energy_frozen_part=0.00000000 Properties=species:S:1:pos:R:3:velocities:R:3:Z:I:1
H        13.16546695       6.59344665       9.96298514         0.00000000       0.00000000       0.00000000          1
H        12.75574944       9.77761984       7.66043954         0.00000000       0.00000000       0.00000000          1
H        13.50549608       7.11945460       7.24049284         0.00000000       0.00000000       0.00000000          1
H        11.07294410       7.70502376       8.48311138         0.00000000       0.00000000       0.00000000          1
H        12.41572276       9.25160486      10.38292878         0.00000000       0.00000000       0.00000000          1
H        14.84827491       8.66604416       9.14030882         0.00000000       0.00000000       0.00000000          1
6
pbc=[F, F, F] list_num_par=6 frozen=false iter=20000 energy=-1.26974174 Lattice="15.00000000 0.00000000 0.00000000 0.00000000 15.00000000 0.00000000 0.00000000 0.00000000 15.00000000" energy_frozen_part=0.00000000 Properties=species:S:1:pos:R:3:velocities:R:3:Z:I:1
H        13.17402521       6.61575396       9.96385374         0.00000000       0.00000000       0.00000000          1
H        12.74688439       9.77623915       7.63201325         0.00000000       0.00000000       0.00000000          1
H        13.50230892       7.11614919       7.23509179         0.00000000       0.00000000       0.00000000          1
H        11.07288522       7.70721304       8.48122137         0.00000000       0.00000000       0.00000000          1
H        12.41860812       9.27583954      10.36077368         0.00000000       0.00000000       0.00000000          1
H        14.84802523       8.68477847       9.11464593         0.00000000       0.00000000       0.00000000          1
6
pbc=[F, F, F] list_num_par=6 frozen=false iter=20000 energy=-1.26974174 Lattice="15.00000000 0.00000000 0.00000000 0.00000000 15.00000000 0.00000000 0.00000000 0.00000000 15.00000000" energy_frozen_part=0.00000000 Properties=species:S:1:pos:R:3:velocities:R:3:Z:I:1
H        13.30410070       6.86145091      10.24385602         0.00000000       0.00000000       0.00000000          1
H        11.43229909       9.06065732       7.54785163         0.00000000       0.00000000       0.00000000          1
H        13.21305299       6.91030403       7.45214804         0.00000000       0.00000000       0.00000000          1
H        10.84752395       6.70052474       8.92339447         0.00000000       0.00000000       0.00000000          1
H        11.52334630       9.01181242      10.33955341         0.00000000       0.00000000       0.00000000          1
H        13.88887802       9.22158013       8.86831256         0.00000000       0.00000000       0.00000000          1
6
pbc=[F, F, F] list_num_par=6 frozen=false iter=20000 energy=-1.26974174 Lattice="15.00000000 0.00000000 0.00000000 0.00000000 15.00000000 0.00000000 0.00000000 0.00000000 15.00000000" energy_frozen_part=0.00000000 Properties=species:S:1:pos:R:3:velocities:R:3:Z:I:1
H        13.30409940       6.86144864      10.24386315         0.00000000       0.00000000       0.00000000          1
H        11.43230824       9.06066766       7.54786038         0.00000000       0.00000000       0.00000000          1
H        13.21305271       6.91030127       7.45215498         0.00000000       0.00000000       0.00000000          1
H        10.84752567       6.70053421       8.92339196         0.00000000       0.00000000       0.00000000          1
H        11.52335041       9.01181264      10.33956071         0.00000000       0.00000000       0.00000000          1
H        13.88887887       9.22157854       8.86832320         0.00000000       0.00000000       0.00000000          1
6
pbc=[F, F, F] list_num_par=6 frozen=false iter=20000 energy=-1.26974174 Lattice="15.00000000 0.00000000 0.00000000 0.00000000 15.00000000 0.00000000 0.00000000 0.00000000 15.00000000" energy_frozen_part=0.00000000 Properties=species:S:1:pos:R:3:velocities:R:3:Z:I:1
H        13.30414382       6.86153793      10.24390943         0.00000000       0.00000000       0.00000000          1
H        11.43209458       9.06071808       7.54805916         0.00000000       0.00000000       0.00000000          1
H        13.21298686       6.91048184       7.45220885         0.00000000       0.00000000       0.00000000          1
H        10.84753274       6.70049900       8.92353668         0.00000000       0.00000000       0.00000000          1
H        11.52324658       9.01177408      10.33976054         0.00000000       0.00000000       0.00000000          1
H        13.88871228       9.22175541       8.86843556         0.00000000       0.00000000       0.00000000          1
6
pbc=[F, F, F] list_num_par=6 frozen=false iter=20000 energy=-1.26974174 Lattice="15.00000000 0.00000000 0.00000000 0.00000000 15.00000000 0.00000000 0.00000000 0.00000000 15.00000000" energy_frozen_part=0.00000000 Properties=species:S:1:pos:R:3:velocities:R:3:Z:I:1
H        13.17401514       6.61575354       9.96386149         0.00000000       0.00000000       0.00000000          1
H        12.74690283       9.77624689       7.63202920         0.00000000       0.00000000       0.00000000          1
H        13.50230571       7.11615390       7.23509884         0.00000000       0.00000000       0.00000000          1
H        11.07288573       7.70723626       8.48123178         0.00000000       0.00000000       0.00000000          1
H        12.41862014       9.27584696      10.36078882         0.00000000       0.00000000       0.00000000          1
H        14.84803417       8.68476314       9.11466243         0.00000000       0.00000000       0.00000000          1
6
pbc=[F, F, F] list_num_par=6 frozen=false iter=20000 energy=-1.26974174 Lattice="15.00000000 0.00000000 0.00000000 0.00000000 15.00000000 0.00000000 0.00000000 0.00000000 15.00000000" energy_frozen_part=0.00000000 Properties=species:S:1:pos:R:3:velocities:R:3:Z:I:1
H        13.16521264       6.59351990       9.96293004         0.00000000       0.00000000       0.00000000          1
H        12.75528552       9.77782376       7.66059612         0.00000000       0.00000000       0.00000000          1
H        13.50470120       7.11960929       7.24038373         0.00000000       0.00000000       0.00000000          1
H        11.07247030       7.70535040       8.48355543         0.00000000       0.00000000       0.00000000          1
H        12.41579620       9.25173094      10.38314423         0.00000000       0.00000000       0.00000000          1
H        14.84802650       8.66600090       9.13997421         0.00000000       0.00000000       0.00000000          1
6
pbc=[F, F, F] list_num_par=6 frozen=false iter=20000 energy=-1.26974174 Lattice="15.00000000 0.00000000 0.00000000 0.00000000 15.00000000 0.00000000 0.00000000 0.00000000 15.00000000" energy_frozen_part=0.00000000 Properties=species:S:1:pos:R:3:velocities:R:3:Z:I:1
H        13.16523361       6.59353237       9.96296079         0.00000000       0.00000000       0.00000000          1
H        12.75526259       9.77781630       7.66061432         0.00000000       0.00000000       0.00000000          1
H        13.50469105       7.11960776       7.24040883         0.00000000       0.00000000       0.00000000          1
H        11.07247403       7.70533031       8.48359383         0.00000000       0.00000000       0.00000000          1
H        12.41580336       9.25174273      10.38316306         0.00000000       0.00000000       0.00000000          1
H        14.84802623       8.66601996       9.13997713         0.00000000       0.00000000       0.00000000          1
6
pbc=[F, F, F] list_num_par=6 frozen=false iter=20000 energy=-1.26974174 Lattice="15.00000000 0.00000000 0.00000000 0.00000000 15.00000000 0.00000000 0.00000000 0.00000000 15.00000000" energy_frozen_part=0.00000000 Properties=species:S:1:pos:R:3:velocities:R:3:Z:I:1
H        13.30418572       6.86144779      10.24379848         0.00000000       0.00000000       0.00000000          1
H        11.43229480       9.06065691       7.54785942         0.00000000       0.00000000       0.00000000          1
H        13.21310491       6.91034501       7.45210126         0.00000000       0.00000000       0.00000000          1
H        10.84759572       6.70048711       8.92336707         0.00000000       0.00000000       0.00000000          1
H        11.52337932       9.01175986      10.33955894         0.00000000       0.00000000       0.00000000          1
H        13.88888174       9.22161816       8.86829889         0.00000000       0.00000000       0.00000000          1
6
pbc=[F, F, F] list_num_par=6 frozen=false iter=20000 energy=-1.26974174 Lattice="15.00000000 0.00000000 0.00000000 0.00000000 15.00000000 0.00000000 0.00000000 0.00000000 15.00000000" energy_frozen_part=0.00000000 Properties=species:S:1:pos:R:3:velocities:R:3:Z:I:1
H        13.16522505       6.59351890       9.96292727         0.00000000       0.00000000       0.00000000          1
H        12.75528149       9.77781900       7.66058571         0.00000000       0.00000000       0.00000000          1
H        13.50471104       7.11961037       7.24038338         0.00000000       0.00000000       0.00000000          1
H        11.07247912       7.70532916       8.48354584         0.00000000       0.00000000       0.00000000          1
H        12.41578537       9.25172451      10.38313642         0.00000000       0.00000000       0.00000000          1
H        14.84802393       8.66600857       9.13997339         0.00000000       0.00000000       0.00000000          1
6
pbc=[F, F, F] list_num_par=6 frozen=false iter=20000 energy=-1.26974174 Lattice="15.00000000 0.00000000 0.00000000 0.00000000 15.00000000 0.00000000 0.00000000 0.00000000 15.00000000" energy_frozen_part=0.00000000 Properties=species:S:1:pos:R:3:velocities:R:3:Z:I:1
H        13.30413446       6.86153259      10.24392539         0.00000000       0.00000000       0.00000000          1
H        11.43209001       9.06070222       7.54805620         0.00000000       0.00000000       0.00000000          1
H        13.21298700       6.91047058       7.45222643         0.00000000       0.00000000       0.00000000          1
H        10.84752541       6.70048979       8.92353599         0.00000000       0.00000000       0.00000000          1
H        11.52323824       9.01176678      10.33975805         0.00000000       0.00000000       0.00000000          1
H        13.88870233       9.22175020       8.86843969         0.00000000       0.00000000       0.00000000          1
6
pbc=[F, F, F] list_num_par=6 frozen=false iter=20000 energy=-1.26974174 Lattice="15.00000000 0.00000000 0.00000000 0.00000000 15.00000000 0.00000000 0.00000000 0.00000000 15.00000000" energy_frozen_part=0.00000000 Properties=species:S:1:pos:R:3:velocities:R:3:Z:I:1
H        13.16552482       6.59343089       9.96293255         0.00000000       0.00000000       0.00000000          1
H        12.75568423       9.77760433       7.66041048         0.00000000       0.00000000       0.00000000          1
H        13.50550819       7.11946830       7.24044168         0.00000000       0.00000000       0.00000000          1
H        11.07295170       7.70494867       8.48308578         0.00000000       0.00000000       0.00000000          1
H        12.41570107       9.25156572      10.38290386         0.00000000       0.00000000       0.00000000          1
H        14.84825757       8.66608483       9.14026229         0.00000000       0.00000000       0.00000000          1
6
pbc=[F, F, F] list_num_par=6 frozen=false iter=20000 energy=-1.26974174 Lattice="15.00000000 0.00000000 0.00000000 0.00000000 15.00000000 0.00000000 0.00000000 0.00000000 15.00000000" energy_frozen_part=0.00000000 Properties=species:S:1:pos:R:3:velocities:R:3:Z:I:1
H        13.30417473       6.86144984      10.24379765         0.00000000       0.00000000       0.00000000          1
H        11.43228410       9.06066425       7.54785538         0.00000000       0.00000000       0.00000000          1
H        13.21308547       6.91034564       7.45209562         0.00000000       0.00000000       0.00000000          1
H        10.84758375       6.70050333       8.92336708         0.00000000       0.00000000       0.00000000          1
H        11.52337335       9.01177479      10.33955963         0.00000000       0.00000000       0.00000000          1
H        13.88887484       9.22161891       8.86828548         0.00000000       0.00000000       0.00000000          1
6
pbc=[F, F, F] list_num_par=6 frozen=false iter=20000 energy=-1.26974174 Lattice="15.00000000 0.00000000 0.00000000 0.00000000 15.00000000 0.00000000 0.00000000 0.00000000 15.00000000" energy_frozen_part=0.00000000 Properties=species:S:1:pos:R:3:velocities:R:3:Z:I:1
H        13.16546730       6.59344903       9.96293240         0.00000000       0.00000000       0.00000000          1
H        12.75569491       9.77761411       7.66039164         0.00000000       0.00000000       0.00000000          1
H        13.50545158       7.11946295       7.24042992         0.00000000       0.00000000       0.00000000          1
H        11.07291413       7.70501084       8.48308975         0.00000000       0.00000000       0.00000000          1
H        12.41571394       9.25160265      10.38289186         0.00000000       0.00000000       0.00000000          1
H        14.84824500       8.66605146       9.14023561         0.00000000       0.00000000       0.00000000          1
6
pbc=[F, F, F] list_num_par=6 frozen=false iter=20000 energy=-1.26974174 Lattice="15.00000000 0.00000000 0.00000000 0.00000000 15.00000000 0.00000000 0.00000000 0.00000000 15.00000000" energy_frozen_part=0.00000000 Properties=species:S:1:pos:R:3:velocities:R:3:Z:I:1
H        13.30418452       6.86144915      10.24380676         0.00000000       0.00000000       0.00000000          1
H        11.43229727       9.06066331       7.54786254         0.00000000       0.00000000       0.00000000          1
H        13.21310652       6.91035213       7.45210245         0.00000000       0.00000000       0.00000000          1
H        10.84759422       6.70049114       8.92336603         0.00000000       0.00000000       0.00000000          1
H        11.52338064       9.01176074      10.33956753         0.00000000       0.00000000       0.00000000          1
H        13.88888310       9.22162151       8.86830374         0.00000000       0.00000000       0.00000000          1
6
pbc=[F, F, F] list_num_par=6 frozen=false iter=20000 energy=-1.26974174 Lattice="15.00000000 0.00000000 0.00000000 0.00000000 15.00000000 0.00000000 0.00000000 0.00000000 15.00000000" energy_frozen_part=0.00000000 Properties=species:S:1:pos:R:3:velocities:R:3:Z:I:1
H        13.30412727       6.86152121      10.24391834         0.00000000       0.00000000       0.00000000          1
H        11.43210309       9.06072126       7.54806239         0.00000000       0.00000000       0.00000000          1
H        13.21294259       6.91044128       7.45221597         0.00000000       0.00000000       0.00000000          1
H        10.84749425       6.70052773       8.92356257         0.00000000       0.00000000       0.00000000          1
H        11.52328178       9.01180175      10.33976116         0.00000000       0.00000000       0.00000000          1
H        13.88872937       9.22171193       8.86841163         0.00000000       0.00000000       0.00000000          1
6
pbc=[F, F, F] list_num_par=6 frozen=false iter=20000 energy=-1.26974174 Lattice="15.00000000 0.00000000 0.00000000 0.00000000 15.00000000 0.00000000 0.00000000 0.00000000 15.00000000" energy_frozen_part=0.00000000 Properties=species:S:1:pos:R:3:velocities:R:3:Z:I:1
H        13.17403116       6.61575058       9.96387094         0.00000000       0.00000000       0.00000000          1
H        12.74689135       9.77624011       7.63203675         0.00000000       0.00000000       0.00000000          1
H        13.50230981       7.11615502       7.23511050         0.00000000       0.00000000       0.00000000          1
H        11.07288755       7.70721902       8.48124369         0.00000000       0.00000000       0.00000000          1
H        12.41861536       9.27584113      10.36079702         0.00000000       0.00000000       0.00000000          1
H        14.84803245       8.68477213       9.11466274         0.00000000       0.00000000       0.00000000          1
6
pbc=[F, F, F] list_num_par=6 frozen=false iter=20000 energy=-1.26974174 Lattice="15.00000000 0.00000000 0.00000000 0.00000000 15.00000000 0.00000000 0.00000000 0.00000000 15.00000000" energy_frozen_part=0.00000000 Properties=species:S:1:pos:R:3:velocities:R:3:Z:I:1
H        13.30414406       6.86153749      10.24391354         0.00000000       0.00000000       0.00000000          1
H        11.43208945       9.06071643       7.54805975         0.00000000       0.00000000       0.00000000          1
H        13.21298988       6.91048519       7.45221046         0.00000000       0.00000000       0.00000000          1
H        10.84752927       6.70049386       8.92352807         0.00000000       0.00000000       0.00000000          1
H        11.52323988       9.01176452      10.33976313         0.00000000       0.00000000       0.00000000          1
H        13.88870335       9.22176142       8.86844157         0.00000000       0.00000000       0.00000000          1
6
pbc=[F, F, F] list_num_par=6 frozen=false iter=20000 energy=-1.26974174 Lattice="15.00000000 0.00000000 0.00000000 0.00000000 15.00000000 0.00000000 0.00000000 0.00000000 15.00000000" energy_frozen_part=0.00000000 Properties=species:S:1:pos:R:3:velocities:R:3:Z:I:1
H        13.16546895       6.59346416       9.96294317         0.00000000       0.00000000       0.00000000          1
H        12.75569804       9.77759384       7.66034440         0.00000000       0.00000000       0.00000000          1
H        13.50544149       7.11942832       7.24043443         0.00000000       0.00000000       0.00000000          1
H        11.07291548       7.70500301       8.48309288         0.00000000       0.00000000       0.00000000          1
H        12.41572313       9.25162621      10.38285304         0.00000000       0.00000000       0.00000000          1
H        14.84825057       8.66604644       9.14019800         0.00000000       0.00000000       0.00000000          1
6
pbc=[F, F, F] list_num_par=6 frozen=false iter=20000 energy=-1.26974174 Lattice="15.00000000 0.00000000 0.00000000 0.00000000 15.00000000 0.00000000 0.00000000 0.00000000 15.00000000" energy_frozen_part=0.00000000 Properties=species:S:1:pos:R:3:velocities:R:3:Z:I:1
H        13.16546460       6.59345830       9.96295216         0.00000000       0.00000000       0.00000000          1
H        12.75569815       9.77758531       7.66034404         0.00000000       0.00000000       0.00000000          1
H        13.50544129       7.11941714       7.24043763         0.00000000       0.00000000       0.00000000          1
H        11.07290858       7.70499921       8.48308600         0.00000000       0.00000000       0.00000000          1
H        12.41571393       9.25162095      10.38285271         0.00000000       0.00000000       0.00000000          1
H        14.84824951       8.66604461       9.14020577         0.00000000       0.00000000       0.00000000          1
6
pbc=[F, F, F] list_num_par=6 frozen=false iter=20000 energy=-1.26974174 Lattice="15.00000000 0.00000000 0.00000000 0.00000000 15.00000000 0.00000000 0.00000000 0.00000000 15.00000000" energy_frozen_part=0.00000000 Properties=species:S:1:pos:R:3:velocities:R:3:Z:I:1
H        13.16547079       6.59345319       9.96293913         0.00000000       0.00000000       0.00000000          1
H        12.75569055       9.77761843       7.66038653         0.00000000       0.00000000       0.00000000          1
H        13.50544678       7.11945621       7.24043990         0.00000000       0.00000000       0.00000000          1
H        11.07291393       7.70500629       8.48309141         0.00000000       0.00000000       0.00000000          1
H        12.41570923       9.25160717      10.38288838         0.00000000       0.00000000       0.00000000          1
H        14.84824265       8.66605844       9.14022858         0.00000000       0.00000000       0.00000000          1
6
pbc=[F, F, F] list_num_par=6 frozen=false iter=20000 energy=-1.26974174 Lattice="15.00000000 0.00000000 0.00000000 0.00000000 15.00000000 0.00000000 0.00000000 0.00000000 15.00000000" energy_frozen_part=0.00000000 Properties=species:S:1:pos:R:3:velocities:R:3:Z:I:1
H        13.16544309       6.59345185       9.96296515         0.00000000       0.00000000       0.00000000          1
H        12.75565104       9.77755050       7.66032590         0.00000000       0.00000000       0.00000000          1
H        13.50543392       7.11938833       7.24045495         0.00000000       0.00000000       0.00000000          1
H        11.07288559       7.70495386       8.48308261         0.00000000       0.00000000       0.00000000          1
H        12.41565431       9.25161724      10.38283799         0.00000000       0.00000000       0.00000000          1
H        14.84820182       8.66605270       9.14021430         0.00000000       0.00000000       0.00000000          1
6
pbc=[F, F, F] list_num_par=6 frozen=false iter=20000 energy=-1.26974174 Lattice="15.00000000 0.00000000 0.00000000 0.00000000 15.00000000 0.00000000 0.00000000 0.00000000 15.00000000" energy_frozen_part=0.00000000 Properties=species:S:1:pos:R:3:velocities:R:3:Z:I:1
H        13.16548030       6.59342690       9.96298949         0.00000000       0.00000000       0.00000000          1
H        12.75573086       9.77758990       7.66043373         0.00000000       0.00000000       0.00000000          1
H        13.50547143       7.11943325       7.24048749         0.00000000       0.00000000       0.00000000          1
H        11.07293936       7.70498985       8.48313249         0.00000000       0.00000000       0.00000000          1
H        12.41573295       9.25158599      10.38292940         0.00000000       0.00000000       0.00000000          1
H        14.84826985       8.66602623       9.14028846         0.00000000       0.00000000       0.00000000          1
6
pbc=[F, F, F] list_num_par=6 frozen=false iter=20000 energy=-1.26974174 Lattice="15.00000000 0.00000000 0.00000000 0.00000000 15.00000000 0.00000000 0.00000000 0.00000000 15.00000000" energy_frozen_part=0.00000000 Properties=species:S:1:pos:R:3:velocities:R:3:Z:I:1
H        13.30411281       6.86145764      10.24382708         0.00000000       0.00000000       0.00000000          1
H        11.43229053       9.06065211       7.54784474         0.00000000       0.00000000       0.00000000          1
H        13.21305306       6.91030785       7.45212344         0.00000000       0.00000000       0.00000000          1
H        10.84753357       6.70051637       8.92337749         0.00000000       0.00000000       0.00000000          1
H        11.52334274       9.01180050      10.33954625         0.00000000       0.00000000       0.00000000          1
H        13.88886820       9.22159083       8.86829237         0.00000000       0.00000000       0.00000000          1
6
pbc=[F, F, F] list_num_par=6 frozen=false iter=20000 energy=-1.26974174 Lattice="15.00000000 0.00000000 0.00000000 0.00000000 15.00000000 0.00000000 0.00000000 0.00000000 15.00000000" energy_frozen_part=0.00000000 Properties=species:S:1:pos:R:3:velocities:R:3:Z:I:1
H        13.17403696       6.61576001       9.96386057         0.00000000       0.00000000       0.00000000          1
H        12.74689008       9.77624071       7.63202793         0.00000000       0.00000000       0.00000000          1
H        13.50231659       7.11615321       7.23510344         0.00000000       0.00000000       0.00000000          1
H        11.07288948       7.70721539       8.48122483         0.00000000       0.00000000       0.00000000          1
H        12.41861139       9.27584503      10.36078396         0.00000000       0.00000000       0.00000000          1
H        14.84803678       8.68478329       9.11466355         0.00000000       0.00000000       0.00000000          1
6
pbc=[F, F, F] list_num_par=6 frozen=false iter=20000 energy=-1.26974174 Lattice="15.00000000 0.00000000 0.00000000 0.00000000 15.00000000 0.00000000 0.00000000 0.00000000 15.00000000" energy_frozen_part=0.00000000 Properties=species:S:1:pos:R:3:velocities:R:3:Z:I:1
H        13.16548318       6.59343397       9.96298744         0.00000000       0.00000000       0.00000000          1
H        12.75571772       9.77758678       7.66042233         0.00000000       0.00000000       0.00000000          1
H        13.50548279       7.11942982       7.24049012         0.00000000       0.00000000       0.00000000          1
H        11.07293607       7.70498285       8.48312596         0.00000000       0.00000000       0.00000000          1
H        12.41572184       9.25158949      10.38292654         0.00000000       0.00000000       0.00000000          1
H        14.84826682       8.66603398       9.14028459         0.00000000       0.00000000       0.00000000          1
6
pbc=[F, F, F] list_num_par=6 frozen=false iter=20000 energy=-1.26974174 Lattice="15.00000000 0.00000000 0.00000000 0.00000000 15.00000000 0.00000000 0.00000000 0.00000000 15.00000000" energy_frozen_part=0.00000000 Properties=species:S:1:pos:R:3:velocities:R:3:Z:I:1
H        13.17404671       6.61574992       9.96385437         0.00000000       0.00000000       0.00000000          1
H        12.74688841       9.77623053       7.63201122         0.00000000       0.00000000       0.00000000          1
H        13.50230274       7.11614322       7.23508751         0.00000000       0.00000000       0.00000000          1
H        11.07289483       7.70721246       8.48124193         0.00000000       0.00000000       0.00000000          1
H        12.41863403       9.27584479      10.36077446         0.00000000       0.00000000       0.00000000          1
H        14.84804229       8.68477144       9.11463162         0.00000000       0.00000000       0.00000000          1
6
pbc=[F, F, F] list_num_par=6 frozen=false iter=20000 energy=-1.26974174 Lattice="15.00000000 0.00000000 0.00000000 0.00000000 15.00000000 0.00000000 0.00000000 0.00000000 15.00000000" energy_frozen_part=0.00000000 Properties=species:S:1:pos:R:3:velocities:R:3:Z:I:1
H        13.16544453       6.59343370       9.96296391         0.00000000       0.00000000       0.00000000          1
H        12.75567168       9.77757076       7.66036856         0.00000000       0.00000000       0.00000000          1
H        13.50545915       7.11941733       7.24045787         0.00000000       0.00000000       0.00000000          1
H        11.07290015       7.70495145       8.48307509         0.00000000       0.00000000       0.00000000          1
H        12.41565120       9.25158490      10.38286601         0.00000000       0.00000000       0.00000000          1
H        14.84821325       8.66604737       9.14025483         0.00000000       0.00000000       0.00000000          1
6
pbc=[F, F, F] list_num_par=6 frozen=false iter=20000 energy=-1.26974174 Lattice="15.00000000 0.00000000 0.00000000 0.00000000 15.00000000 0.00000000 0.00000000 0.00000000 15.00000000" energy_frozen_part=0.00000000 Properties=species:S:1:pos:R:3:velocities:R:3:Z:I:1
H        13.16546087       6.59344897       9.96293354         0.00000000       0.00000000       0.00000000          1
H        12.75569192       9.77761453       7.66038263         0.00000000       0.00000000       0.00000000          1
H        13.50545266       7.11945943       7.24042828         0.00000000       0.00000000       0.00000000          1
H        11.07291509       7.70500165       8.48308163         0.00000000       0.00000000       0.00000000          1
H        12.41570480       9.25160275      10.38288370         0.00000000       0.00000000       0.00000000          1
H        14.84824313       8.66605265       9.14023084         0.00000000       0.00000000       0.00000000          1
6
pbc=[F, F, F] list_num_par=6 frozen=false iter=20000 energy=-1.26974174 Lattice="15.00000000 0.00000000 0.00000000 0.00000000 15.00000000 0.00000000 0.00000000 0.00000000 15.00000000" energy_frozen_part=0.00000000 Properties=species:S:1:pos:R:3:velocities:R:3:Z:I:1
H        13.16522977       6.59354341       9.96296979         0.00000000       0.00000000       0.00000000          1
H        12.75523690       9.77781782       7.66061031         0.00000000       0.00000000       0.00000000          1
H        13.50467385       7.11961086       7.24041615         0.00000000       0.00000000       0.00000000          1
H        11.07245749       7.70532920       8.48361016         0.00000000       0.00000000       0.00000000          1
H        12.41579999       9.25175208      10.38316178         0.00000000       0.00000000       0.00000000          1
H        14.84801664       8.66603080       9.13996631         0.00000000       0.00000000       0.00000000          1
6
pbc=[F, F, F] list_num_par=6 frozen=false iter=20000 energy=-1.26974174 Lattice="15.00000000 0.00000000 0.00000000 0.00000000 15.00000000 0.00000000 0.00000000 0.00000000 15.00000000" energy_frozen_part=0.00000000 Properties=species:S:1:pos:R:3:velocities:R:3:Z:I:1
H        13.16543526       6.59344181       9.96296813         0.00000000       0.00000000       0.00000000          1
H        12.75566562       9.77755058       7.66032933         0.00000000       0.00000000       0.00000000          1
H        13.50545228       7.11938921       7.24046010         0.00000000       0.00000000       0.00000000          1
H        11.07289491       7.70495079       8.48306490         0.00000000       0.00000000       0.00000000          1
H        12.41565087       9.25160929      10.38283771         0.00000000       0.00000000       0.00000000          1
H        14.84820721       8.66604263       9.14023017         0.00000000       0.00000000       0.00000000          1
6
pbc=[F, F, F] list_num_par=6 frozen=false iter=20000 energy=-1.26974174 Lattice="15.00000000 0.00000000 0.00000000 0.00000000 15.00000000 0.00000000 0.00000000 0.00000000 15.00000000" energy_frozen_part=0.00000000 Properties=species:S:1:pos:R:3:velocities:R:3:Z:I:1
H        13.30411732       6.86152999      10.24393570         0.00000000       0.00000000       0.00000000          1
H        11.43212399       9.06071804       7.54804668         0.00000000       0.00000000       0.00000000          1
H        13.21295619       6.91042952       7.45223475         0.00000000       0.00000000       0.00000000          1
H        10.84749082       6.70053905       8.92356534         0.00000000       0.00000000       0.00000000          1
H        11.52329218       9.01181844      10.33974676         0.00000000       0.00000000       0.00000000          1
H        13.88875089       9.22170931       8.86841410         0.00000000       0.00000000       0.00000000          1
6
pbc=[F, F, F] list_num_par=6 frozen=false iter=20000 energy=-1.26974174 Lattice="15.00000000 0.00000000 0.00000000 0.00000000 15.00000000 0.00000000 0.00000000 0.00000000 15.00000000" energy_frozen_part=0.00000000 Properties=species:S:1:pos:R:3:velocities:R:3:Z:I:1
H        13.16546909       6.59345303       9.96294215         0.00000000       0.00000000       0.00000000          1
H        12.75569398       9.77760726       7.66037263         0.00000000       0.00000000       0.00000000          1
H        13.50544270       7.11944595       7.24043455         0.00000000       0.00000000       0.00000000          1
H        11.07291402       7.70501014       8.48308958         0.00000000       0.00000000       0.00000000          1
H        12.41571205       9.25160761      10.38287780         0.00000000       0.00000000       0.00000000          1
H        14.84824360       8.66605212       9.14021923         0.00000000       0.00000000       0.00000000          1
6
pbc=[F, F, F] list_num_par=6 frozen=false iter=20000 energy=-1.26974174 Lattice="15.00000000 0.00000000 0.00000000 0.00000000 15.00000000 0.00000000 0.00000000 0.00000000 15.00000000" energy_frozen_part=0.00000000 Properties=species:S:1:pos:R:3:velocities:R:3:Z:I:1
H        13.16548238       6.59347604       9.96299266         0.00000000       0.00000000       0.00000000          1
H        12.75565802       9.77758338       7.66036515         0.00000000       0.00000000       0.00000000          1
H        13.50544899       7.11942971       7.24047946         0.00000000       0.00000000       0.00000000          1
H        11.07290822       7.70498027       8.48312889         0.00000000       0.00000000       0.00000000          1
H        12.41569266       9.25163231      10.38288308         0.00000000       0.00000000       0.00000000          1
H        14.84823105       8.66608471       9.14023056         0.00000000       0.00000000       0.00000000          1
6
pbc=[F, F, F] list_num_par=6 frozen=false iter=20000 energy=-1.26974174 Lattice="15.00000000 0.00000000 0.00000000 0.00000000 15.00000000 0.00000000 0.00000000 0.00000000 15.00000000" energy_frozen_part=0.00000000 Properties=species:S:1:pos:R:3:velocities:R:3:Z:I:1
H        13.16550075       6.59346734       9.96297134         0.00000000       0.00000000       0.00000000          1
H        12.75568828       9.77757496       7.66034642         0.00000000       0.00000000       0.00000000          1
H        13.50546235       7.11941320       7.24045554         0.00000000       0.00000000       0.00000000          1
H        11.07292889       7.70497228       8.48310773         0.00000000       0.00000000       0.00000000          1
H        12.41571742       9.25162759      10.38285933         0.00000000       0.00000000       0.00000000          1
H        14.84825736       8.66607233       9.14021094         0.00000000       0.00000000       0.00000000          1
6
pbc=[F, F, F] list_num_par=6 frozen=false iter=20000 energy=-1.26974174 Lattice="15.00000000 0.00000000 0.00000000 0.00000000 15.00000000 0.00000000 0.00000000 0.00000000 15.00000000" energy_frozen_part=0.00000000 Properties=species:S:1:pos:R:3:velocities:R:3:Z:I:1
H        13.30410874       6.86154368      10.24393027         0.00000000       0.00000000       0.00000000          1
H        11.43211234       9.06073292       7.54805040         0.00000000       0.00000000       0.00000000          1
H        13.21295779       6.91045135       7.45222769         0.00000000       0.00000000       0.00000000          1
H        10.84748952       6.70054316       8.92355363         0.00000000       0.00000000       0.00000000          1
H        11.52326178       9.01182064      10.33974672         0.00000000       0.00000000       0.00000000          1
H        13.88872936       9.22172927       8.86842929         0.00000000       0.00000000       0.00000000          1
6
pbc=[F, F, F] list_num_par=6 frozen=false iter=20000 energy=-1.26974174 Lattice="15.00000000 0.00000000 0.00000000 0.00000000 15.00000000 0.00000000 0.00000000 0.00000000 15.00000000" energy_frozen_part=0.00000000 Properties=species:S:1:pos:R:3:velocities:R:3:Z:I:1
H        13.30411139       6.86145690      10.24383397         0.00000000       0.00000000       0.00000000          1
H        11.43228669       9.06064961       7.54784040         0.00000000       0.00000000       0.00000000          1
H        13.21305004       6.91030565       7.45212854         0.00000000       0.00000000       0.00000000          1
H        10.84752894       6.70051649       8.92338474         0.00000000       0.00000000       0.00000000          1
H        11.52334496       9.01180455      10.33954563         0.00000000       0.00000000       0.00000000          1
H        13.88886753       9.22158883       8.86829779         0.00000000       0.00000000       0.00000000          1
6
pbc=[F, F, F] list_num_par=6 frozen=false iter=20000 energy=-1.26974174 Lattice="15.00000000 0.00000000 0.00000000 0.00000000 15.00000000 0.00000000 0.00000000 0.00000000 15.00000000" energy_frozen_part=0.00000000 Properties=species:S:1:pos:R:3:velocities:R:3:Z:I:1
H        13.16521192       6.59351990       9.96291650         0.00000000       0.00000000       0.00000000          1
H        12.75528573       9.77783317       7.66060062         0.00000000       0.00000000       0.00000000          1
H        13.50470621       7.11962553       7.24037068         0.00000000       0.00000000       0.00000000          1
H        11.07247668       7.70534587       8.48353827         0.00000000       0.00000000       0.00000000          1
H        12.41579603       9.25172874      10.38314422         0.00000000       0.00000000       0.00000000          1
H        14.84802730       8.66600240       9.13997278         0.00000000       0.00000000       0.00000000          1
6
pbc=[F, F, F] list_num_par=6 frozen=false iter=20000 energy=-1.26974174 Lattice="15.00000000 0.00000000 0.00000000 0.00000000 15.00000000 0.00000000 0.00000000 0.00000000 15.00000000" energy_frozen_part=0.00000000 Properties=species:S:1:pos:R:3:velocities:R:3:Z:I:1
H        13.16547523       6.59348441       9.96296900         0.00000000       0.00000000       0.00000000          1
H        12.75566921       9.77758874       7.66033337         0.00000000       0.00000000       0.00000000          1
H        13.50543257       7.11942360       7.24045265         0.00000000       0.00000000       0.00000000          1
H        11.07290535       7.70499675       8.48310883         0.00000000       0.00000000       0.00000000          1
H        12.41571999       9.25164859      10.38285278         0.00000000       0.00000000       0.00000000          1
H        14.84824096       8.66607380       9.14019069         0.00000000       0.00000000       0.00000000          1
6
pbc=[F, F, F] list_num_par=6 frozen=false iter=20000 energy=-1.26974174 Lattice="15.00000000 0.00000000 0.00000000 0.00000000 15.00000000 0.00000000 0.00000000 0.00000000 15.00000000" energy_frozen_part=0.00000000 Properties=species:S:1:pos:R:3:velocities:R:3:Z:I:1
H        13.30417467       6.86142917      10.24379749         0.00000000       0.00000000       0.00000000          1
H        11.43230104       9.06064559       7.54785373         0.00000000       0.00000000       0.00000000          1
H        13.21310193       6.91032617       7.45209414         0.00000000       0.00000000       0.00000000          1
H        10.84758955       6.70047669       8.92335284         0.00000000       0.00000000       0.00000000          1
H        11.52337421       9.01174315      10.33955853         0.00000000       0.00000000       0.00000000          1
H        13.88888547       9.22159928       8.86829614         0.00000000       0.00000000       0.00000000          1
6
pbc=[F, F, F] list_num_par=6 frozen=false iter=20000 energy=-1.26974174 Lattice="15.00000000 0.00000000 0.00000000 0.00000000 15.00000000 0.00000000 0.00000000 0.00000000 15.00000000" energy_frozen_part=0.00000000 Properties=species:S:1:pos:R:3:velocities:R:3:Z:I:1
H        13.16549364       6.59341997       9.96297042         0.00000000       0.00000000       0.00000000          1
H        12.75570809       9.77759613       7.66043265         0.00000000       0.00000000       0.00000000          1
H        13.50546973       7.11944305       7.24046510         0.00000000       0.00000000       0.00000000          1
H        11.07294118       7.70498598       8.48312919         0.00000000       0.00000000       0.00000000          1
H        12.41574116       9.25157129      10.38293326         0.00000000       0.00000000       0.00000000          1
H        14.84826935       8.66603088       9.14026113         0.00000000       0.00000000       0.00000000          1
