6
pbc=[F, F, F] list_num_par=6 frozen=false iter=20000 energy=-1.26974174 Lattice="15.00000000 0.00000000 0.00000000 0.00000000 15.00000000 0.00000000 0.00000000 0.00000000 15.00000000" energy_frozen_part=0.00000000 Properties=species:S:1:pos:R:3:velocities:R:3:Z:I:1
H         6.39951880       6.36870701       7.16791314         0.00000000       0.00000000       0.00000000          1
H         7.52158483       7.82219742       5.06252715         0.00000000       0.00000000       0.00000000          1
H         9.56042096       8.70292520       6.75715919         0.00000000       0.00000000       0.00000000          1
H         6.88717106       9.10361281       7.46248057         0.00000000       0.00000000       0.00000000          1
H         8.43835727       7.24943641       8.86253580         0.00000000       0.00000000       0.00000000          1
H         9.07277135       5.96802357       6.46258538         0.00000000       0.00000000       0.00000000          1
6
pbc=[F, F, F] list_num_par=6 frozen=false iter=20000 energy=-1.26974174 Lattice="15.00000000 0.00000000 0.00000000 0.00000000 15.00000000 0.00000000 0.00000000 0.00000000 15.00000000" energy_frozen_part=0.00000000 Properties=species:S:1:pos:R:3:velocities:R:3:Z:I:1
H         6.39953566       6.36870403       7.16789375         0.00000000       0.00000000       0.00000000          1
H         7.52160291       7.82220792       5.06252664         0.00000000       0.00000000       0.00000000          1
H         9.56042187       8.70293621       6.75716687         0.00000000       0.00000000       0.00000000          1
H         6.88717434       9.10360838       7.46249506         0.00000000       0.00000000       0.00000000          1
H         8.43836129       7.24942251       8.86253648         0.00000000       0.00000000       0.00000000          1
H         9.07278097       5.96802918       6.46257429         0.00000000       0.00000000       0.00000000          1
6
pbc=[F, F, F] list_num_par=6 frozen=false iter=20000 energy=-1.26974174 Lattice="15.00000000 0.00000000 0.00000000 0.00000000 15.00000000 0.00000000 0.00000000 0.00000000 15.00000000" energy_frozen_part=0.00000000 Properties=species:S:1:pos:R:3:velocities:R:3:Z:I:1
H         6.40177437       6.36788246       7.16817678         0.00000000       0.00000000       0.00000000          1
H         7.52341006       7.82218322       5.06313059         0.00000000       0.00000000       0.00000000          1
H         9.56189456       8.70325195       6.75799206         0.00000000       0.00000000       0.00000000          1
H         6.88848809       9.10289129       7.46332755         0.00000000       0.00000000       0.00000000          1
H         8.44026187       7.24894310       8.86303924         0.00000000       0.00000000       0.00000000          1
H         9.07518120       5.96824186       6.46283911         0.00000000       0.00000000       0.00000000          1
6
pbc=[F, F, F] list_num_par=6 frozen=false iter=20000 energy=-1.26974174 Lattice="15.00000000 0.00000000 0.00000000 0.00000000 15.00000000 0.00000000 0.00000000 0.00000000 15.00000000" energy_frozen_part=0.00000000 Properties=species:S:1:pos:R:3:velocities:R:3:Z:I:1
H         6.40090481       6.36842340       7.16873813         0.00000000       0.00000000       0.00000000          1
H         7.52362688       7.82050776       5.06274019         0.00000000       0.00000000       0.00000000          1
H         9.56222581       8.70194001       6.75728414         0.00000000       0.00000000       0.00000000          1
H         6.88889082       9.10342882       7.46180256         0.00000000       0.00000000       0.00000000          1
H         8.43950412       7.24986177       8.86327832         0.00000000       0.00000000       0.00000000          1
H         9.07424674       5.96693577       6.46422083         0.00000000       0.00000000       0.00000000          1
6
pbc=[F, F, F] list_num_par=6 frozen=false iter=20000 energy=-1.26974174 Lattice="15.00000000 0.00000000 0.00000000 0.00000000 15.00000000 0.00000000 0.00000000 0.00000000 15.00000000" energy_frozen_part=0.00000000 Properties=species:S:1:pos:R:3:velocities:R:3:Z:I:1
H         6.39936579       6.36876810       7.16754046         0.00000000       0.00000000       0.00000000          1
H         7.52155194       7.82247489       5.06238246         0.00000000       0.00000000       0.00000000          1
H         9.56033567       8.70297020       6.75718843         0.00000000       0.00000000       0.00000000          1
H         6.88706011       9.10363371       7.46244756         0.00000000       0.00000000       0.00000000          1
H         8.43813981       7.24926857       8.86235926         0.00000000       0.00000000       0.00000000          1
H         9.07263654       5.96810753       6.46229360         0.00000000       0.00000000       0.00000000          1
6
pbc=[F, F, F] list_num_par=6 frozen=false iter=20000 energy=-1.26974174 Lattice="15.00000000 0.00000000 0.00000000 0.00000000 15.00000000 0.00000000 0.00000000 0.00000000 15.00000000" energy_frozen_part=0.00000000 Properties=species:S:1:pos:R:3:velocities:R:3:Z:I:1
H         6.39949479       6.36876591       7.16786782         0.00000000       0.00000000       0.00000000          1
H         7.52157864       7.82225976       5.06250107         0.00000000       0.00000000       0.00000000          1
H         9.56046265       8.70289628       6.75712868         0.00000000       0.00000000       0.00000000          1
H         6.88723882       9.10365152       7.46248415         0.00000000       0.00000000       0.00000000          1
H         8.43837694       7.24939792       8.86248728         0.00000000       0.00000000       0.00000000          1
H         9.07272011       5.96800844       6.46250500         0.00000000       0.00000000       0.00000000          1
6
pbc=[F, F, F] list_num_par=6 frozen=false iter=20000 energy=-1.26974174 Lattice="15.00000000 0.00000000 0.00000000 0.00000000 15.00000000 0.00000000 0.00000000 0.00000000 15.00000000" energy_frozen_part=0.00000000 Properties=species:S:1:pos:R:3:velocities:R:3:Z:I:1
H         6.39947378       6.36869106       7.16748782         0.00000000       0.00000000       0.00000000          1
H         7.52153068       7.82264314       5.06241663         0.00000000       0.00000000       0.00000000          1
H         9.56039030       8.70295996       6.75722611         0.00000000       0.00000000       0.00000000          1
H         6.88715904       9.10352324       7.46266717         0.00000000       0.00000000       0.00000000          1
H         8.43833182       7.24901559       8.86229329         0.00000000       0.00000000       0.00000000          1
H         9.07270287       5.96813104       6.46204826         0.00000000       0.00000000       0.00000000          1
6
pbc=[F, F, F] list_num_par=6 frozen=false iter=20000 energy=-1.26974174 Lattice="15.00000000 0.00000000 0.00000000 0.00000000 15.00000000 0.00000000 0.00000000 0.00000000 15.00000000" energy_frozen_part=0.00000000 Properties=species:S:1:pos:R:3:velocities:R:3:Z:I:1
H         6.39951960       6.36874299       7.16786372         0.00000000       0.00000000       0.00000000          1
H         7.52160653       7.82225977       5.06251376         0.00000000       0.00000000       0.00000000          1
H         9.56045013       8.70293180       6.75715560         0.00000000       0.00000000       0.00000000          1
H         6.88720619       9.10363955       7.46248701         0.00000000       0.00000000       0.00000000          1
H         8.43835716       7.24941291       8.86250367         0.00000000       0.00000000       0.00000000          1
H         9.07276229       5.96804219       6.46252837         0.00000000       0.00000000       0.00000000          1
6
pbc=[F, F, F] list_num_par=6 frozen=false iter=20000 energy=-1.26974174 Lattice="15.00000000 0.00000000 0.00000000 0.00000000 15.00000000 0.00000000 0.00000000 0.00000000 15.00000000" energy_frozen_part=0.00000000 Properties=species:S:1:pos:R:3:velocities:R:3:Z:I:1
H         6.39938625       6.36877089       7.16755355         0.00000000       0.00000000       0.00000000          1
H         7.52152905       7.82247237       5.06236570         0.00000000       0.00000000       0.00000000          1
H         9.56033202       8.70299103       6.75714937         0.00000000       0.00000000       0.00000000          1
H         6.88707209       9.10363817       7.46243943         0.00000000       0.00000000       0.00000000          1
H         8.43818423       7.24927972       8.86233041         0.00000000       0.00000000       0.00000000          1
H         9.07264358       5.96812305       6.46225734         0.00000000       0.00000000       0.00000000          1
6
pbc=[F, F, F] list_num_par=6 frozen=false iter=20000 energy=-1.26974174 Lattice="15.00000000 0.00000000 0.00000000 0.00000000 15.00000000 0.00000000 0.00000000 0.00000000 15.00000000" energy_frozen_part=0.00000000 Properties=species:S:1:pos:R:3:velocities:R:3:Z:I:1
H         6.39954429       6.36869904       7.16789122         0.00000000       0.00000000       0.00000000          1
H         7.52161018       7.82220389       5.06252728         0.00000000       0.00000000       0.00000000          1
H         9.56041809       8.70295229       6.75717645         0.00000000       0.00000000       0.00000000          1
H         6.88715808       9.10360962       7.46247986         0.00000000       0.00000000       0.00000000          1
H         8.43835801       7.24944391       8.86254292         0.00000000       0.00000000       0.00000000          1
H         9.07280086       5.96803896       6.46259252         0.00000000       0.00000000       0.00000000          1
6
pbc=[F, F, F] list_num_par=6 frozen=false iter=20000 energy=-1.26974174 Lattice="15.00000000 0.00000000 0.00000000 0.00000000 15.00000000 0.00000000 0.00000000 0.00000000 15.00000000" energy_frozen_part=0.00000000 Properties=species:S:1:pos:R:3:velocities:R:3:Z:I:1
H         6.39937430       6.36877589       7.16756932         0.00000000       0.00000000       0.00000000          1
H         7.52148436       7.82244098       5.06234199         0.00000000       0.00000000       0.00000000          1
H         9.56031453       8.70297517       6.75706987         0.00000000       0.00000000       0.00000000          1
H         6.88707105       9.10363688       7.46241246         0.00000000       0.00000000       0.00000000          1
H         8.43820996       7.24930646       8.86230080         0.00000000       0.00000000       0.00000000          1
H         9.07261990       5.96810818       6.46223494         0.00000000       0.00000000       0.00000000          1
6
pbc=[F, F, F] list_num_par=6 frozen=false iter=20000 energy=-1.26974174 Lattice="15.00000000 0.00000000 0.00000000 0.00000000 15.00000000 0.00000000 0.00000000 0.00000000 15.00000000" energy_frozen_part=0.00000000 Properties=species:S:1:pos:R:3:velocities:R:3:Z:I:1
H         6.39952268       6.36873509       7.16785970         0.00000000       0.00000000       0.00000000          1
H         7.52160809       7.82226439       5.06251120         0.00000000       0.00000000       0.00000000          1
H         9.56044993       8.70293900       6.75715132         0.00000000       0.00000000       0.00000000          1
H         6.88720217       9.10362823       7.46249099         0.00000000       0.00000000       0.00000000          1
H         8.43836905       7.24941241       8.86249723         0.00000000       0.00000000       0.00000000          1
H         9.07276571       5.96804158       6.46252092         0.00000000       0.00000000       0.00000000          1
6
pbc=[F, F, F] list_num_par=6 frozen=false iter=20000 energy=-1.26974174 Lattice="15.00000000 0.00000000 0.00000000 0.00000000 15.00000000 0.00000000 0.00000000 0.00000000 15.00000000" energy_frozen_part=0.00000000 Properties=species:S:1:pos:R:3:velocities:R:3:Z:I:1
H         6.40095258       6.36832030       7.16874247         0.00000000       0.00000000       0.00000000          1
H         7.52368506       7.82040729       5.06275011         0.00000000       0.00000000       0.00000000          1
H         9.56224794       8.70187198       6.75731512         0.00000000       0.00000000       0.00000000          1
H         6.88890317       9.10333643       7.46180076         0.00000000       0.00000000       0.00000000          1
H         8.43951425       7.24978472       8.86330856         0.00000000       0.00000000       0.00000000          1
H         9.07429763       5.96685522       6.46425613         0.00000000       0.00000000       0.00000000          1
6
pbc=[F, F, F] list_num_par=6 frozen=false iter=20000 energy=-1.26974174 Lattice="15.00000000 0.00000000 0.00000000 0.00000000 15.00000000 0.00000000 0.00000000 0.00000000 15.00000000" energy_frozen_part=0.00000000 Properties=species:S:1:pos:R:3:velocities:R:3:Z:I:1
H         6.39950230       6.36876651       7.16786675         0.00000000       0.00000000       0.00000000          1
H         7.52160733       7.82226479       5.06250307         0.00000000       0.00000000       0.00000000          1
H         9.56046537       8.70290838       6.75714721         0.00000000       0.00000000       0.00000000          1
H         6.88723245       9.10365528       7.46247666         0.00000000       0.00000000       0.00000000          1
H         8.43836461       7.24940748       8.86250014         0.00000000       0.00000000       0.00000000          1
H         9.07273908       5.96802193       6.46252144         0.00000000       0.00000000       0.00000000          1
6
pbc=[F, F, F] list_num_par=6 frozen=false iter=20000 energy=-1.26974174 Lattice="15.00000000 0.00000000 0.00000000 0.00000000 15.00000000 0.00000000 0.00000000 0.00000000 15.00000000" energy_frozen_part=0.00000000 Properties=species:S:1:pos:R:3:velocities:R:3:Z:I:1
H         6.39953870       6.36870621       7.16790483         0.00000000       0.00000000       0.00000000          1
H         7.52160076       7.82221152       5.06252963         0.00000000       0.00000000       0.00000000          1
H         9.56041705       8.70295131       6.75717538         0.00000000       0.00000000       0.00000000          1
H         6.88716206       9.10361607       7.46248503         0.00000000       0.00000000       0.00000000          1
H         8.43836039       7.24944263       8.86253914         0.00000000       0.00000000       0.00000000          1
H         9.07278607       5.96804208       6.46257903         0.00000000       0.00000000       0.00000000          1
6
pbc=[F, F, F] list_num_par=6 frozen=false iter=20000 energy=-1.26974174 Lattice="15.00000000 0.00000000 0.00000000 0.00000000 15.00000000 0.00000000 0.00000000 0.00000000 15.00000000" energy_frozen_part=0.00000000 Properties=species:S:1:pos:R:3:velocities:R:3:Z:I:1
H         6.39937426       6.36879296       7.16756411         0.00000000       0.00000000       0.00000000          1
H         7.52155137       7.82247363       5.06237685         0.00000000       0.00000000       0.00000000          1
H         9.56033163       8.70298506       6.75717019         0.00000000       0.00000000       0.00000000          1
H         6.88706515       9.10365955       7.46243699         0.00000000       0.00000000       0.00000000          1
H         8.43815618       7.24930160       8.86235708         0.00000000       0.00000000       0.00000000          1
H         9.07263408       5.96811896       6.46229239         0.00000000       0.00000000       0.00000000          1
6
pbc=[F, F, F] list_num_par=6 frozen=false iter=20000 energy=-1.26974174 Lattice="15.00000000 0.00000000 0.00000000 0.00000000 15.00000000 0.00000000 0.00000000 0.00000000 15.00000000" energy_frozen_part=0.00000000 Properties=species:S:1:pos:R:3:velocities:R:3:Z:I:1
H         6.39938809       6.36882281       7.16757182         0.00000000       0.00000000       0.00000000          1
H         7.52156413       7.82247295       5.06236104         0.00000000       0.00000000       0.00000000          1
H         9.56035603       8.70299067       6.75715437         0.00000000       0.00000000       0.00000000          1
H         6.88709312       9.10368176       7.46241105         0.00000000       0.00000000       0.00000000          1
H         8.43817895       7.24933924       8.86235598         0.00000000       0.00000000       0.00000000          1
H         9.07264535       5.96812653       6.46230787         0.00000000       0.00000000       0.00000000          1
6
pbc=[F, F, F] list_num_par=6 frozen=false iter=20000 energy=-1.26974174 Lattice="15.00000000 0.00000000 0.00000000 0.00000000 15.00000000 0.00000000 0.00000000 0.00000000 15.00000000" energy_frozen_part=0.00000000 Properties=species:S:1:pos:R:3:velocities:R:3:Z:I:1
H         6.40177984       6.36785892       7.16821931         0.00000000       0.00000000       0.00000000          1
H         7.52336374       7.82212546       5.06311059         0.00000000       0.00000000       0.00000000          1
H         9.56182736       8.70332304       6.75793706         0.00000000       0.00000000       0.00000000          1
H         6.88841662       9.10289887       7.46326961         0.00000000       0.00000000       0.00000000          1
H         8.44024551       7.24905842       8.86304488         0.00000000       0.00000000       0.00000000          1
H         9.07519560       5.96828522       6.46288655         0.00000000       0.00000000       0.00000000          1
6
pbc=[F, F, F] list_num_par=6 frozen=false iter=20000 energy=-1.26974174 Lattice="15.00000000 0.00000000 0.00000000 0.00000000 15.00000000 0.00000000 0.00000000 0.00000000 15.00000000" energy_frozen_part=0.00000000 Properties=species:S:1:pos:R:3:velocities:R:3:Z:I:1
H         6.39938554       6.36879002       7.16757592         0.00000000       0.00000000       0.00000000          1
H         7.52155907       7.82247060       5.06239312         0.00000000       0.00000000       0.00000000          1
H         9.56035389       8.70297720       6.75717865         0.00000000       0.00000000       0.00000000          1
H         6.88708538       9.10365336       7.46245041         0.00000000       0.00000000       0.00000000          1
H         8.43817528       7.24929380       8.86237022         0.00000000       0.00000000       0.00000000          1
H         9.07264744       5.96811387       6.46230201         0.00000000       0.00000000       0.00000000          1
6
pbc=[F, F, F] list_num_par=6 frozen=false iter=20000 energy=-1.26974174 Lattice="15.00000000 0.00000000 0.00000000 0.00000000 15.00000000 0.00000000 0.00000000 0.00000000 15.00000000" energy_frozen_part=0.00000000 Properties=species:S:1:pos:R:3:velocities:R:3:Z:I:1
H         6.39933194       6.36878060       7.16757895         0.00000000       0.00000000       0.00000000          1
H         7.52147188       7.82239463       5.06231975         0.00000000       0.00000000       0.00000000          1
H         9.56030722       8.70293081       6.75704016         0.00000000       0.00000000       0.00000000          1
H         6.88706552       9.10365185       7.46235930         0.00000000       0.00000000       0.00000000          1
H         8.43817286       7.24932258       8.86230416         0.00000000       0.00000000       0.00000000          1
H         9.07257494       5.96806774       6.46225945         0.00000000       0.00000000       0.00000000          1
6
pbc=[F, F, F] list_num_par=6 frozen=false iter=20000 energy=-1.26974174 Lattice="15.00000000 0.00000000 0.00000000 0.00000000 15.00000000 0.00000000 0.00000000 0.00000000 15.00000000" energy_frozen_part=0.00000000 Properties=species:S:1:pos:R:3:velocities:R:3:Z:I:1
H         6.40175101       6.36788874       7.16819447         0.00000000       0.00000000       0.00000000          1
H         7.52343491       7.82216649       5.06315116         0.00000000       0.00000000       0.00000000          1
H         9.56189199       8.70325275       6.75804456         0.00000000       0.00000000       0.00000000          1
H         6.88846962       9.10290431       7.46332114         0.00000000       0.00000000       0.00000000          1
H         8.44021261       7.24897989       8.86309099         0.00000000       0.00000000       0.00000000          1
H         9.07516931       5.96824276       6.46291899         0.00000000       0.00000000       0.00000000          1
6
pbc=[F, F, F] list_num_par=6 frozen=false iter=20000 energy=-1.26974174 Lattice="15.00000000 0.00000000 0.00000000 0.00000000 15.00000000 0.00000000 0.00000000 0.00000000 15.00000000" energy_frozen_part=0.00000000 Properties=species:S:1:pos:R:3:velocities:R:3:Z:I:1
H         6.39938751       6.36873770       7.16757470         0.00000000       0.00000000       0.00000000          1
H         7.52150986       7.82235255       5.06231870         0.00000000       0.00000000       0.00000000          1
H         9.56031623       8.70295503       6.75704332         0.00000000       0.00000000       0.00000000          1
H         6.88705842       9.10362595       7.46233572         0.00000000       0.00000000       0.00000000          1
H         8.43818456       7.24934493       8.86230610         0.00000000       0.00000000       0.00000000          1
H         9.07265185       5.96807479       6.46228169         0.00000000       0.00000000       0.00000000          1
6
pbc=[F, F, F] list_num_par=6 frozen=false iter=20000 energy=-1.26974174 Lattice="15.00000000 0.00000000 0.00000000 0.00000000 15.00000000 0.00000000 0.00000000 0.00000000 15.00000000" energy_frozen_part=0.00000000 Properties=species:S:1:pos:R:3:velocities:R:3:Z:I:1
H         6.39938140       6.36876355       7.16754048         0.00000000       0.00000000       0.00000000          1
H         7.52152954       7.82248083       5.06236052         0.00000000       0.00000000       0.00000000          1
H         9.56032586       8.70298605       6.75715210         0.00000000       0.00000000       0.00000000          1
H         6.88706808       9.10362961       7.46244249         0.00000000       0.00000000       0.00000000          1
H         8.43818123       7.24926883       8.86232809         0.00000000       0.00000000       0.00000000          1
H         9.07264872       5.96812875       6.46224689         0.00000000       0.00000000       0.00000000          1
6
pbc=[F, F, F] list_num_par=6 frozen=false iter=20000 energy=-1.26974174 Lattice="15.00000000 0.00000000 0.00000000 0.00000000 15.00000000 0.00000000 0.00000000 0.00000000 15.00000000" energy_frozen_part=0.00000000 Properties=species:S:1:pos:R:3:velocities:R:3:Z:I:1
H         6.39953569       6.36873141       7.16789434         0.00000000       0.00000000       0.00000000          1
H         7.52159031       7.82217935       5.06248062         0.00000000       0.00000000       0.00000000          1
H         9.56045331       8.70291833       6.75706559         0.00000000       0.00000000       0.00000000          1
H         6.88722445       9.10363373       7.46242298         0.00000000       0.00000000       0.00000000          1
H         8.43840696       7.24946169       8.86247680         0.00000000       0.00000000       0.00000000          1
H         9.07276781       5.96800613       6.46253746         0.00000000       0.00000000       0.00000000          1
6
pbc=[F, F, F] list_num_par=6 frozen=false iter=20000 energy=-1.26974174 Lattice="15.00000000 0.00000000 0.00000000 0.00000000 15.00000000 0.00000000 0.00000000 0.00000000 15.00000000" energy_frozen_part=0.00000000 Properties=species:S:1:pos:R:3:velocities:R:3:Z:I:1
H         6.39938991       6.36880851       7.16756390         0.00000000       0.00000000       0.00000000          1
H         7.52157132       7.82246618       5.06236365         0.00000000       0.00000000       0.00000000          1
H         9.56035464       8.70298501       6.75715039         0.00000000       0.00000000       0.00000000          1
H         6.88709165       9.10367173       7.46241844         0.00000000       0.00000000       0.00000000          1
H         8.43818325       7.24932323       8.86235623         0.00000000       0.00000000       0.00000000          1
H         9.07265219       5.96811547       6.46230658         0.00000000       0.00000000       0.00000000          1
6
pbc=[F, F, F] list_num_par=6 frozen=false iter=20000 energy=-1.26974174 Lattice="15.00000000 0.00000000 0.00000000 0.00000000 15.00000000 0.00000000 0.00000000 0.00000000 15.00000000" energy_frozen_part=0.00000000 Properties=species:S:1:pos:R:3:velocities:R:3:Z:I:1
H         6.40094678       6.36832305       7.16873880         0.00000000       0.00000000       0.00000000          1
H         7.52367535       7.82041630       5.06275008         0.00000000       0.00000000       0.00000000          1
H         9.56224906       8.70187901       6.75731126         0.00000000       0.00000000       0.00000000          1
H         6.88889470       9.10334022       7.46180126         0.00000000       0.00000000       0.00000000          1
H         8.43951883       7.24978858       8.86330688         0.00000000       0.00000000       0.00000000          1
H         9.07430286       5.96687073       6.46425140         0.00000000       0.00000000       0.00000000          1
6
pbc=[F, F, F] list_num_par=6 frozen=false iter=20000 energy=-1.26974174 Lattice="15.00000000 0.00000000 0.00000000 0.00000000 15.00000000 0.00000000 0.00000000 0.00000000 15.00000000" energy_frozen_part=0.00000000 Properties=species:S:1:pos:R:3:velocities:R:3:Z:I:1
H         6.39953693       6.36873704       7.16791082         0.00000000       0.00000000       0.00000000          1
H         7.52156677       7.82220952       5.06249778         0.00000000       0.00000000       0.00000000          1
H         9.56044620       8.70292543       6.75707469         0.00000000       0.00000000       0.00000000          1
H         6.88721434       9.10364379       7.46246047         0.00000000       0.00000000       0.00000000          1
H         8.43841294       7.24946925       8.86249258         0.00000000       0.00000000       0.00000000          1
H         9.07276297       5.96802939       6.46253271         0.00000000       0.00000000       0.00000000          1
6
pbc=[F, F, F] list_num_par=6 frozen=false iter=20000 energy=-1.26974174 Lattice="15.00000000 0.00000000 0.00000000 0.00000000 15.00000000 0.00000000 0.00000000 0.00000000 15.00000000" energy_frozen_part=0.00000000 Properties=species:S:1:pos:R:3:velocities:R:3:Z:I:1
H         6.39950432       6.36875549       7.16782013         0.00000000       0.00000000       0.00000000          1
H         7.52163894       7.82226027       5.06248245         0.00000000       0.00000000       0.00000000          1
H         9.56048518       8.70288826       6.75715389         0.00000000       0.00000000       0.00000000          1
H         6.88723782       9.10363906       7.46246253         0.00000000       0.00000000       0.00000000          1
H         8.43834738       7.24938424       8.86249151         0.00000000       0.00000000       0.00000000          1
H         9.07274997       5.96800742       6.46250922         0.00000000       0.00000000       0.00000000          1
6
pbc=[F, F, F] list_num_par=6 frozen=false iter=20000 energy=-1.26974174 Lattice="15.00000000 0.00000000 0.00000000 0.00000000 15.00000000 0.00000000 0.00000000 0.00000000 15.00000000" energy_frozen_part=0.00000000 Properties=species:S:1:pos:R:3:velocities:R:3:Z:I:1
H         6.39950899       6.36875518       7.16783749         0.00000000       0.00000000       0.00000000          1
H         7.52162913       7.82224858       5.06248538         0.00000000       0.00000000       0.00000000          1
H         9.56047783       8.70288836       6.75714581         0.00000000       0.00000000       0.00000000          1
H         6.88723441       9.10364126       7.46244937         0.00000000       0.00000000       0.00000000          1
H         8.43834942       7.24939944       8.86249912         0.00000000       0.00000000       0.00000000          1
H         9.07274716       5.96800525       6.46252511         0.00000000       0.00000000       0.00000000          1
6
pbc=[F, F, F] list_num_par=6 frozen=false iter=20000 energy=-1.26974174 Lattice="15.00000000 0.00000000 0.00000000 0.00000000 15.00000000 0.00000000 0.00000000 0.00000000 15.00000000" energy_frozen_part=0.00000000 Properties=species:S:1:pos:R:3:velocities:R:3:Z:I:1
H         6.39937446       6.36879119       7.16756961         0.00000000       0.00000000       0.00000000          1
H         7.52153574       7.82247071       5.06237654         0.00000000       0.00000000       0.00000000          1
H         9.56033002       8.70298219       6.75716722         0.00000000       0.00000000       0.00000000          1
H         6.88706615       9.10365978       7.46244107         0.00000000       0.00000000       0.00000000          1
H         8.43816196       7.24930794       8.86235971         0.00000000       0.00000000       0.00000000          1
H         9.07263753       5.96812481       6.46230053         0.00000000       0.00000000       0.00000000          1
6
pbc=[F, F, F] list_num_par=6 frozen=false iter=20000 energy=-1.26974174 Lattice="15.00000000 0.00000000 0.00000000 0.00000000 15.00000000 0.00000000 0.00000000 0.00000000 15.00000000" energy_frozen_part=0.00000000 Properties=species:S:1:pos:R:3:velocities:R:3:Z:I:1
H         6.40095174       6.36831465       7.16873184         0.00000000       0.00000000       0.00000000          1
H         7.52366777       7.82042314       5.06275066         0.00000000       0.00000000       0.00000000          1
H         9.56223036       8.70190011       6.75731884         0.00000000       0.00000000       0.00000000          1
H         6.88887337       9.10332980       7.46180332         0.00000000       0.00000000       0.00000000          1
H         8.43950774       7.24979182       8.86329847         0.00000000       0.00000000       0.00000000          1
H         9.07430833       5.96687948       6.46425339         0.00000000       0.00000000       0.00000000          1
6
pbc=[F, F, F] list_num_par=6 frozen=false iter=20000 energy=-1.26974174 Lattice="15.00000000 0.00000000 0.00000000 0.00000000 15.00000000 0.00000000 0.00000000 0.00000000 15.00000000" energy_frozen_part=0.00000000 Properties=species:S:1:pos:R:3:velocities:R:3:Z:I:1
H         6.39947374       6.36869509       7.16750133         0.00000000       0.00000000       0.00000000          1
H         7.52153100       7.82262916       5.06242292         0.00000000       0.00000000       0.00000000          1
H         9.56038994       8.70296940       6.75721645         0.00000000       0.00000000       0.00000000          1
H         6.88715475       9.10352847       7.46266596         0.00000000       0.00000000       0.00000000          1
H         8.43833999       7.24903115       8.86229225         0.00000000       0.00000000       0.00000000          1
H         9.07270142       5.96812441       6.46205165         0.00000000       0.00000000       0.00000000          1
6
pbc=[F, F, F] list_num_par=6 frozen=false iter=20000 energy=-1.26974174 Lattice="15.00000000 0.00000000 0.00000000 0.00000000 15.00000000 0.00000000 0.00000000 0.00000000 15.00000000" energy_frozen_part=0.00000000 Properties=species:S:1:pos:R:3:velocities:R:3:Z:I:1
H         6.39951258       6.36871316       7.16791592         0.00000000       0.00000000       0.00000000          1
H         7.52158276       7.82220145       5.06253260         0.00000000       0.00000000       0.00000000          1
H         9.56042133       8.70292810       6.75716656         0.00000000       0.00000000       0.00000000          1
H         6.88717354       9.10361563       7.46248624         0.00000000       0.00000000       0.00000000          1
H         8.43834328       7.24943812       8.86254664         0.00000000       0.00000000       0.00000000          1
H         9.07275490       5.96802232       6.46259074         0.00000000       0.00000000       0.00000000          1
6
pbc=[F, F, F] list_num_par=6 frozen=false iter=20000 energy=-1.26974174 Lattice="15.00000000 0.00000000 0.00000000 0.00000000 15.00000000 0.00000000 0.00000000 0.00000000 15.00000000" energy_frozen_part=0.00000000 Properties=species:S:1:pos:R:3:velocities:R:3:Z:I:1
H         6.39954435       6.36870189       7.16792947         0.00000000       0.00000000       0.00000000          1
H         7.52159076       7.82219706       5.06254157         0.00000000       0.00000000       0.00000000          1
H         9.56044854       8.70291812       6.75715216         0.00000000       0.00000000       0.00000000          1
H         6.88720326       9.10360429       7.46250609         0.00000000       0.00000000       0.00000000          1
H         8.43840145       7.24942962       8.86253958         0.00000000       0.00000000       0.00000000          1
H         9.07278091       5.96801708       6.46257924         0.00000000       0.00000000       0.00000000          1
6
pbc=[F, F, F] list_num_par=6 frozen=false iter=20000 energy=-1.26974174 Lattice="15.00000000 0.00000000 0.00000000 0.00000000 15.00000000 0.00000000 0.00000000 0.00000000 15.00000000" energy_frozen_part=0.00000000 Properties=species:S:1:pos:R:3:velocities:R:3:Z:I:1
H         6.40175048       6.36788802       7.16818911         0.00000000       0.00000000       0.00000000          1
H         7.52343855       7.82216395       5.06315008         0.00000000       0.00000000       0.00000000          1
H         9.56188852       8.70324094       6.75804850         0.00000000       0.00000000       0.00000000          1
H         6.88846835       9.10290571       7.46331579         0.00000000       0.00000000       0.00000000          1
H         8.44020182       7.24897840       8.86308932         0.00000000       0.00000000       0.00000000          1
H         9.07516811       5.96823421       6.46291846         0.00000000       0.00000000       0.00000000          1
6
pbc=[F, F, F] list_num_par=6 frozen=false iter=20000 energy=-1.26974174 Lattice="15.00000000 0.00000000 0.00000000 0.00000000 15.00000000 0.00000000 0.00000000 0.00000000 15.00000000" energy_frozen_part=0.00000000 Properties=species:S:1:pos:R:3:velocities:R:3:Z:I:1
H         6.39950222       6.36874849       7.16784974         0.00000000       0.00000000       0.00000000          1
H         7.52160161       7.82226510       5.06250414         0.00000000       0.00000000       0.00000000          1
H         9.56044880       8.70291830       6.75714774         0.00000000       0.00000000       0.00000000          1
H         6.88720617       9.10363982       7.46248762         0.00000000       0.00000000       0.00000000          1
H         8.43835080       7.24939864       8.86249217         0.00000000       0.00000000       0.00000000          1
H         9.07274937       5.96802791       6.46251645         0.00000000       0.00000000       0.00000000          1
6
pbc=[F, F, F] list_num_par=6 frozen=false iter=20000 energy=-1.26974174 Lattice="15.00000000 0.00000000 0.00000000 0.00000000 15.00000000 0.00000000 0.00000000 0.00000000 15.00000000" energy_frozen_part=0.00000000 Properties=species:S:1:pos:R:3:velocities:R:3:Z:I:1
H         6.40174576       6.36792669       7.16816811         0.00000000       0.00000000       0.00000000          1
H         7.52349034       7.82214306       5.06311524         0.00000000       0.00000000       0.00000000          1
H         9.56191794       8.70323697       6.75803412         0.00000000       0.00000000       0.00000000          1
H         6.88848891       9.10294488       7.46324698         0.00000000       0.00000000       0.00000000          1
H         8.44017179       7.24902757       8.86308778         0.00000000       0.00000000       0.00000000          1
H         9.07517076       5.96822534       6.46295532         0.00000000       0.00000000       0.00000000          1
6
pbc=[F, F, F] list_num_par=6 frozen=false iter=20000 energy=-1.26974174 Lattice="15.00000000 0.00000000 0.00000000 0.00000000 15.00000000 0.00000000 0.00000000 0.00000000 15.00000000" energy_frozen_part=0.00000000 Properties=species:S:1:pos:R:3:velocities:R:3:Z:I:1
H         6.39953279       6.36870409       7.16791486         0.00000000       0.00000000       0.00000000          1
H         7.52158507       7.82219613       5.06253064         0.00000000       0.00000000       0.00000000          1
H         9.56041875       8.70293110       6.75715602         0.00000000       0.00000000       0.00000000          1
H         6.88716753       9.10360268       7.46248645         0.00000000       0.00000000       0.00000000          1
H         8.43836510       7.24943622       8.86253783         0.00000000       0.00000000       0.00000000          1
H         9.07277840       5.96802138       6.46257899         0.00000000       0.00000000       0.00000000          1
6
pbc=[F, F, F] list_num_par=6 frozen=false iter=20000 energy=-1.26974174 Lattice="15.00000000 0.00000000 0.00000000 0.00000000 15.00000000 0.00000000 0.00000000 0.00000000 15.00000000" energy_frozen_part=0.00000000 Properties=species:S:1:pos:R:3:velocities:R:3:Z:I:1
H         6.39936479       6.36878295       7.16758007         0.00000000       0.00000000       0.00000000          1
H         7.52148290       7.82242652       5.06232890         0.00000000       0.00000000       0.00000000          1
H         9.56032020       8.70295663       6.75705550         0.00000000       0.00000000       0.00000000          1
H         6.88707916       9.10364956       7.46239367         0.00000000       0.00000000       0.00000000          1
H         8.43821131       7.24931042       8.86229835         0.00000000       0.00000000       0.00000000          1
H         9.07260911       5.96809314       6.46223856         0.00000000       0.00000000       0.00000000          1
6
pbc=[F, F, F] list_num_par=6 frozen=false iter=20000 energy=-1.26974174 Lattice="15.00000000 0.00000000 0.00000000 0.00000000 15.00000000 0.00000000 0.00000000 0.00000000 15.00000000" energy_frozen_part=0.00000000 Properties=species:S:1:pos:R:3:velocities:R:3:Z:I:1
H         6.39952034       6.36874653       7.16785611         0.00000000       0.00000000       0.00000000          1
H         7.52158825       7.82225065       5.06248591         0.00000000       0.00000000       0.00000000          1
H         9.56045510       8.70291913       6.75710805         0.00000000       0.00000000       0.00000000          1
H         6.88722108       9.10363642       7.46246925         0.00000000       0.00000000       0.00000000          1
H         8.43838878       7.24941135       8.86246748         0.00000000       0.00000000       0.00000000          1
H         9.07275760       5.96802607       6.46248266         0.00000000       0.00000000       0.00000000          1
6
pbc=[F, F, F] list_num_par=6 frozen=false iter=20000 energy=-1.26974174 Lattice="15.00000000 0.00000000 0.00000000 0.00000000 15.00000000 0.00000000 0.00000000 0.00000000 15.00000000" energy_frozen_part=0.00000000 Properties=species:S:1:pos:R:3:velocities:R:3:Z:I:1
H         6.39951958       6.36876903       7.16785950         0.00000000       0.00000000       0.00000000          1
H         7.52159819       7.82227246       5.06249716         0.00000000       0.00000000       0.00000000          1
H         9.56044464       8.70293731       6.75713981         0.00000000       0.00000000       0.00000000          1
H         6.88721353       9.10366017       7.46247803         0.00000000       0.00000000       0.00000000          1
H         8.43836851       7.24943599       8.86249983         0.00000000       0.00000000       0.00000000          1
H         9.07275795       5.96804582       6.46252211         0.00000000       0.00000000       0.00000000          1
6
pbc=[F, F, F] list_num_par=6 frozen=false iter=20000 energy=-1.26974174 Lattice="15.00000000 0.00000000 0.00000000 0.00000000 15.00000000 0.00000000 0.00000000 0.00000000 15.00000000" energy_frozen_part=0.00000000 Properties=species:S:1:pos:R:3:velocities:R:3:Z:I:1
H         6.39954529       6.36872456       7.16789478         0.00000000       0.00000000       0.00000000          1
H         7.52163577       7.82220174       5.06251893         0.00000000       0.00000000       0.00000000          1
H         9.56046150       8.70291854       6.75715215         0.00000000       0.00000000       0.00000000          1
H         6.88721947       9.10363088       7.46246418         0.00000000       0.00000000       0.00000000          1
H         8.43837718       7.24944048       8.86252995         0.00000000       0.00000000       0.00000000          1
H         9.07278779       5.96801699       6.46258277         0.00000000       0.00000000       0.00000000          1
6
pbc=[F, F, F] list_num_par=6 frozen=false iter=20000 energy=-1.26974174 Lattice="15.00000000 0.00000000 0.00000000 0.00000000 15.00000000 0.00000000 0.00000000 0.00000000 15.00000000" energy_frozen_part=0.00000000 Properties=species:S:1:pos:R:3:velocities:R:3:Z:I:1
H         6.39936979       6.36879936       7.16756101         0.00000000       0.00000000       0.00000000          1
H         7.52154935       7.82248143       5.06237520         0.00000000       0.00000000       0.00000000          1
H         9.56033689       8.70298404       6.75717948         0.00000000       0.00000000       0.00000000          1
H         6.88707108       9.10365680       7.46243600         0.00000000       0.00000000       0.00000000          1
H         8.43815844       7.24929382       8.86235542         0.00000000       0.00000000       0.00000000          1
H         9.07263030       5.96811970       6.46228720         0.00000000       0.00000000       0.00000000          1
6
pbc=[F, F, F] list_num_par=6 frozen=false iter=20000 energy=-1.26974174 Lattice="15.00000000 0.00000000 0.00000000 0.00000000 15.00000000 0.00000000 0.00000000 0.00000000 15.00000000" energy_frozen_part=0.00000000 Properties=species:S:1:pos:R:3:velocities:R:3:Z:I:1
H         6.40094349       6.36832004       7.16874789         0.00000000       0.00000000       0.00000000          1
H         7.52367771       7.82041866       5.06275615         0.00000000       0.00000000       0.00000000          1
H         9.56224581       8.70187334       6.75731700         0.00000000       0.00000000       0.00000000          1
H         6.88889423       9.10333568       7.46180234         0.00000000       0.00000000       0.00000000          1
H         8.43951445       7.24978736       8.86330795         0.00000000       0.00000000       0.00000000          1
H         9.07429681       5.96686332       6.46425769         0.00000000       0.00000000       0.00000000          1
6
pbc=[F, F, F] list_num_par=6 frozen=false iter=20000 energy=-1.26974174 Lattice="15.00000000 0.00000000 0.00000000 0.00000000 15.00000000 0.00000000 0.00000000 0.00000000 15.00000000" energy_frozen_part=0.00000000 Properties=species:S:1:pos:R:3:velocities:R:3:Z:I:1
H         6.39952786       6.36874302       7.16785467         0.00000000       0.00000000       0.00000000          1
H         7.52159890       7.82225390       5.06248815         0.00000000       0.00000000       0.00000000          1
H         9.56046472       8.70291471       6.75711142         0.00000000       0.00000000       0.00000000          1
H         6.88722263       9.10363569       7.46247042         0.00000000       0.00000000       0.00000000          1
H         8.43839645       7.24940950       8.86247216         0.00000000       0.00000000       0.00000000          1
H         9.07276096       5.96802357       6.46249516         0.00000000       0.00000000       0.00000000          1
6
pbc=[F, F, F] list_num_par=6 frozen=false iter=20000 energy=-1.26974174 Lattice="15.00000000 0.00000000 0.00000000 0.00000000 15.00000000 0.00000000 0.00000000 0.00000000 15.00000000" energy_frozen_part=0.00000000 Properties=species:S:1:pos:R:3:velocities:R:3:Z:I:1
H         6.39950797       6.36874115       7.16786361         0.00000000       0.00000000       0.00000000          1
H         7.52159960       7.82224626       5.06250607         0.00000000       0.00000000       0.00000000          1
H         9.56045465       8.70289992       6.75714578         0.00000000       0.00000000       0.00000000          1
H         6.88722136       9.10363746       7.46248413         0.00000000       0.00000000       0.00000000          1
H         8.43836287       7.24940223       8.86250466         0.00000000       0.00000000       0.00000000          1
H         9.07274429       5.96801547       6.46252075         0.00000000       0.00000000       0.00000000          1
6
pbc=[F, F, F] list_num_par=6 frozen=false iter=20000 energy=-1.26974174 Lattice="15.00000000 0.00000000 0.00000000 0.00000000 15.00000000 0.00000000 0.00000000 0.00000000 15.00000000" energy_frozen_part=0.00000000 Properties=species:S:1:pos:R:3:velocities:R:3:Z:I:1
H         6.39954939       6.36872334       7.16790631         0.00000000       0.00000000       0.00000000          1
H         7.52159003       7.82217989       5.06248739         0.00000000       0.00000000       0.00000000          1
H         9.56044795       8.70292232       6.75706726         0.00000000       0.00000000       0.00000000          1
H         6.88722270       9.10362704       7.46243617         0.00000000       0.00000000       0.00000000          1
H         8.43841527       7.24946252       8.86249162         0.00000000       0.00000000       0.00000000          1
H         9.07278397       5.96801528       6.46254403         0.00000000       0.00000000       0.00000000          1
6
pbc=[F, F, F] list_num_par=6 frozen=false iter=20000 energy=-1.26974174 Lattice="15.00000000 0.00000000 0.00000000 0.00000000 15.00000000 0.00000000 0.00000000 0.00000000 15.00000000" energy_frozen_part=0.00000000 Properties=species:S:1:pos:R:3:velocities:R:3:Z:I:1
H         6.39950444       6.36875390       7.16782747         0.00000000       0.00000000       0.00000000          1
H         7.52162630       7.82224809       5.06248586         0.00000000       0.00000000       0.00000000          1
H         9.56047701       8.70288765       6.75714501         0.00000000       0.00000000       0.00000000          1
H         6.88723443       9.10364594       7.46246077         0.00000000       0.00000000       0.00000000          1
H         8.43835017       7.24939154       8.86248775         0.00000000       0.00000000       0.00000000          1
H         9.07274677       5.96800547       6.46251690         0.00000000       0.00000000       0.00000000          1
6
pbc=[F, F, F] list_num_par=6 frozen=false iter=20000 energy=-1.26974174 Lattice="15.00000000 0.00000000 0.00000000 0.00000000 15.00000000 0.00000000 0.00000000 0.00000000 15.00000000" energy_frozen_part=0.00000000 Properties=species:S:1:pos:R:3:velocities:R:3:Z:I:1
H         6.39952011       6.36872979       7.16785835         0.00000000       0.00000000       0.00000000          1
H         7.52161939       7.82209050       5.06240948         0.00000000       0.00000000       0.00000000          1
H         9.56047476       8.70284040       6.75699924         0.00000000       0.00000000       0.00000000          1
H         6.88724542       9.10363416       7.46230710         0.00000000       0.00000000       0.00000000          1
H         8.43837397       7.24947582       8.86244703         0.00000000       0.00000000       0.00000000          1
H         9.07275755       5.96793789       6.46254140         0.00000000       0.00000000       0.00000000          1
6
pbc=[F, F, F] list_num_par=6 frozen=false iter=20000 energy=-1.26974174 Lattice="15.00000000 0.00000000 0.00000000 0.00000000 15.00000000 0.00000000 0.00000000 0.00000000 15.00000000" energy_frozen_part=0.00000000 Properties=species:S:1:pos:R:3:velocities:R:3:Z:I:1
H         6.39953908       6.36869288       7.16789839         0.00000000       0.00000000       0.00000000          1
H         7.52160175       7.82220480       5.06253053         0.00000000       0.00000000       0.00000000          1
H         9.56042765       8.70294314       6.75717219         0.00000000       0.00000000       0.00000000          1
H         6.88717224       9.10360133       7.46249411         0.00000000       0.00000000       0.00000000          1
H         8.43835993       7.24943010       8.86253611         0.00000000       0.00000000       0.00000000          1
H         9.07279322       5.96803264       6.46257568         0.00000000       0.00000000       0.00000000          1
6
pbc=[F, F, F] list_num_par=6 frozen=false iter=20000 energy=-1.26974174 Lattice="15.00000000 0.00000000 0.00000000 0.00000000 15.00000000 0.00000000 0.00000000 0.00000000 15.00000000" energy_frozen_part=0.00000000 Properties=species:S:1:pos:R:3:velocities:R:3:Z:I:1
H         6.39953335       6.36870287       7.16790021         0.00000000       0.00000000       0.00000000          1
H         7.52160500       7.82220624       5.06253196         0.00000000       0.00000000       0.00000000          1
H         9.56042663       8.70293568       6.75717427         0.00000000       0.00000000       0.00000000          1
H         6.88717783       9.10360956       7.46249014         0.00000000       0.00000000       0.00000000          1
H         8.43835733       7.24943316       8.86253988         0.00000000       0.00000000       0.00000000          1
H         9.07279444       5.96803048       6.46258173         0.00000000       0.00000000       0.00000000          1
6
pbc=[F, F, F] list_num_par=6 frozen=false iter=20000 energy=-1.26974174 Lattice="15.00000000 0.00000000 0.00000000 0.00000000 15.00000000 0.00000000 0.00000000 0.00000000 15.00000000" energy_frozen_part=0.00000000 Properties=species:S:1:pos:R:3:velocities:R:3:Z:I:1
H         6.39952426       6.36875620       7.16791618         0.00000000       0.00000000       0.00000000          1
H         7.52156002       7.82220854       5.06250017         0.00000000       0.00000000       0.00000000          1
H         9.56044073       8.70293139       6.75707965         0.00000000       0.00000000       0.00000000          1
H         6.88721403       9.10365416       7.46245680         0.00000000       0.00000000       0.00000000          1
H         8.43840520       7.24947126       8.86249054         0.00000000       0.00000000       0.00000000          1
H         9.07275087       5.96802549       6.46252809         0.00000000       0.00000000       0.00000000          1
6
pbc=[F, F, F] list_num_par=6 frozen=false iter=20000 energy=-1.26974174 Lattice="15.00000000 0.00000000 0.00000000 0.00000000 15.00000000 0.00000000 0.00000000 0.00000000 15.00000000" energy_frozen_part=0.00000000 Properties=species:S:1:pos:R:3:velocities:R:3:Z:I:1
H         6.40173648       6.36789063       7.16818669         0.00000000       0.00000000       0.00000000          1
H         7.52342094       7.82215365       5.06314289         0.00000000       0.00000000       0.00000000          1
H         9.56188425       8.70323332       6.75804520         0.00000000       0.00000000       0.00000000          1
H         6.88846790       9.10290141       7.46331231         0.00000000       0.00000000       0.00000000          1
H         8.44019134       7.24897300       8.86309237         0.00000000       0.00000000       0.00000000          1
H         9.07515176       5.96822460       6.46292063         0.00000000       0.00000000       0.00000000          1
6
pbc=[F, F, F] list_num_par=6 frozen=false iter=20000 energy=-1.26974174 Lattice="15.00000000 0.00000000 0.00000000 0.00000000 15.00000000 0.00000000 0.00000000 0.00000000 15.00000000" energy_frozen_part=0.00000000 Properties=species:S:1:pos:R:3:velocities:R:3:Z:I:1
H         6.39951439       6.36873942       7.16785815         0.00000000       0.00000000       0.00000000          1
H         7.52158361       7.82226749       5.06250413         0.00000000       0.00000000       0.00000000          1
H         9.56044159       8.70292963       6.75714553         0.00000000       0.00000000       0.00000000          1
H         6.88720517       9.10363210       7.46249330         0.00000000       0.00000000       0.00000000          1
H         8.43836113       7.24940693       8.86249759         0.00000000       0.00000000       0.00000000          1
H         9.07274840       5.96803771       6.46251203         0.00000000       0.00000000       0.00000000          1
6
pbc=[F, F, F] list_num_par=6 frozen=false iter=20000 energy=-1.26974174 Lattice="15.00000000 0.00000000 0.00000000 0.00000000 15.00000000 0.00000000 0.00000000 0.00000000 15.00000000" energy_frozen_part=0.00000000 Properties=species:S:1:pos:R:3:velocities:R:3:Z:I:1
H         6.39950827       6.36875547       7.16786607         0.00000000       0.00000000       0.00000000          1
H         7.52159154       7.82225962       5.06250735         0.00000000       0.00000000       0.00000000          1
H         9.56045916       8.70289867       6.75714071         0.00000000       0.00000000       0.00000000          1
H         6.88722581       9.10363416       7.46249074         0.00000000       0.00000000       0.00000000          1
H         8.43837242       7.24939409       8.86249632         0.00000000       0.00000000       0.00000000          1
H         9.07273592       5.96801535       6.46250927         0.00000000       0.00000000       0.00000000          1
6
pbc=[F, F, F] list_num_par=6 frozen=false iter=20000 energy=-1.26974174 Lattice="15.00000000 0.00000000 0.00000000 0.00000000 15.00000000 0.00000000 0.00000000 0.00000000 15.00000000" energy_frozen_part=0.00000000 Properties=species:S:1:pos:R:3:velocities:R:3:Z:I:1
H         6.39951312       6.36874226       7.16784856         0.00000000       0.00000000       0.00000000          1
H         7.52159267       7.82226680       5.06250155         0.00000000       0.00000000       0.00000000          1
H         9.56044560       8.70292192       6.75714282         0.00000000       0.00000000       0.00000000          1
H         6.88720820       9.10364152       7.46248427         0.00000000       0.00000000       0.00000000          1
H         8.43835716       7.24940837       8.86249475         0.00000000       0.00000000       0.00000000          1
H         9.07275228       5.96803051       6.46250806         0.00000000       0.00000000       0.00000000          1
6
pbc=[F, F, F] list_num_par=6 frozen=false iter=20000 energy=-1.26974174 Lattice="15.00000000 0.00000000 0.00000000 0.00000000 15.00000000 0.00000000 0.00000000 0.00000000 15.00000000" energy_frozen_part=0.00000000 Properties=species:S:1:pos:R:3:velocities:R:3:Z:I:1
H         6.39951178       6.36876311       7.16787235         0.00000000       0.00000000       0.00000000          1
H         7.52158980       7.82227004       5.06250644         0.00000000       0.00000000       0.00000000          1
H         9.56044043       8.70295040       6.75714503         0.00000000       0.00000000       0.00000000          1
H         6.88720444       9.10365507       7.46248472         0.00000000       0.00000000       0.00000000          1
H         8.43836631       7.24943344       8.86250844         0.00000000       0.00000000       0.00000000          1
H         9.07275353       5.96805902       6.46252821         0.00000000       0.00000000       0.00000000          1
6
pbc=[F, F, F] list_num_par=6 frozen=false iter=20000 energy=-1.26974174 Lattice="15.00000000 0.00000000 0.00000000 0.00000000 15.00000000 0.00000000 0.00000000 0.00000000 15.00000000" energy_frozen_part=0.00000000 Properties=species:S:1:pos:R:3:velocities:R:3:Z:I:1
H         6.39953724       6.36873995       7.16788946         0.00000000       0.00000000       0.00000000          1
H         7.52156803       7.82222120       5.06248681         0.00000000       0.00000000       0.00000000          1
H         9.56045520       8.70292592       6.75707346         0.00000000       0.00000000       0.00000000          1
H         6.88722944       9.10363787       7.46245733         0.00000000       0.00000000       0.00000000          1
H         8.43841336       7.24944100       8.86247360         0.00000000       0.00000000       0.00000000          1
H         9.07276347       5.96802442       6.46250628         0.00000000       0.00000000       0.00000000          1
6
pbc=[F, F, F] list_num_par=6 frozen=false iter=20000 energy=-1.26974174 Lattice="15.00000000 0.00000000 0.00000000 0.00000000 15.00000000 0.00000000 0.00000000 0.00000000 15.00000000" energy_frozen_part=0.00000000 Properties=species:S:1:pos:R:3:velocities:R:3:Z:I:1
H         6.39938216       6.36880780       7.16757145         0.00000000       0.00000000       0.00000000          1
H         7.52154731       7.82248213       5.06237657         0.00000000       0.00000000       0.00000000          1
H         9.56034718       8.70299034       6.75716198         0.00000000       0.00000000       0.00000000          1
H         6.88708155       9.10366962       7.46243181         0.00000000       0.00000000       0.00000000          1
H         8.43817207       7.24932095       8.86236283         0.00000000       0.00000000       0.00000000          1
H         9.07263924       5.96812786       6.46230179         0.00000000       0.00000000       0.00000000          1
6
pbc=[F, F, F] list_num_par=6 frozen=false iter=20000 energy=-1.26974174 Lattice="15.00000000 0.00000000 0.00000000 0.00000000 15.00000000 0.00000000 0.00000000 0.00000000 15.00000000" energy_frozen_part=0.00000000 Properties=species:S:1:pos:R:3:velocities:R:3:Z:I:1
H         6.39934021       6.36878525       7.16757876         0.00000000       0.00000000       0.00000000          1
H         7.52147286       7.82241098       5.06232494         0.00000000       0.00000000       0.00000000          1
H         9.56031057       8.70295001       6.75705396         0.00000000       0.00000000       0.00000000          1
H         6.88706602       9.10365070       7.46236666         0.00000000       0.00000000       0.00000000          1
H         8.43818000       7.24932388       8.86229947         0.00000000       0.00000000       0.00000000          1
H         9.07258343       5.96808222       6.46224954         0.00000000       0.00000000       0.00000000          1
6
pbc=[F, F, F] list_num_par=6 frozen=false iter=20000 energy=-1.26974174 Lattice="15.00000000 0.00000000 0.00000000 0.00000000 15.00000000 0.00000000 0.00000000 0.00000000 15.00000000" energy_frozen_part=0.00000000 Properties=species:S:1:pos:R:3:velocities:R:3:Z:I:1
H         6.40093516       6.36833065       7.16875474         0.00000000       0.00000000       0.00000000          1
H         7.52366476       7.82041069       5.06275562         0.00000000       0.00000000       0.00000000          1
H         9.56224633       8.70188013       6.75731332         0.00000000       0.00000000       0.00000000          1
H         6.88889579       9.10334076       7.46180707         0.00000000       0.00000000       0.00000000          1
H         8.43951936       7.24978911       8.86330738         0.00000000       0.00000000       0.00000000          1
H         9.07428934       5.96686364       6.46425858         0.00000000       0.00000000       0.00000000          1
6
pbc=[F, F, F] list_num_par=6 frozen=false iter=20000 energy=-1.26974174 Lattice="15.00000000 0.00000000 0.00000000 0.00000000 15.00000000 0.00000000 0.00000000 0.00000000 15.00000000" energy_frozen_part=0.00000000 Properties=species:S:1:pos:R:3:velocities:R:3:Z:I:1
H         6.39949713       6.36876794       7.16786928         0.00000000       0.00000000       0.00000000          1
H         7.52158737       7.82226715       5.06250289         0.00000000       0.00000000       0.00000000          1
H         9.56046208       8.70290427       6.75712562         0.00000000       0.00000000       0.00000000          1
H         6.88723421       9.10365376       7.46249078         0.00000000       0.00000000       0.00000000          1
H         8.43837892       7.24940169       8.86248121         0.00000000       0.00000000       0.00000000          1
H         9.07272990       5.96801825       6.46249890         0.00000000       0.00000000       0.00000000          1
6
pbc=[F, F, F] list_num_par=6 frozen=false iter=20000 energy=-1.26974174 Lattice="15.00000000 0.00000000 0.00000000 0.00000000 15.00000000 0.00000000 0.00000000 0.00000000 15.00000000" energy_frozen_part=0.00000000 Properties=species:S:1:pos:R:3:velocities:R:3:Z:I:1
H         6.40266827       6.37008152       7.16932738         0.00000000       0.00000000       0.00000000          1
H         7.52136153       7.82277190       5.06160602         0.00000000       0.00000000       0.00000000          1
H         9.56302557       8.70395943       6.75257613         0.00000000       0.00000000       0.00000000          1
H         6.89096073       9.10505734       7.46215321         0.00000000       0.00000000       0.00000000          1
H         8.44433976       7.25127396       8.86029844         0.00000000       0.00000000       0.00000000          1
H         9.07472520       5.96898236       6.45975106         0.00000000       0.00000000       0.00000000          1
6
pbc=[F, F, F] list_num_par=6 frozen=false iter=20000 energy=-1.26974174 Lattice="15.00000000 0.00000000 0.00000000 0.00000000 15.00000000 0.00000000 0.00000000 0.00000000 15.00000000" energy_frozen_part=0.00000000 Properties=species:S:1:pos:R:3:velocities:R:3:Z:I:1
H         6.40088710       6.36840326       7.16876079         0.00000000       0.00000000       0.00000000          1
H         7.52359022       7.82049197       5.06274905         0.00000000       0.00000000       0.00000000          1
H         9.56219164       8.70195078       6.75727387         0.00000000       0.00000000       0.00000000          1
H         6.88885257       9.10341971       7.46180918         0.00000000       0.00000000       0.00000000          1
H         8.43949057       7.24986151       8.86328162         0.00000000       0.00000000       0.00000000          1
H         9.07422522       5.96692848       6.46422558         0.00000000       0.00000000       0.00000000          1
6
pbc=[F, F, F] list_num_par=6 frozen=false iter=20000 energy=-1.26974174 Lattice="15.00000000 0.00000000 0.00000000 0.00000000 15.00000000 0.00000000 0.00000000 0.00000000 15.00000000" energy_frozen_part=0.00000000 Properties=species:S:1:pos:R:3:velocities:R:3:Z:I:1
H         6.39938288       6.36880282       7.16758128         0.00000000       0.00000000       0.00000000          1
H         7.52153047       7.82244078       5.06235498         0.00000000       0.00000000       0.00000000          1
H         9.56034419       8.70297354       6.75710852         0.00000000       0.00000000       0.00000000          1
H         6.88709284       9.10366823       7.46240968         0.00000000       0.00000000       0.00000000          1
H         8.43819361       7.24932774       8.86233524         0.00000000       0.00000000       0.00000000          1
H         9.07263720       5.96811184       6.46228613         0.00000000       0.00000000       0.00000000          1
6
pbc=[F, F, F] list_num_par=6 frozen=false iter=20000 energy=-1.26974174 Lattice="15.00000000 0.00000000 0.00000000 0.00000000 15.00000000 0.00000000 0.00000000 0.00000000 15.00000000" energy_frozen_part=0.00000000 Properties=species:S:1:pos:R:3:velocities:R:3:Z:I:1
H         6.39949496       6.36876759       7.16786281         0.00000000       0.00000000       0.00000000          1
H         7.52158906       7.82227055       5.06250137         0.00000000       0.00000000       0.00000000          1
H         9.56046643       8.70290112       6.75713818         0.00000000       0.00000000       0.00000000          1
H         6.88723942       9.10364967       7.46249188         0.00000000       0.00000000       0.00000000          1
H         8.43836854       7.24939627       8.86249139         0.00000000       0.00000000       0.00000000          1
H         9.07272235       5.96801618       6.46250620         0.00000000       0.00000000       0.00000000          1
6
pbc=[F, F, F] list_num_par=6 frozen=false iter=20000 energy=-1.26974174 Lattice="15.00000000 0.00000000 0.00000000 0.00000000 15.00000000 0.00000000 0.00000000 0.00000000 15.00000000" energy_frozen_part=0.00000000 Properties=species:S:1:pos:R:3:velocities:R:3:Z:I:1
H         6.39938777       6.36879040       7.16757505         0.00000000       0.00000000       0.00000000          1
H         7.52154932       7.82243979       5.06234927         0.00000000       0.00000000       0.00000000          1
H         9.56034664       8.70297836       6.75712032         0.00000000       0.00000000       0.00000000          1
H         6.88708515       9.10366010       7.46238847         0.00000000       0.00000000       0.00000000          1
H         8.43818916       7.24933374       8.86233709         0.00000000       0.00000000       0.00000000          1
H         9.07265053       5.96811310       6.46229164         0.00000000       0.00000000       0.00000000          1
6
pbc=[F, F, F] list_num_par=6 frozen=false iter=20000 energy=-1.26974174 Lattice="15.00000000 0.00000000 0.00000000 0.00000000 15.00000000 0.00000000 0.00000000 0.00000000 15.00000000" energy_frozen_part=0.00000000 Properties=species:S:1:pos:R:3:velocities:R:3:Z:I:1
H         6.39952699       6.36873096       7.16787020         0.00000000       0.00000000       0.00000000          1
H         7.52159291       7.82224805       5.06251077         0.00000000       0.00000000       0.00000000          1
H         9.56044131       8.70293935       6.75713349         0.00000000       0.00000000       0.00000000          1
H         6.88719966       9.10362511       7.46249412         0.00000000       0.00000000       0.00000000          1
H         8.43838742       7.24941524       8.86249560         0.00000000       0.00000000       0.00000000          1
H         9.07277107       5.96803610       6.46252011         0.00000000       0.00000000       0.00000000          1
6
pbc=[F, F, F] list_num_par=6 frozen=false iter=20000 energy=-1.26974174 Lattice="15.00000000 0.00000000 0.00000000 0.00000000 15.00000000 0.00000000 0.00000000 0.00000000 15.00000000" energy_frozen_part=0.00000000 Properties=species:S:1:pos:R:3:velocities:R:3:Z:I:1
H         6.40178404       6.36785828       7.16822816         0.00000000       0.00000000       0.00000000          1
H         7.52334551       7.82211449       5.06311116         0.00000000       0.00000000       0.00000000          1
H         9.56182473       8.70330885       6.75792039         0.00000000       0.00000000       0.00000000          1
H         6.88841634       9.10288951       7.46326614         0.00000000       0.00000000       0.00000000          1
H         8.44025769       7.24905873       8.86304326         0.00000000       0.00000000       0.00000000          1
H         9.07519318       5.96827456       6.46288401         0.00000000       0.00000000       0.00000000          1
6
pbc=[F, F, F] list_num_par=6 frozen=false iter=20000 energy=-1.26974174 Lattice="15.00000000 0.00000000 0.00000000 0.00000000 15.00000000 0.00000000 0.00000000 0.00000000 15.00000000" energy_frozen_part=0.00000000 Properties=species:S:1:pos:R:3:velocities:R:3:Z:I:1
H         6.39951761       6.36864824       7.16747174         0.00000000       0.00000000       0.00000000          1
H         7.52156367       7.82262241       5.06241393         0.00000000       0.00000000       0.00000000          1
H         9.56041492       8.70295889       6.75722346         0.00000000       0.00000000       0.00000000          1
H         6.88716824       9.10348102       7.46266651         0.00000000       0.00000000       0.00000000          1
H         8.43836571       7.24899147       8.86228154         0.00000000       0.00000000       0.00000000          1
H         9.07275944       5.96812587       6.46203336         0.00000000       0.00000000       0.00000000          1
6
pbc=[F, F, F] list_num_par=6 frozen=false iter=20000 energy=-1.26974174 Lattice="15.00000000 0.00000000 0.00000000 0.00000000 15.00000000 0.00000000 0.00000000 0.00000000 15.00000000" energy_frozen_part=0.00000000 Properties=species:S:1:pos:R:3:velocities:R:3:Z:I:1
H         6.40179501       6.36787763       7.16823803         0.00000000       0.00000000       0.00000000          1
H         7.52336967       7.82209186       5.06309481         0.00000000       0.00000000       0.00000000          1
H         9.56184394       8.70331433       6.75790161         0.00000000       0.00000000       0.00000000          1
H         6.88843865       9.10291220       7.46322923         0.00000000       0.00000000       0.00000000          1
H         8.44026655       7.24909882       8.86304021         0.00000000       0.00000000       0.00000000          1
H         9.07520282       5.96828139       6.46290284         0.00000000       0.00000000       0.00000000          1
6
pbc=[F, F, F] list_num_par=6 frozen=false iter=20000 energy=-1.26974174 Lattice="15.00000000 0.00000000 0.00000000 0.00000000 15.00000000 0.00000000 0.00000000 0.00000000 15.00000000" energy_frozen_part=0.00000000 Properties=species:S:1:pos:R:3:velocities:R:3:Z:I:1
H         6.39950958       6.36874539       7.16785937         0.00000000       0.00000000       0.00000000          1
H         7.52159187       7.82225771       5.06249762         0.00000000       0.00000000       0.00000000          1
H         9.56044472       8.70291784       6.75713417         0.00000000       0.00000000       0.00000000          1
H         6.88720641       9.10363046       7.46248676         0.00000000       0.00000000       0.00000000          1
H         8.43836897       7.24940257       8.86249517         0.00000000       0.00000000       0.00000000          1
H         9.07274183       5.96802465       6.46251076         0.00000000       0.00000000       0.00000000          1
6
pbc=[F, F, F] list_num_par=6 frozen=false iter=20000 energy=-1.26974174 Lattice="15.00000000 0.00000000 0.00000000 0.00000000 15.00000000 0.00000000 0.00000000 0.00000000 15.00000000" energy_frozen_part=0.00000000 Properties=species:S:1:pos:R:3:velocities:R:3:Z:I:1
H         6.40267219       6.37007415       7.16933579         0.00000000       0.00000000       0.00000000          1
H         7.52135209       7.82277928       5.06160685         0.00000000       0.00000000       0.00000000          1
H         9.56302640       8.70396286       6.75257420         0.00000000       0.00000000       0.00000000          1
H         6.89096717       9.10504814       7.46216275         0.00000000       0.00000000       0.00000000          1
H         8.44434182       7.25125740       8.86029840         0.00000000       0.00000000       0.00000000          1
H         9.07472925       5.96898739       6.45973771         0.00000000       0.00000000       0.00000000          1
6
pbc=[F, F, F] list_num_par=6 frozen=false iter=20000 energy=-1.26974174 Lattice="15.00000000 0.00000000 0.00000000 0.00000000 15.00000000 0.00000000 0.00000000 0.00000000 15.00000000" energy_frozen_part=0.00000000 Properties=species:S:1:pos:R:3:velocities:R:3:Z:I:1
H         6.39953657       6.36870937       7.16790532         0.00000000       0.00000000       0.00000000          1
H         7.52159313       7.82222366       5.06253245         0.00000000       0.00000000       0.00000000          1
H         9.56042300       8.70295268       6.75716926         0.00000000       0.00000000       0.00000000          1
H         6.88716826       9.10361342       7.46249459         0.00000000       0.00000000       0.00000000          1
H         8.43835979       7.24943781       8.86254070         0.00000000       0.00000000       0.00000000          1
H         9.07278453       5.96804686       6.46257172         0.00000000       0.00000000       0.00000000          1
6
pbc=[F, F, F] list_num_par=6 frozen=false iter=20000 energy=-1.26974174 Lattice="15.00000000 0.00000000 0.00000000 0.00000000 15.00000000 0.00000000 0.00000000 0.00000000 15.00000000" energy_frozen_part=0.00000000 Properties=species:S:1:pos:R:3:velocities:R:3:Z:I:1
H         6.39937089       6.36878430       7.16754619         0.00000000       0.00000000       0.00000000          1
H         7.52152738       7.82244910       5.06233703         0.00000000       0.00000000       0.00000000          1
H         9.56034307       8.70296229       6.75710686         0.00000000       0.00000000       0.00000000          1
H         6.88708220       9.10365057       7.46239013         0.00000000       0.00000000       0.00000000          1
H         8.43817574       7.24930266       8.86231428         0.00000000       0.00000000       0.00000000          1
H         9.07262881       5.96810519       6.46225295         0.00000000       0.00000000       0.00000000          1
6
pbc=[F, F, F] list_num_par=6 frozen=false iter=20000 energy=-1.26974174 Lattice="15.00000000 0.00000000 0.00000000 0.00000000 15.00000000 0.00000000 0.00000000 0.00000000 15.00000000" energy_frozen_part=0.00000000 Properties=species:S:1:pos:R:3:velocities:R:3:Z:I:1
H         6.39933468       6.36878994       7.16756503         0.00000000       0.00000000       0.00000000          1
H         7.52148144       7.82241086       5.06231871         0.00000000       0.00000000       0.00000000          1
H         9.56031369       8.70293648       6.75704973         0.00000000       0.00000000       0.00000000          1
H         6.88706384       9.10365799       7.46235516         0.00000000       0.00000000       0.00000000          1
H         8.43816501       7.24931808       8.86229050         0.00000000       0.00000000       0.00000000          1
H         9.07258141       5.96807256       6.46224348         0.00000000       0.00000000       0.00000000          1
6
pbc=[F, F, F] list_num_par=6 frozen=false iter=20000 energy=-1.26974174 Lattice="15.00000000 0.00000000 0.00000000 0.00000000 15.00000000 0.00000000 0.00000000 0.00000000 15.00000000" energy_frozen_part=0.00000000 Properties=species:S:1:pos:R:3:velocities:R:3:Z:I:1
H         6.40094707       6.36831740       7.16872810         0.00000000       0.00000000       0.00000000          1
H         7.52367864       7.82042242       5.06274739         0.00000000       0.00000000       0.00000000          1
H         9.56224272       8.70188203       6.75731138         0.00000000       0.00000000       0.00000000          1
H         6.88889241       9.10333042       7.46180259         0.00000000       0.00000000       0.00000000          1
H         8.43951921       7.24977770       8.86328873         0.00000000       0.00000000       0.00000000          1
H         9.07429881       5.96686782       6.46422996         0.00000000       0.00000000       0.00000000          1
6
pbc=[F, F, F] list_num_par=6 frozen=false iter=20000 energy=-1.26974174 Lattice="15.00000000 0.00000000 0.00000000 0.00000000 15.00000000 0.00000000 0.00000000 0.00000000 15.00000000" energy_frozen_part=0.00000000 Properties=species:S:1:pos:R:3:velocities:R:3:Z:I:1
H         6.39954630       6.36872034       7.16788938         0.00000000       0.00000000       0.00000000          1
H         7.52158351       7.82218564       5.06247935         0.00000000       0.00000000       0.00000000          1
H         9.56044500       8.70292684       6.75706930         0.00000000       0.00000000       0.00000000          1
H         6.88721400       9.10362177       7.46243270         0.00000000       0.00000000       0.00000000          1
H         8.43840956       7.24945652       8.86247843         0.00000000       0.00000000       0.00000000          1
H         9.07278258       5.96802244       6.46251856         0.00000000       0.00000000       0.00000000          1
6
pbc=[F, F, F] list_num_par=6 frozen=false iter=20000 energy=-1.26974174 Lattice="15.00000000 0.00000000 0.00000000 0.00000000 15.00000000 0.00000000 0.00000000 0.00000000 15.00000000" energy_frozen_part=0.00000000 Properties=species:S:1:pos:R:3:velocities:R:3:Z:I:1
H         6.40174166       6.36789599       7.16818709         0.00000000       0.00000000       0.00000000          1
H         7.52343663       7.82215607       5.06314481         0.00000000       0.00000000       0.00000000          1
H         9.56188601       8.70323871       6.75805315         0.00000000       0.00000000       0.00000000          1
H         6.88847480       9.10290441       7.46331200         0.00000000       0.00000000       0.00000000          1
H         8.44019435       7.24897676       8.86309538         0.00000000       0.00000000       0.00000000          1
H         9.07516067       5.96823252       6.46292445         0.00000000       0.00000000       0.00000000          1
6
pbc=[F, F, F] list_num_par=6 frozen=false iter=20000 energy=-1.26974174 Lattice="15.00000000 0.00000000 0.00000000 0.00000000 15.00000000 0.00000000 0.00000000 0.00000000 15.00000000" energy_frozen_part=0.00000000 Properties=species:S:1:pos:R:3:velocities:R:3:Z:I:1
H         6.39952832       6.36874648       7.16789107         0.00000000       0.00000000       0.00000000          1
H         7.52156050       7.82221861       5.06248487         0.00000000       0.00000000       0.00000000          1
H         9.56045012       8.70292967       6.75706252         0.00000000       0.00000000       0.00000000          1
H         6.88722687       9.10364406       7.46245610         0.00000000       0.00000000       0.00000000          1
H         8.43841668       7.24944803       8.86246627         0.00000000       0.00000000       0.00000000          1
H         9.07275942       5.96803271       6.46249750         0.00000000       0.00000000       0.00000000          1
6
pbc=[F, F, F] list_num_par=6 frozen=false iter=20000 energy=-1.26974174 Lattice="15.00000000 0.00000000 0.00000000 0.00000000 15.00000000 0.00000000 0.00000000 0.00000000 15.00000000" energy_frozen_part=0.00000000 Properties=species:S:1:pos:R:3:velocities:R:3:Z:I:1
H         6.39951079       6.36871320       7.16791318         0.00000000       0.00000000       0.00000000          1
H         7.52158957       7.82219528       5.06253726         0.00000000       0.00000000       0.00000000          1
H         9.56041742       8.70292411       6.75716750         0.00000000       0.00000000       0.00000000          1
H         6.88717310       9.10361914       7.46248144         0.00000000       0.00000000       0.00000000          1
H         8.43833677       7.24943419       8.86254418         0.00000000       0.00000000       0.00000000          1
H         9.07275834       5.96801438       6.46259478         0.00000000       0.00000000       0.00000000          1
6
pbc=[F, F, F] list_num_par=6 frozen=false iter=20000 energy=-1.26974174 Lattice="15.00000000 0.00000000 0.00000000 0.00000000 15.00000000 0.00000000 0.00000000 0.00000000 15.00000000" energy_frozen_part=0.00000000 Properties=species:S:1:pos:R:3:velocities:R:3:Z:I:1
H         6.39953400       6.36870053       7.16788516         0.00000000       0.00000000       0.00000000          1
H         7.52160084       7.82221841       5.06252963         0.00000000       0.00000000       0.00000000          1
H         9.56043031       8.70293220       6.75717928         0.00000000       0.00000000       0.00000000          1
H         6.88717448       9.10360646       7.46249177         0.00000000       0.00000000       0.00000000          1
H         8.43835010       7.24942118       8.86253722         0.00000000       0.00000000       0.00000000          1
H         9.07278874       5.96803067       6.46257404         0.00000000       0.00000000       0.00000000          1
6
pbc=[F, F, F] list_num_par=6 frozen=false iter=20000 energy=-1.26974174 Lattice="15.00000000 0.00000000 0.00000000 0.00000000 15.00000000 0.00000000 0.00000000 0.00000000 15.00000000" energy_frozen_part=0.00000000 Properties=species:S:1:pos:R:3:velocities:R:3:Z:I:1
H         6.40094685       6.36833049       7.16874872         0.00000000       0.00000000       0.00000000          1
H         7.52368112       7.82041708       5.06275337         0.00000000       0.00000000       0.00000000          1
H         9.56225524       8.70187849       6.75730915         0.00000000       0.00000000       0.00000000          1
H         6.88890152       9.10334367       7.46179915         0.00000000       0.00000000       0.00000000          1
H         8.43952146       7.24978761       8.86330229         0.00000000       0.00000000       0.00000000          1
H         9.07429959       5.96686165       6.46425826         0.00000000       0.00000000       0.00000000          1
6
pbc=[F, F, F] list_num_par=6 frozen=false iter=20000 energy=-1.26974174 Lattice="15.00000000 0.00000000 0.00000000 0.00000000 15.00000000 0.00000000 0.00000000 0.00000000 15.00000000" energy_frozen_part=0.00000000 Properties=species:S:1:pos:R:3:velocities:R:3:Z:I:1
H         6.39937150       6.36880514       7.16753878         0.00000000       0.00000000       0.00000000          1
H         7.52157785       7.82245688       5.06234542         0.00000000       0.00000000       0.00000000          1
H         9.56036115       8.70297344       6.75713935         0.00000000       0.00000000       0.00000000          1
H         6.88708910       9.10366854       7.46238656         0.00000000       0.00000000       0.00000000          1
H         8.43816180       7.24931578       8.86232920         0.00000000       0.00000000       0.00000000          1
H         9.07263936       5.96810587       6.46228882         0.00000000       0.00000000       0.00000000          1
6
pbc=[F, F, F] list_num_par=6 frozen=false iter=20000 energy=-1.26974174 Lattice="15.00000000 0.00000000 0.00000000 0.00000000 15.00000000 0.00000000 0.00000000 0.00000000 15.00000000" energy_frozen_part=0.00000000 Properties=species:S:1:pos:R:3:velocities:R:3:Z:I:1
H         6.39954543       6.36872837       7.16791207         0.00000000       0.00000000       0.00000000          1
H         7.52159306       7.82221314       5.06252135         0.00000000       0.00000000       0.00000000          1
H         9.56045448       8.70291508       6.75712280         0.00000000       0.00000000       0.00000000          1
H         6.88722028       9.10362217       7.46249552         0.00000000       0.00000000       0.00000000          1
H         8.43841499       7.24942889       8.86251278         0.00000000       0.00000000       0.00000000          1
H         9.07277443       5.96801580       6.46254677         0.00000000       0.00000000       0.00000000          1
6
pbc=[F, F, F] list_num_par=6 frozen=false iter=20000 energy=-1.26974174 Lattice="15.00000000 0.00000000 0.00000000 0.00000000 15.00000000 0.00000000 0.00000000 0.00000000 15.00000000" energy_frozen_part=0.00000000 Properties=species:S:1:pos:R:3:velocities:R:3:Z:I:1
H         6.39954210       6.36868935       7.16789560         0.00000000       0.00000000       0.00000000          1
H         7.52159801       7.82220305       5.06252233         0.00000000       0.00000000       0.00000000          1
H         9.56041470       8.70294701       6.75716404         0.00000000       0.00000000       0.00000000          1
H         6.88715729       9.10359875       7.46248398         0.00000000       0.00000000       0.00000000          1
H         8.43835631       7.24944184       8.86253292         0.00000000       0.00000000       0.00000000          1
H         9.07279443       5.96804292       6.46257686         0.00000000       0.00000000       0.00000000          1
6
pbc=[F, F, F] list_num_par=6 frozen=false iter=20000 energy=-1.26974174 Lattice="15.00000000 0.00000000 0.00000000 0.00000000 15.00000000 0.00000000 0.00000000 0.00000000 15.00000000" energy_frozen_part=0.00000000 Properties=species:S:1:pos:R:3:velocities:R:3:Z:I:1
H         6.40268425       6.37005534       7.16928869         0.00000000       0.00000000       0.00000000          1
H         7.52134669       7.82276453       5.06157273         0.00000000       0.00000000       0.00000000          1
H         9.56301644       8.70396295       6.75253393         0.00000000       0.00000000       0.00000000          1
H         6.89095627       9.10503533       7.46213206         0.00000000       0.00000000       0.00000000          1
H         8.44434749       7.25125282       8.86025562         0.00000000       0.00000000       0.00000000          1
H         9.07474286       5.96898414       6.45969254         0.00000000       0.00000000       0.00000000          1
6
pbc=[F, F, F] list_num_par=6 frozen=false iter=20000 energy=-1.26974174 Lattice="15.00000000 0.00000000 0.00000000 0.00000000 15.00000000 0.00000000 0.00000000 0.00000000 15.00000000" energy_frozen_part=0.00000000 Properties=species:S:1:pos:R:3:velocities:R:3:Z:I:1
H         6.40088029       6.36841240       7.16876182         0.00000000       0.00000000       0.00000000          1
H         7.52358595       7.82049523       5.06274851         0.00000000       0.00000000       0.00000000          1
H         9.56219231       8.70195244       6.75727930         0.00000000       0.00000000       0.00000000          1
H         6.88885601       9.10342400       7.46180953         0.00000000       0.00000000       0.00000000          1
H         8.43948831       7.24987045       8.86328516         0.00000000       0.00000000       0.00000000          1
H         9.07422079       5.96693744       6.46422850         0.00000000       0.00000000       0.00000000          1
6
pbc=[F, F, F] list_num_par=6 frozen=false iter=20000 energy=-1.26974174 Lattice="15.00000000 0.00000000 0.00000000 0.00000000 15.00000000 0.00000000 0.00000000 0.00000000 15.00000000" energy_frozen_part=0.00000000 Properties=species:S:1:pos:R:3:velocities:R:3:Z:I:1
H         6.40174468       6.36788276       7.16822564         0.00000000       0.00000000       0.00000000          1
H         7.52335409       7.82215226       5.06314460         0.00000000       0.00000000       0.00000000          1
H         9.56184477       8.70325883       6.75798296         0.00000000       0.00000000       0.00000000          1
H         6.88844876       9.10289607       7.46333165         0.00000000       0.00000000       0.00000000          1
H         8.44024281       7.24898282       8.86305868         0.00000000       0.00000000       0.00000000          1
H         9.07513762       5.96823813       6.46287621         0.00000000       0.00000000       0.00000000          1
6
pbc=[F, F, F] list_num_par=6 frozen=false iter=20000 energy=-1.26974174 Lattice="15.00000000 0.00000000 0.00000000 0.00000000 15.00000000 0.00000000 0.00000000 0.00000000 15.00000000" energy_frozen_part=0.00000000 Properties=species:S:1:pos:R:3:velocities:R:3:Z:I:1
H         6.39950027       6.36875289       7.16786114         0.00000000       0.00000000       0.00000000          1
H         7.52158526       7.82226855       5.06250248         0.00000000       0.00000000       0.00000000          1
H         9.56045681       8.70290106       6.75713960         0.00000000       0.00000000       0.00000000          1
H         6.88722298       9.10363765       7.46249398         0.00000000       0.00000000       0.00000000          1
H         8.43837435       7.24939403       8.86249505         0.00000000       0.00000000       0.00000000          1
H         9.07273037       5.96801818       6.46250078         0.00000000       0.00000000       0.00000000          1
6
pbc=[F, F, F] list_num_par=6 frozen=false iter=20000 energy=-1.26974174 Lattice="15.00000000 0.00000000 0.00000000 0.00000000 15.00000000 0.00000000 0.00000000 0.00000000 15.00000000" energy_frozen_part=0.00000000 Properties=species:S:1:pos:R:3:velocities:R:3:Z:I:1
H         6.40089837       6.36840806       7.16873328         0.00000000       0.00000000       0.00000000          1
H         7.52362212       7.82051010       5.06274439         0.00000000       0.00000000       0.00000000          1
H         9.56220391       8.70196426       6.75729535         0.00000000       0.00000000       0.00000000          1
H         6.88884699       9.10342287       7.46179447         0.00000000       0.00000000       0.00000000          1
H         8.43947719       7.24986923       8.86328412         0.00000000       0.00000000       0.00000000          1
H         9.07424860       5.96695283       6.46422841         0.00000000       0.00000000       0.00000000          1
6
pbc=[F, F, F] list_num_par=6 frozen=false iter=20000 energy=-1.26974174 Lattice="15.00000000 0.00000000 0.00000000 0.00000000 15.00000000 0.00000000 0.00000000 0.00000000 15.00000000" energy_frozen_part=0.00000000 Properties=species:S:1:pos:R:3:velocities:R:3:Z:I:1
H         6.39954300       6.36872190       7.16791668         0.00000000       0.00000000       0.00000000          1
H         7.52158997       7.82221613       5.06253241         0.00000000       0.00000000       0.00000000          1
H         9.56044698       8.70292653       6.75714481         0.00000000       0.00000000       0.00000000          1
H         6.88721375       9.10361632       7.46250830         0.00000000       0.00000000       0.00000000          1
H         8.43840395       7.24942095       8.86252649         0.00000000       0.00000000       0.00000000          1
H         9.07278528       5.96802696       6.46255795         0.00000000       0.00000000       0.00000000          1
6
pbc=[F, F, F] list_num_par=6 frozen=false iter=20000 energy=-1.26974174 Lattice="15.00000000 0.00000000 0.00000000 0.00000000 15.00000000 0.00000000 0.00000000 0.00000000 15.00000000" energy_frozen_part=0.00000000 Properties=species:S:1:pos:R:3:velocities:R:3:Z:I:1
H         6.39935832       6.36877393       7.16755923         0.00000000       0.00000000       0.00000000          1
H         7.52150669       7.82239484       5.06231311         0.00000000       0.00000000       0.00000000          1
H         9.56031076       8.70295797       6.75705189         0.00000000       0.00000000       0.00000000          1
H         6.88705888       9.10365278       7.46234243         0.00000000       0.00000000       0.00000000          1
H         8.43816154       7.24934229       8.86230182         0.00000000       0.00000000       0.00000000          1
H         9.07261825       5.96808446       6.46227670         0.00000000       0.00000000       0.00000000          1
6
pbc=[F, F, F] list_num_par=6 frozen=false iter=20000 energy=-1.26974174 Lattice="15.00000000 0.00000000 0.00000000 0.00000000 15.00000000 0.00000000 0.00000000 0.00000000 15.00000000" energy_frozen_part=0.00000000 Properties=species:S:1:pos:R:3:velocities:R:3:Z:I:1
H         6.40175111       6.36789433       7.16818681         0.00000000       0.00000000       0.00000000          1
H         7.52344322       7.82215718       5.06314583         0.00000000       0.00000000       0.00000000          1
H         9.56188447       8.70325437       6.75805128         0.00000000       0.00000000       0.00000000          1
H         6.88846747       9.10290235       7.46330565         0.00000000       0.00000000       0.00000000          1
H         8.44019443       7.24898747       8.86309826         0.00000000       0.00000000       0.00000000          1
H         9.07517259       5.96824417       6.46293203         0.00000000       0.00000000       0.00000000          1
6
pbc=[F, F, F] list_num_par=6 frozen=false iter=20000 energy=-1.26974174 Lattice="15.00000000 0.00000000 0.00000000 0.00000000 15.00000000 0.00000000 0.00000000 0.00000000 15.00000000" energy_frozen_part=0.00000000 Properties=species:S:1:pos:R:3:velocities:R:3:Z:I:1
H         6.39948635       6.36866922       7.16747643         0.00000000       0.00000000       0.00000000          1
H         7.52154895       7.82262699       5.06241337         0.00000000       0.00000000       0.00000000          1
H         9.56038492       8.70297542       6.75723220         0.00000000       0.00000000       0.00000000          1
H         6.88714183       9.10351043       7.46265799         0.00000000       0.00000000       0.00000000          1
H         8.43832938       7.24901736       8.86228930         0.00000000       0.00000000       0.00000000          1
H         9.07272822       5.96813195       6.46205430         0.00000000       0.00000000       0.00000000          1
6
pbc=[F, F, F] list_num_par=6 frozen=false iter=20000 energy=-1.26974174 Lattice="15.00000000 0.00000000 0.00000000 0.00000000 15.00000000 0.00000000 0.00000000 0.00000000 15.00000000" energy_frozen_part=0.00000000 Properties=species:S:1:pos:R:3:velocities:R:3:Z:I:1
H         6.40178134       6.36785803       7.16823212         0.00000000       0.00000000       0.00000000          1
H         7.52334245       7.82211416       5.06311236         0.00000000       0.00000000       0.00000000          1
H         9.56182913       8.70331738       6.75790474         0.00000000       0.00000000       0.00000000          1
H         6.88841972       9.10289662       7.46326711         0.00000000       0.00000000       0.00000000          1
H         8.44026824       7.24906261       8.86303153         0.00000000       0.00000000       0.00000000          1
H         9.07518869       5.96827992       6.46287983         0.00000000       0.00000000       0.00000000          1
6
pbc=[F, F, F] list_num_par=6 frozen=false iter=20000 energy=-1.26974174 Lattice="15.00000000 0.00000000 0.00000000 0.00000000 15.00000000 0.00000000 0.00000000 0.00000000 15.00000000" energy_frozen_part=0.00000000 Properties=species:S:1:pos:R:3:velocities:R:3:Z:I:1
H         6.39954144       6.36871173       7.16793056         0.00000000       0.00000000       0.00000000          1
H         7.52158222       7.82220003       5.06253725         0.00000000       0.00000000       0.00000000          1
H         9.56044341       8.70291590       6.75714349         0.00000000       0.00000000       0.00000000          1
H         6.88720666       9.10361115       7.46250398         0.00000000       0.00000000       0.00000000          1
H         8.43839649       7.24942717       8.86253773         0.00000000       0.00000000       0.00000000          1
H         9.07278014       5.96801160       6.46257243         0.00000000       0.00000000       0.00000000          1
6
pbc=[F, F, F] list_num_par=6 frozen=false iter=20000 energy=-1.26974174 Lattice="15.00000000 0.00000000 0.00000000 0.00000000 15.00000000 0.00000000 0.00000000 0.00000000 15.00000000" energy_frozen_part=0.00000000 Properties=species:S:1:pos:R:3:velocities:R:3:Z:I:1
H         6.40090075       6.36841827       7.16872320         0.00000000       0.00000000       0.00000000          1
H         7.52363210       7.82052075       5.06274245         0.00000000       0.00000000       0.00000000          1
H         9.56220159       8.70196267       6.75731617         0.00000000       0.00000000       0.00000000          1
H         6.88885235       9.10342735       7.46180613         0.00000000       0.00000000       0.00000000          1
H         8.43947247       7.24985852       8.86329400         0.00000000       0.00000000       0.00000000          1
H         9.07425324       5.96695781       6.46423390         0.00000000       0.00000000       0.00000000          1
6
pbc=[F, F, F] list_num_par=6 frozen=false iter=20000 energy=-1.26974174 Lattice="15.00000000 0.00000000 0.00000000 0.00000000 15.00000000 0.00000000 0.00000000 0.00000000 15.00000000" energy_frozen_part=0.00000000 Properties=species:S:1:pos:R:3:velocities:R:3:Z:I:1
H         6.39938056       6.36879757       7.16756966         0.00000000       0.00000000       0.00000000          1
H         7.52155583       7.82247267       5.06238247         0.00000000       0.00000000       0.00000000          1
H         9.56034848       8.70298549       6.75716947         0.00000000       0.00000000       0.00000000          1
H         6.88708232       9.10366242       7.46243907         0.00000000       0.00000000       0.00000000          1
H         8.43816738       7.24930827       8.86236472         0.00000000       0.00000000       0.00000000          1
H         9.07264275       5.96812472       6.46230137         0.00000000       0.00000000       0.00000000          1
6
pbc=[F, F, F] list_num_par=6 frozen=false iter=20000 energy=-1.26974174 Lattice="15.00000000 0.00000000 0.00000000 0.00000000 15.00000000 0.00000000 0.00000000 0.00000000 15.00000000" energy_frozen_part=0.00000000 Properties=species:S:1:pos:R:3:velocities:R:3:Z:I:1
H         6.39953500       6.36875881       7.16791533         0.00000000       0.00000000       0.00000000          1
H         7.52157223       7.82222339       5.06250154         0.00000000       0.00000000       0.00000000          1
H         9.56046369       8.70293044       6.75707182         0.00000000       0.00000000       0.00000000          1
H         6.88723793       9.10365923       7.46246081         0.00000000       0.00000000       0.00000000          1
H         8.43842771       7.24946963       8.86248659         0.00000000       0.00000000       0.00000000          1
H         9.07275723       5.96803634       6.46252473         0.00000000       0.00000000       0.00000000          1
6
pbc=[F, F, F] list_num_par=6 frozen=false iter=20000 energy=-1.26974174 Lattice="15.00000000 0.00000000 0.00000000 0.00000000 15.00000000 0.00000000 0.00000000 0.00000000 15.00000000" energy_frozen_part=0.00000000 Properties=species:S:1:pos:R:3:velocities:R:3:Z:I:1
H         6.39951049       6.36874619       7.16786557         0.00000000       0.00000000       0.00000000          1
H         7.52157182       7.82226378       5.06251114         0.00000000       0.00000000       0.00000000          1
H         9.56044540       8.70291666       6.75713160         0.00000000       0.00000000       0.00000000          1
H         6.88721656       9.10363595       7.46249977         0.00000000       0.00000000       0.00000000          1
H         8.43837299       7.24940054       8.86249297         0.00000000       0.00000000       0.00000000          1
H         9.07273849       5.96802734       6.46250080         0.00000000       0.00000000       0.00000000          1
6
pbc=[F, F, F] list_num_par=6 frozen=false iter=20000 energy=-1.26974174 Lattice="15.00000000 0.00000000 0.00000000 0.00000000 15.00000000 0.00000000 0.00000000 0.00000000 15.00000000" energy_frozen_part=0.00000000 Properties=species:S:1:pos:R:3:velocities:R:3:Z:I:1
H         6.40178098       6.36786114       7.16823207         0.00000000       0.00000000       0.00000000          1
H         7.52335282       7.82210583       5.06310867         0.00000000       0.00000000       0.00000000          1
H         9.56182504       8.70331526       6.75791103         0.00000000       0.00000000       0.00000000          1
H         6.88841706       9.10290073       7.46325926         0.00000000       0.00000000       0.00000000          1
H         8.44025768       7.24907774       8.86303900         0.00000000       0.00000000       0.00000000          1
H         9.07518875       5.96827725       6.46289100         0.00000000       0.00000000       0.00000000          1
6
pbc=[F, F, F] list_num_par=6 frozen=false iter=20000 energy=-1.26974174 Lattice="15.00000000 0.00000000 0.00000000 0.00000000 15.00000000 0.00000000 0.00000000 0.00000000 15.00000000" energy_frozen_part=0.00000000 Properties=species:S:1:pos:R:3:velocities:R:3:Z:I:1
H         6.39952653       6.36875229       7.16792128         0.00000000       0.00000000       0.00000000          1
H         7.52156311       7.82222326       5.06250693         0.00000000       0.00000000       0.00000000          1
H         9.56044736       8.70293522       6.75708144         0.00000000       0.00000000       0.00000000          1
H         6.88721694       9.10365153       7.46246965         0.00000000       0.00000000       0.00000000          1
H         8.43841617       7.24947089       8.86249194         0.00000000       0.00000000       0.00000000          1
H         9.07275101       5.96803008       6.46253182         0.00000000       0.00000000       0.00000000          1
6
pbc=[F, F, F] list_num_par=6 frozen=false iter=20000 energy=-1.26974174 Lattice="15.00000000 0.00000000 0.00000000 0.00000000 15.00000000 0.00000000 0.00000000 0.00000000 15.00000000" energy_frozen_part=0.00000000 Properties=species:S:1:pos:R:3:velocities:R:3:Z:I:1
H         6.39951761       6.36864130       7.16748373         0.00000000       0.00000000       0.00000000          1
H         7.52155146       7.82261297       5.06241943         0.00000000       0.00000000       0.00000000          1
H         9.56040928       8.70295623       6.75721309         0.00000000       0.00000000       0.00000000          1
H         6.88716545       9.10347804       7.46266961         0.00000000       0.00000000       0.00000000          1
H         8.43837186       7.24899195       8.86227951         0.00000000       0.00000000       0.00000000          1
H         9.07275060       5.96811823       6.46202996         0.00000000       0.00000000       0.00000000          1
6
pbc=[F, F, F] list_num_par=6 frozen=false iter=20000 energy=-1.26974174 Lattice="15.00000000 0.00000000 0.00000000 0.00000000 15.00000000 0.00000000 0.00000000 0.00000000 15.00000000" energy_frozen_part=0.00000000 Properties=species:S:1:pos:R:3:velocities:R:3:Z:I:1
H         6.39948274       6.36867427       7.16748666         0.00000000       0.00000000       0.00000000          1
H         7.52153984       7.82262503       5.06241989         0.00000000       0.00000000       0.00000000          1
H         9.56038861       8.70297123       6.75722937         0.00000000       0.00000000       0.00000000          1
H         6.88714696       9.10351465       7.46265839         0.00000000       0.00000000       0.00000000          1
H         8.43833548       7.24902382       8.86229652         0.00000000       0.00000000       0.00000000          1
H         9.07271875       5.96813158       6.46205096         0.00000000       0.00000000       0.00000000          1
6
pbc=[F, F, F] list_num_par=6 frozen=false iter=20000 energy=-1.26974174 Lattice="15.00000000 0.00000000 0.00000000 0.00000000 15.00000000 0.00000000 0.00000000 0.00000000 15.00000000" energy_frozen_part=0.00000000 Properties=species:S:1:pos:R:3:velocities:R:3:Z:I:1
H         6.39953695       6.36874094       7.16790341         0.00000000       0.00000000       0.00000000          1
H         7.52162810       7.82220277       5.06252399         0.00000000       0.00000000       0.00000000          1
H         9.56046497       8.70291143       6.75715602         0.00000000       0.00000000       0.00000000          1
H         6.88722273       9.10363843       7.46247447         0.00000000       0.00000000       0.00000000          1
H         8.43836918       7.24944417       8.86253667         0.00000000       0.00000000       0.00000000          1
H         9.07277598       5.96800942       6.46259074         0.00000000       0.00000000       0.00000000          1
6
pbc=[F, F, F] list_num_par=6 frozen=false iter=20000 energy=-1.26974174 Lattice="15.00000000 0.00000000 0.00000000 0.00000000 15.00000000 0.00000000 0.00000000 0.00000000 15.00000000" energy_frozen_part=0.00000000 Properties=species:S:1:pos:R:3:velocities:R:3:Z:I:1
H         6.39934312       6.36878829       7.16756847         0.00000000       0.00000000       0.00000000          1
H         7.52148208       7.82241618       5.06232958         0.00000000       0.00000000       0.00000000          1
H         9.56031262       8.70294982       6.75706244         0.00000000       0.00000000       0.00000000          1
H         6.88706901       9.10364871       7.46238234         0.00000000       0.00000000       0.00000000          1
H         8.43817237       7.24931067       8.86230594         0.00000000       0.00000000       0.00000000          1
H         9.07258818       5.96808298       6.46225497         0.00000000       0.00000000       0.00000000          1
6
pbc=[F, F, F] list_num_par=6 frozen=false iter=20000 energy=-1.26974174 Lattice="15.00000000 0.00000000 0.00000000 0.00000000 15.00000000 0.00000000 0.00000000 0.00000000 15.00000000" energy_frozen_part=0.00000000 Properties=species:S:1:pos:R:3:velocities:R:3:Z:I:1
H         6.39938018       6.36880826       7.16757963         0.00000000       0.00000000       0.00000000          1
H         7.52154754       7.82246595       5.06236859         0.00000000       0.00000000       0.00000000          1
H         9.56034857       8.70298349       6.75714848         0.00000000       0.00000000       0.00000000          1
H         6.88708760       9.10367020       7.46242375         0.00000000       0.00000000       0.00000000          1
H         8.43817814       7.24932810       8.86235121         0.00000000       0.00000000       0.00000000          1
H         9.07263706       5.96811834       6.46229395         0.00000000       0.00000000       0.00000000          1
6
pbc=[F, F, F] list_num_par=6 frozen=false iter=20000 energy=-1.26974174 Lattice="15.00000000 0.00000000 0.00000000 0.00000000 15.00000000 0.00000000 0.00000000 0.00000000 15.00000000" energy_frozen_part=0.00000000 Properties=species:S:1:pos:R:3:velocities:R:3:Z:I:1
H         6.40094695       6.36832440       7.16875628         0.00000000       0.00000000       0.00000000          1
H         7.52366098       7.82042549       5.06276423         0.00000000       0.00000000       0.00000000          1
H         9.56224751       8.70188430       6.75731304         0.00000000       0.00000000       0.00000000          1
H         6.88889997       9.10333701       7.46182719         0.00000000       0.00000000       0.00000000          1
H         8.43953462       7.24978353       8.86330979         0.00000000       0.00000000       0.00000000          1
H         9.07429115       5.96687037       6.46425226         0.00000000       0.00000000       0.00000000          1
6
pbc=[F, F, F] list_num_par=6 frozen=false iter=20000 energy=-1.26974174 Lattice="15.00000000 0.00000000 0.00000000 0.00000000 15.00000000 0.00000000 0.00000000 0.00000000 15.00000000" energy_frozen_part=0.00000000 Properties=species:S:1:pos:R:3:velocities:R:3:Z:I:1
H         6.40094089       6.36831514       7.16872845         0.00000000       0.00000000       0.00000000          1
H         7.52367932       7.82041346       5.06275043         0.00000000       0.00000000       0.00000000          1
H         9.56224014       8.70187965       6.75732268         0.00000000       0.00000000       0.00000000          1
H         6.88888408       9.10333350       7.46180077         0.00000000       0.00000000       0.00000000          1
H         8.43949947       7.24978931       8.86330526         0.00000000       0.00000000       0.00000000          1
H         9.07429549       5.96686212       6.46425971         0.00000000       0.00000000       0.00000000          1
6
pbc=[F, F, F] list_num_par=6 frozen=false iter=20000 energy=-1.26974174 Lattice="15.00000000 0.00000000 0.00000000 0.00000000 15.00000000 0.00000000 0.00000000 0.00000000 15.00000000" energy_frozen_part=0.00000000 Properties=species:S:1:pos:R:3:velocities:R:3:Z:I:1
H         6.40177998       6.36785891       7.16822734         0.00000000       0.00000000       0.00000000          1
H         7.52334320       7.82212311       5.06310972         0.00000000       0.00000000       0.00000000          1
H         9.56182694       8.70331668       6.75791997         0.00000000       0.00000000       0.00000000          1
H         6.88842080       9.10289121       7.46327398         0.00000000       0.00000000       0.00000000          1
H         8.44026068       7.24905232       8.86303836         0.00000000       0.00000000       0.00000000          1
H         9.07518427       5.96828010       6.46287886         0.00000000       0.00000000       0.00000000          1
6
pbc=[F, F, F] list_num_par=6 frozen=false iter=20000 energy=-1.26974174 Lattice="15.00000000 0.00000000 0.00000000 0.00000000 15.00000000 0.00000000 0.00000000 0.00000000 15.00000000" energy_frozen_part=0.00000000 Properties=species:S:1:pos:R:3:velocities:R:3:Z:I:1
H         6.39950301       6.36876128       7.16785706         0.00000000       0.00000000       0.00000000          1
H         7.52159082       7.82225974       5.06249672         0.00000000       0.00000000       0.00000000          1
H         9.56045872       8.70289837       6.75712743         0.00000000       0.00000000       0.00000000          1
H         6.88723483       9.10364759       7.46248649         0.00000000       0.00000000       0.00000000          1
H         8.43837823       7.24939330       8.86248609         0.00000000       0.00000000       0.00000000          1
H         9.07273042       5.96800761       6.46249915         0.00000000       0.00000000       0.00000000          1
6
pbc=[F, F, F] list_num_par=6 frozen=false iter=20000 energy=-1.26974174 Lattice="15.00000000 0.00000000 0.00000000 0.00000000 15.00000000 0.00000000 0.00000000 0.00000000 15.00000000" energy_frozen_part=0.00000000 Properties=species:S:1:pos:R:3:velocities:R:3:Z:I:1
H         6.39953001       6.36874579       7.16784005         0.00000000       0.00000000       0.00000000          1
H         7.52163740       7.82225558       5.06248968         0.00000000       0.00000000       0.00000000          1
H         9.56047453       8.70290932       6.75714846         0.00000000       0.00000000       0.00000000          1
H         6.88722904       9.10363401       7.46245940         0.00000000       0.00000000       0.00000000          1
H         8.43836859       7.24940588       8.86249604         0.00000000       0.00000000       0.00000000          1
H         9.07277212       5.96801979       6.46252471         0.00000000       0.00000000       0.00000000          1
6
pbc=[F, F, F] list_num_par=6 frozen=false iter=20000 energy=-1.26974174 Lattice="15.00000000 0.00000000 0.00000000 0.00000000 15.00000000 0.00000000 0.00000000 0.00000000 15.00000000" energy_frozen_part=0.00000000 Properties=species:S:1:pos:R:3:velocities:R:3:Z:I:1
H         6.39936549       6.36878305       7.16757800         0.00000000       0.00000000       0.00000000          1
H         7.52148174       7.82243756       5.06233977         0.00000000       0.00000000       0.00000000          1
H         9.56031800       8.70296794       6.75705609         0.00000000       0.00000000       0.00000000          1
H         6.88707778       9.10365543       7.46240513         0.00000000       0.00000000       0.00000000          1
H         8.43820675       7.24931816       8.86229754         0.00000000       0.00000000       0.00000000          1
H         9.07260935       5.96809736       6.46223584         0.00000000       0.00000000       0.00000000          1
6
pbc=[F, F, F] list_num_par=6 frozen=false iter=20000 energy=-1.26974174 Lattice="15.00000000 0.00000000 0.00000000 0.00000000 15.00000000 0.00000000 0.00000000 0.00000000 15.00000000" energy_frozen_part=0.00000000 Properties=species:S:1:pos:R:3:velocities:R:3:Z:I:1
H         6.39938637       6.36875025       7.16756548         0.00000000       0.00000000       0.00000000          1
H         7.52152583       7.82235360       5.06230793         0.00000000       0.00000000       0.00000000          1
H         9.56031530       8.70295846       6.75705413         0.00000000       0.00000000       0.00000000          1
H         6.88705390       9.10363283       7.46232576         0.00000000       0.00000000       0.00000000          1
H         8.43817572       7.24935093       8.86231074         0.00000000       0.00000000       0.00000000          1
H         9.07264857       5.96807845       6.46229026         0.00000000       0.00000000       0.00000000          1
6
pbc=[F, F, F] list_num_par=6 frozen=false iter=20000 energy=-1.26974174 Lattice="15.00000000 0.00000000 0.00000000 0.00000000 15.00000000 0.00000000 0.00000000 0.00000000 15.00000000" energy_frozen_part=0.00000000 Properties=species:S:1:pos:R:3:velocities:R:3:Z:I:1
H         6.39951551       6.36875747       7.16787039         0.00000000       0.00000000       0.00000000          1
H         7.52158772       7.82226829       5.06250869         0.00000000       0.00000000       0.00000000          1
H         9.56044639       8.70293921       6.75713847         0.00000000       0.00000000       0.00000000          1
H         6.88721167       9.10365010       7.46248481         0.00000000       0.00000000       0.00000000          1
H         8.43837583       7.24942513       8.86250271         0.00000000       0.00000000       0.00000000          1
H         9.07275072       5.96804493       6.46252017         0.00000000       0.00000000       0.00000000          1
6
pbc=[F, F, F] list_num_par=6 frozen=false iter=20000 energy=-1.26974174 Lattice="15.00000000 0.00000000 0.00000000 0.00000000 15.00000000 0.00000000 0.00000000 0.00000000 15.00000000" energy_frozen_part=0.00000000 Properties=species:S:1:pos:R:3:velocities:R:3:Z:I:1
H         6.39939628       6.36876728       7.16753080         0.00000000       0.00000000       0.00000000          1
H         7.52152981       7.82242919       5.06231427         0.00000000       0.00000000       0.00000000          1
H         9.56035301       8.70295439       6.75706116         0.00000000       0.00000000       0.00000000          1
H         6.88709992       9.10363621       7.46237678         0.00000000       0.00000000       0.00000000          1
H         8.43821392       7.24928546       8.86228195         0.00000000       0.00000000       0.00000000          1
H         9.07265020       5.96808751       6.46221716         0.00000000       0.00000000       0.00000000          1
6
pbc=[F, F, F] list_num_par=6 frozen=false iter=20000 energy=-1.26974174 Lattice="15.00000000 0.00000000 0.00000000 0.00000000 15.00000000 0.00000000 0.00000000 0.00000000 15.00000000" energy_frozen_part=0.00000000 Properties=species:S:1:pos:R:3:velocities:R:3:Z:I:1
H         6.39951630       6.36874738       7.16784310         0.00000000       0.00000000       0.00000000          1
H         7.52160920       7.82226853       5.06250037         0.00000000       0.00000000       0.00000000          1
H         9.56045415       8.70291536       6.75715580         0.00000000       0.00000000       0.00000000          1
H         6.88721301       9.10363579       7.46248595         0.00000000       0.00000000       0.00000000          1
H         8.43836385       7.24939071       8.86249016         0.00000000       0.00000000       0.00000000          1
H         9.07275480       5.96802581       6.46250585         0.00000000       0.00000000       0.00000000          1
6
pbc=[F, F, F] list_num_par=6 frozen=false iter=20000 energy=-1.26974174 Lattice="15.00000000 0.00000000 0.00000000 0.00000000 15.00000000 0.00000000 0.00000000 0.00000000 15.00000000" energy_frozen_part=0.00000000 Properties=species:S:1:pos:R:3:velocities:R:3:Z:I:1
H         6.39954284       6.36877211       7.16794484         0.00000000       0.00000000       0.00000000          1
H         7.52156262       7.82221549       5.06250944         0.00000000       0.00000000       0.00000000          1
H         9.56047049       8.70292365       6.75705899         0.00000000       0.00000000       0.00000000          1
H         6.88725078       9.10367108       7.46246542         0.00000000       0.00000000       0.00000000          1
H         8.43844995       7.24948429       8.86249162         0.00000000       0.00000000       0.00000000          1
H         9.07275629       5.96802732       6.46252935         0.00000000       0.00000000       0.00000000          1
6
pbc=[F, F, F] list_num_par=6 frozen=false iter=20000 energy=-1.26974174 Lattice="15.00000000 0.00000000 0.00000000 0.00000000 15.00000000 0.00000000 0.00000000 0.00000000 15.00000000" energy_frozen_part=0.00000000 Properties=species:S:1:pos:R:3:velocities:R:3:Z:I:1
H         6.39954267       6.36873566       7.16790453         0.00000000       0.00000000       0.00000000          1
H         7.52162086       7.82220528       5.06251623         0.00000000       0.00000000       0.00000000          1
H         9.56046627       8.70291537       6.75714126         0.00000000       0.00000000       0.00000000          1
H         6.88722123       9.10363543       7.46246446         0.00000000       0.00000000       0.00000000          1
H         8.43838666       7.24944315       8.86252729         0.00000000       0.00000000       0.00000000          1
H         9.07278497       5.96801431       6.46257580         0.00000000       0.00000000       0.00000000          1
