6
iter=20000 frozen=false energy=-1.26974174 energy_frozen_part=0.00000000 Lattice="15.00000000 0.00000000 0.00000000 0.00000000 15.00000000 0.00000000 0.00000000 0.00000000 15.00000000" pbc=[F, F, F] list_num_par=6 Properties=species:S:1:pos:R:3:Z:I:1:velocities:R:3
H        11.62887610       4.04574074      13.14785681          1         0.00000000       0.00000000       0.00000000
H         9.40884571       1.38964668      11.24385953          1         0.00000000       0.00000000       0.00000000
H        11.08869035       3.48170888      10.46562354          1         0.00000000       0.00000000       0.00000000
H        12.05028924       1.47081257      12.14964040          1         0.00000000       0.00000000       0.00000000
H         9.94901963       1.95367868      13.92609698          1         0.00000000       0.00000000       0.00000000
H         8.98742618       3.96457287      12.24207906          1         0.00000000       0.00000000       0.00000000
6
iter=20000 frozen=false energy=-1.26974174 energy_frozen_part=0.00000000 Lattice="15.00000000 0.00000000 0.00000000 0.00000000 15.00000000 0.00000000 0.00000000 0.00000000 15.00000000" pbc=[F, F, F] list_num_par=6 Properties=species:S:1:pos:R:3:Z:I:1:velocities:R:3
H        11.40776120       1.83983740      11.07364795          1         0.00000000       0.00000000       0.00000000
H        10.15808650       2.93944106      13.31719063          1         0.00000000       0.00000000       0.00000000
H         9.46776436       3.82524608      10.75924197          1         0.00000000       0.00000000       0.00000000
H        12.84126577       3.51259927      12.79156332          1         0.00000000       0.00000000       0.00000000
H        10.90127759       5.49800922      12.47715103          1         0.00000000       0.00000000       0.00000000
H        12.15095005       4.39840902      10.23361566          1         0.00000000       0.00000000       0.00000000
6
iter=20000 frozen=false energy=-1.26974174 energy_frozen_part=0.00000000 Lattice="15.00000000 0.00000000 0.00000000 0.00000000 15.00000000 0.00000000 0.00000000 0.00000000 15.00000000" pbc=[F, F, F] list_num_par=6 Properties=species:S:1:pos:R:3:Z:I:1:velocities:R:3
H        11.62353741       4.04482204      13.15514168          1         0.00000000       0.00000000       0.00000000
H         9.41223462       1.39212922      11.23630304          1         0.00000000       0.00000000       0.00000000
H        11.09392262       3.48694778      10.46951618          1         0.00000000       0.00000000       0.00000000
H        12.05016502       1.47252780      12.15236449          1         0.00000000       0.00000000       0.00000000
H         9.94186070       1.95000007      13.92192610          1         0.00000000       0.00000000       0.00000000
H         8.98561010       3.96442921      12.23907850          1         0.00000000       0.00000000       0.00000000
6
iter=20000 frozen=false energy=-1.26974174 energy_frozen_part=0.00000000 Lattice="15.00000000 0.00000000 0.00000000 0.00000000 15.00000000 0.00000000 0.00000000 0.00000000 15.00000000" pbc=[F, F, F] list_num_par=6 Properties=species:S:1:pos:R:3:Z:I:1:velocities:R:3
H        11.62878560       4.04581592      13.14807235          1         0.00000000       0.00000000       0.00000000
H         9.40861314       1.38991477      11.24397708          1         0.00000000       0.00000000       0.00000000
H        11.08842761       3.48203914      10.46582785          1         0.00000000       0.00000000       0.00000000
H        12.05012716       1.47098034      12.14959331          1         0.00000000       0.00000000       0.00000000
H         9.94897444       1.95368023      13.92622487          1         0.00000000       0.00000000       0.00000000
H         8.98727546       3.96474696      12.24246215          1         0.00000000       0.00000000       0.00000000
6
iter=20000 frozen=false energy=-1.26974174 energy_frozen_part=0.00000000 Lattice="15.00000000 0.00000000 0.00000000 0.00000000 15.00000000 0.00000000 0.00000000 0.00000000 15.00000000" pbc=[F, F, F] list_num_par=6 Properties=species:S:1:pos:R:3:Z:I:1:velocities:R:3
H        11.62888382       4.04574359      13.14784067          1         0.00000000       0.00000000       0.00000000
H         9.40882282       1.38967035      11.24384814          1         0.00000000       0.00000000       0.00000000
H        11.08869035       3.48172279      10.46561618          1         0.00000000       0.00000000       0.00000000
H        12.05028067       1.47081683      12.14961119          1         0.00000000       0.00000000       0.00000000
H         9.94902065       1.95369207      13.92607880          1         0.00000000       0.00000000       0.00000000
H         8.98742691       3.96460110      12.24206904          1         0.00000000       0.00000000       0.00000000
6
iter=20000 frozen=false energy=-1.26974174 energy_frozen_part=0.00000000 Lattice="15.00000000 0.00000000 0.00000000 0.00000000 15.00000000 0.00000000 0.00000000 0.00000000 15.00000000" pbc=[F, F, F] list_num_par=6 Properties=species:S:1:pos:R:3:Z:I:1:velocities:R:3
H        11.62886633       4.04574631      13.14785337          1         0.00000000       0.00000000       0.00000000
H         9.40883368       1.38963763      11.24386296          1         0.00000000       0.00000000       0.00000000
H        11.08868838       3.48170483      10.46562633          1         0.00000000       0.00000000       0.00000000
H        12.05029027       1.47081450      12.14964190          1         0.00000000       0.00000000       0.00000000
H         9.94901894       1.95368084      13.92608614          1         0.00000000       0.00000000       0.00000000
H         8.98741614       3.96457319      12.24206917          1         0.00000000       0.00000000       0.00000000
6
iter=20000 frozen=false energy=-1.26974174 energy_frozen_part=0.00000000 Lattice="15.00000000 0.00000000 0.00000000 0.00000000 15.00000000 0.00000000 0.00000000 0.00000000 15.00000000" pbc=[F, F, F] list_num_par=6 Properties=species:S:1:pos:R:3:Z:I:1:velocities:R:3
H        11.62886966       4.04572303      13.14784761          1         0.00000000       0.00000000       0.00000000
H         9.40877752       1.38967535      11.24385454          1         0.00000000       0.00000000       0.00000000
H        11.08865355       3.48172134      10.46561637          1         0.00000000       0.00000000       0.00000000
H        12.05023690       1.47079702      12.14960503          1         0.00000000       0.00000000       0.00000000
H         9.94899335       1.95368632      13.92608727          1         0.00000000       0.00000000       0.00000000
H         8.98741063       3.96460225      12.24209956          1         0.00000000       0.00000000       0.00000000
6
iter=20000 frozen=false energy=-1.26974174 energy_frozen_part=0.00000000 Lattice="15.00000000 0.00000000 0.00000000 0.00000000 15.00000000 0.00000000 0.00000000 0.00000000 15.00000000" pbc=[F, F, F] list_num_par=6 Properties=species:S:1:pos:R:3:Z:I:1:velocities:R:3
H        11.62889882       4.04578204      13.14784871          1         0.00000000       0.00000000       0.00000000
H         9.40880554       1.38972150      11.24387536          1         0.00000000       0.00000000       0.00000000
H        11.08865540       3.48177443      10.46562866          1         0.00000000       0.00000000       0.00000000
H        12.05027642       1.47085839      12.14960085          1         0.00000000       0.00000000       0.00000000
H         9.94904484       1.95372798      13.92609709          1         0.00000000       0.00000000       0.00000000
H         8.98742613       3.96464641      12.24211770          1         0.00000000       0.00000000       0.00000000
6
iter=20000 frozen=false energy=-1.26974174 energy_frozen_part=0.00000000 Lattice="15.00000000 0.00000000 0.00000000 0.00000000 15.00000000 0.00000000 0.00000000 0.00000000 15.00000000" pbc=[F, F, F] list_num_par=6 Properties=species:S:1:pos:R:3:Z:I:1:velocities:R:3
H        11.62350054       4.04487775      13.15510248          1         0.00000000       0.00000000       0.00000000
H         9.41223207       1.39210251      11.23635524          1         0.00000000       0.00000000       0.00000000
H        11.09385332       3.48694709      10.46950313          1         0.00000000       0.00000000       0.00000000
H        12.05017641       1.47256715      12.15236522          1         0.00000000       0.00000000       0.00000000
H         9.94189019       1.95002712      13.92195673          1         0.00000000       0.00000000       0.00000000
H         8.98556206       3.96440129      12.23909598          1         0.00000000       0.00000000       0.00000000
6
iter=20000 frozen=false energy=-1.26974174 energy_frozen_part=0.00000000 Lattice="15.00000000 0.00000000 0.00000000 0.00000000 15.00000000 0.00000000 0.00000000 0.00000000 15.00000000" pbc=[F, F, F] list_num_par=6 Properties=species:S:1:pos:R:3:Z:I:1:velocities:R:3
H        11.40774678       1.83982750      11.07363972          1         0.00000000       0.00000000       0.00000000
H        10.15810164       2.93944231      13.31718971          1         0.00000000       0.00000000       0.00000000
H         9.46775725       3.82524259      10.75924497          1         0.00000000       0.00000000       0.00000000
H        12.84127592       3.51259417      12.79153308          1         0.00000000       0.00000000       0.00000000
H        10.90128292       5.49800505      12.47713792          1         0.00000000       0.00000000       0.00000000
H        12.15093781       4.39839447      10.23358777          1         0.00000000       0.00000000       0.00000000
6
iter=20000 frozen=false energy=-1.26974174 energy_frozen_part=0.00000000 Lattice="15.00000000 0.00000000 0.00000000 0.00000000 15.00000000 0.00000000 0.00000000 0.00000000 15.00000000" pbc=[F, F, F] list_num_par=6 Properties=species:S:1:pos:R:3:Z:I:1:velocities:R:3
H        11.62893358       4.04577670      13.14784296          1         0.00000000       0.00000000       0.00000000
H         9.40878483       1.38975850      11.24386467          1         0.00000000       0.00000000       0.00000000
H        11.08866550       3.48179666      10.46561217          1         0.00000000       0.00000000       0.00000000
H        12.05025899       1.47085437      12.14957796          1         0.00000000       0.00000000       0.00000000
H         9.94904536       1.95373626      13.92608895          1         0.00000000       0.00000000       0.00000000
H         8.98745811       3.96468631      12.24212944          1         0.00000000       0.00000000       0.00000000
6
iter=20000 frozen=false energy=-1.26974174 energy_frozen_part=0.00000000 Lattice="15.00000000 0.00000000 0.00000000 0.00000000 15.00000000 0.00000000 0.00000000 0.00000000 15.00000000" pbc=[F, F, F] list_num_par=6 Properties=species:S:1:pos:R:3:Z:I:1:velocities:R:3
H        11.62891927       4.04576131      13.14785470          1         0.00000000       0.00000000       0.00000000
H         9.40879357       1.38973237      11.24387931          1         0.00000000       0.00000000       0.00000000
H        11.08867122       3.48177264      10.46563024          1         0.00000000       0.00000000       0.00000000
H        12.05026582       1.47083811      12.14959108          1         0.00000000       0.00000000       0.00000000
H         9.94904795       1.95372164      13.92609748          1         0.00000000       0.00000000       0.00000000
H         8.98745027       3.96466204      12.24213142          1         0.00000000       0.00000000       0.00000000
6
iter=20000 frozen=false energy=-1.26974174 energy_frozen_part=0.00000000 Lattice="15.00000000 0.00000000 0.00000000 0.00000000 15.00000000 0.00000000 0.00000000 0.00000000 15.00000000" pbc=[F, F, F] list_num_par=6 Properties=species:S:1:pos:R:3:Z:I:1:velocities:R:3
H        11.62352976       4.04481468      13.15515406          1         0.00000000       0.00000000       0.00000000
H         9.41222690       1.39214053      11.23630418          1         0.00000000       0.00000000       0.00000000
H        11.09394741       3.48693729      10.46952779          1         0.00000000       0.00000000       0.00000000
H        12.05014129       1.47251148      12.15240527          1         0.00000000       0.00000000       0.00000000
H         9.94180961       1.95002089      13.92192952          1         0.00000000       0.00000000       0.00000000
H         8.98561726       3.96444993      12.23906167          1         0.00000000       0.00000000       0.00000000
6
iter=20000 frozen=false energy=-1.26974174 energy_frozen_part=0.00000000 Lattice="15.00000000 0.00000000 0.00000000 0.00000000 15.00000000 0.00000000 0.00000000 0.00000000 15.00000000" pbc=[F, F, F] list_num_par=6 Properties=species:S:1:pos:R:3:Z:I:1:velocities:R:3
H        11.62352737       4.04483303      13.15514261          1         0.00000000       0.00000000       0.00000000
H         9.41223458       1.39214934      11.23628020          1         0.00000000       0.00000000       0.00000000
H        11.09392030       3.48697068      10.46950981          1         0.00000000       0.00000000       0.00000000
H        12.05015514       1.47254084      12.15235368          1         0.00000000       0.00000000       0.00000000
H         9.94184658       1.95001650      13.92190997          1         0.00000000       0.00000000       0.00000000
H         8.98560490       3.96444358      12.23906379          1         0.00000000       0.00000000       0.00000000
6
iter=20000 frozen=false energy=-1.26974174 energy_frozen_part=0.00000000 Lattice="15.00000000 0.00000000 0.00000000 0.00000000 15.00000000 0.00000000 0.00000000 0.00000000 15.00000000" pbc=[F, F, F] list_num_par=6 Properties=species:S:1:pos:R:3:Z:I:1:velocities:R:3
H        11.62876057       4.04577306      13.14797306          1         0.00000000       0.00000000       0.00000000
H         9.40854441       1.38987963      11.24390476          1         0.00000000       0.00000000       0.00000000
H        11.08842162       3.48195143      10.46572953          1         0.00000000       0.00000000       0.00000000
H        12.05004527       1.47091057      12.14955450          1         0.00000000       0.00000000       0.00000000
H         9.94887879       1.95371178      13.92615069          1         0.00000000       0.00000000       0.00000000
H         8.98725771       3.96475268      12.24232530          1         0.00000000       0.00000000       0.00000000
6
iter=20000 frozen=false energy=-1.26974174 energy_frozen_part=0.00000000 Lattice="15.00000000 0.00000000 0.00000000 0.00000000 15.00000000 0.00000000 0.00000000 0.00000000 15.00000000" pbc=[F, F, F] list_num_par=6 Properties=species:S:1:pos:R:3:Z:I:1:velocities:R:3
H        11.62348786       4.04498127      13.15499739          1         0.00000000       0.00000000       0.00000000
H         9.41220769       1.39213492      11.23634355          1         0.00000000       0.00000000       0.00000000
H        11.09364966       3.48709293      10.46942279          1         0.00000000       0.00000000       0.00000000
H        12.05022182       1.47272932      12.15215552          1         0.00000000       0.00000000       0.00000000
H         9.94204359       1.95001822      13.92192369          1         0.00000000       0.00000000       0.00000000
H         8.98547832       3.96438259      12.23918927          1         0.00000000       0.00000000       0.00000000
6
iter=20000 frozen=false energy=-1.26974174 energy_frozen_part=0.00000000 Lattice="15.00000000 0.00000000 0.00000000 0.00000000 15.00000000 0.00000000 0.00000000 0.00000000 15.00000000" pbc=[F, F, F] list_num_par=6 Properties=species:S:1:pos:R:3:Z:I:1:velocities:R:3
H        11.40775332       1.83982211      11.07363475          1         0.00000000       0.00000000       0.00000000
H        10.15810189       2.93943982      13.31718618          1         0.00000000       0.00000000       0.00000000
H         9.46776010       3.82524649      10.75924872          1         0.00000000       0.00000000       0.00000000
H        12.84128481       3.51258369      12.79152588          1         0.00000000       0.00000000       0.00000000
H        10.90129443       5.49800856      12.47713510          1         0.00000000       0.00000000       0.00000000
H        12.15093865       4.39839568      10.23358708          1         0.00000000       0.00000000       0.00000000
6
iter=20000 frozen=false energy=-1.26974174 energy_frozen_part=0.00000000 Lattice="15.00000000 0.00000000 0.00000000 0.00000000 15.00000000 0.00000000 0.00000000 0.00000000 15.00000000" pbc=[F, F, F] list_num_par=6 Properties=species:S:1:pos:R:3:Z:I:1:velocities:R:3
H        11.62347513       4.04497530      13.15499444          1         0.00000000       0.00000000       0.00000000
H         9.41214466       1.39214068      11.23637559          1         0.00000000       0.00000000       0.00000000
H        11.09360962       3.48707916      10.46943047          1         0.00000000       0.00000000       0.00000000
H        12.05016565       1.47270605      12.15215640          1         0.00000000       0.00000000       0.00000000
H         9.94201497       1.95003850      13.92193975          1         0.00000000       0.00000000       0.00000000
H         8.98545613       3.96440317      12.23920916          1         0.00000000       0.00000000       0.00000000
6
iter=20000 frozen=false energy=-1.26974174 energy_frozen_part=0.00000000 Lattice="15.00000000 0.00000000 0.00000000 0.00000000 15.00000000 0.00000000 0.00000000 0.00000000 15.00000000" pbc=[F, F, F] list_num_par=6 Properties=species:S:1:pos:R:3:Z:I:1:velocities:R:3
H        11.62347536       4.04496974      13.15500445          1         0.00000000       0.00000000       0.00000000
H         9.41215357       1.39214036      11.23637640          1         0.00000000       0.00000000       0.00000000
H        11.09361921       3.48707238      10.46943275          1         0.00000000       0.00000000       0.00000000
H        12.05016659       1.47269876      12.15216875          1         0.00000000       0.00000000       0.00000000
H         9.94201292       1.95002976      13.92194584          1         0.00000000       0.00000000       0.00000000
H         8.98545786       3.96440775      12.23920949          1         0.00000000       0.00000000       0.00000000
6
iter=20000 frozen=false energy=-1.26974174 energy_frozen_part=0.00000000 Lattice="15.00000000 0.00000000 0.00000000 0.00000000 15.00000000 0.00000000 0.00000000 0.00000000 15.00000000" pbc=[F, F, F] list_num_par=6 Properties=species:S:1:pos:R:3:Z:I:1:velocities:R:3
H        11.62894935       4.04575846      13.14782664          1         0.00000000       0.00000000       0.00000000
H         9.40879190       1.38975075      11.24387504          1         0.00000000       0.00000000       0.00000000
H        11.08866583       3.48177428      10.46560568          1         0.00000000       0.00000000       0.00000000
H        12.05026825       1.47083516      12.14957518          1         0.00000000       0.00000000       0.00000000
H         9.94906098       1.95373706      13.92609513          1         0.00000000       0.00000000       0.00000000
H         8.98746710       3.96467938      12.24213360          1         0.00000000       0.00000000       0.00000000
6
iter=20000 frozen=false energy=-1.26974174 energy_frozen_part=0.00000000 Lattice="15.00000000 0.00000000 0.00000000 0.00000000 15.00000000 0.00000000 0.00000000 0.00000000 15.00000000" pbc=[F, F, F] list_num_par=6 Properties=species:S:1:pos:R:3:Z:I:1:velocities:R:3
H        11.62347404       4.04497452      13.15500412          1         0.00000000       0.00000000       0.00000000
H         9.41215351       1.39213823      11.23637623          1         0.00000000       0.00000000       0.00000000
H        11.09361889       3.48706992      10.46943544          1         0.00000000       0.00000000       0.00000000
H        12.05016755       1.47270341      12.15217004          1         0.00000000       0.00000000       0.00000000
H         9.94201010       1.95004004      13.92194814          1         0.00000000       0.00000000       0.00000000
H         8.98545955       3.96440971      12.23920796          1         0.00000000       0.00000000       0.00000000
6
iter=20000 frozen=false energy=-1.26974174 energy_frozen_part=0.00000000 Lattice="15.00000000 0.00000000 0.00000000 0.00000000 15.00000000 0.00000000 0.00000000 0.00000000 15.00000000" pbc=[F, F, F] list_num_par=6 Properties=species:S:1:pos:R:3:Z:I:1:velocities:R:3
H        11.62351546       4.04486733      13.15511679          1         0.00000000       0.00000000       0.00000000
H         9.41224240       1.39210338      11.23633974          1         0.00000000       0.00000000       0.00000000
H        11.09387197       3.48694876      10.46950965          1         0.00000000       0.00000000       0.00000000
H        12.05017394       1.47256664      12.15237117          1         0.00000000       0.00000000       0.00000000
H         9.94188275       1.95001913      13.92195050          1         0.00000000       0.00000000       0.00000000
H         8.98557753       3.96439898      12.23908469          1         0.00000000       0.00000000       0.00000000
6
iter=20000 frozen=false energy=-1.26974174 energy_frozen_part=0.00000000 Lattice="15.00000000 0.00000000 0.00000000 0.00000000 15.00000000 0.00000000 0.00000000 0.00000000 15.00000000" pbc=[F, F, F] list_num_par=6 Properties=species:S:1:pos:R:3:Z:I:1:velocities:R:3
H        11.62880017       4.04582714      13.14808895          1         0.00000000       0.00000000       0.00000000
H         9.40861041       1.38993878      11.24398889          1         0.00000000       0.00000000       0.00000000
H        11.08843657       3.48205730      10.46583886          1         0.00000000       0.00000000       0.00000000
H        12.05012633       1.47099457      12.14959063          1         0.00000000       0.00000000       0.00000000
H         9.94898083       1.95370655      13.92623446          1         0.00000000       0.00000000       0.00000000
H         8.98728656       3.96477212      12.24247212          1         0.00000000       0.00000000       0.00000000
6
iter=20000 frozen=false energy=-1.26974174 energy_frozen_part=0.00000000 Lattice="15.00000000 0.00000000 0.00000000 0.00000000 15.00000000 0.00000000 0.00000000 0.00000000 15.00000000" pbc=[F, F, F] list_num_par=6 Properties=species:S:1:pos:R:3:Z:I:1:velocities:R:3
H        11.40777898       1.83982611      11.07365805          1         0.00000000       0.00000000       0.00000000
H        10.15813607       2.93942951      13.31721377          1         0.00000000       0.00000000       0.00000000
H         9.46773927       3.82520495      10.75928248          1         0.00000000       0.00000000       0.00000000
H        12.84129870       3.51262810      12.79150722          1         0.00000000       0.00000000       0.00000000
H        10.90126638       5.49800826      12.47713234          1         0.00000000       0.00000000       0.00000000
H        12.15090372       4.39839919      10.23356800          1         0.00000000       0.00000000       0.00000000
6
iter=20000 frozen=false energy=-1.26974174 energy_frozen_part=0.00000000 Lattice="15.00000000 0.00000000 0.00000000 0.00000000 15.00000000 0.00000000 0.00000000 0.00000000 15.00000000" pbc=[F, F, F] list_num_par=6 Properties=species:S:1:pos:R:3:Z:I:1:velocities:R:3
H        11.62891242       4.04577237      13.14784801          1         0.00000000       0.00000000       0.00000000
H         9.40880472       1.38973211      11.24387494          1         0.00000000       0.00000000       0.00000000
H        11.08868297       3.48177268      10.46562250          1         0.00000000       0.00000000       0.00000000
H        12.05027576       1.47084352      12.14960246          1         0.00000000       0.00000000       0.00000000
H         9.94905158       1.95372259      13.92609943          1         0.00000000       0.00000000       0.00000000
H         8.98744712       3.96465583      12.24212248          1         0.00000000       0.00000000       0.00000000
6
iter=20000 frozen=false energy=-1.26974174 energy_frozen_part=0.00000000 Lattice="15.00000000 0.00000000 0.00000000 0.00000000 15.00000000 0.00000000 0.00000000 0.00000000 15.00000000" pbc=[F, F, F] list_num_par=6 Properties=species:S:1:pos:R:3:Z:I:1:velocities:R:3
H        11.62347766       4.04497119      13.15502328          1         0.00000000       0.00000000       0.00000000
H         9.41217253       1.39215389      11.23636340          1         0.00000000       0.00000000       0.00000000
H        11.09365322       3.48708433      10.46944242          1         0.00000000       0.00000000       0.00000000
H        12.05017327       1.47271249      12.15219494          1         0.00000000       0.00000000       0.00000000
H         9.94198972       1.95004591      13.92194651          1         0.00000000       0.00000000       0.00000000
H         8.98547291       3.96442220      12.23919894          1         0.00000000       0.00000000       0.00000000
6
iter=20000 frozen=false energy=-1.26974174 energy_frozen_part=0.00000000 Lattice="15.00000000 0.00000000 0.00000000 0.00000000 15.00000000 0.00000000 0.00000000 0.00000000 15.00000000" pbc=[F, F, F] list_num_par=6 Properties=species:S:1:pos:R:3:Z:I:1:velocities:R:3
H        11.62352441       4.04479574      13.15515693          1         0.00000000       0.00000000       0.00000000
H         9.41226948       1.39213685      11.23623157          1         0.00000000       0.00000000       0.00000000
H        11.09394616       3.48698199      10.46951739          1         0.00000000       0.00000000       0.00000000
H        12.05018659       1.47252305      12.15232575          1         0.00000000       0.00000000       0.00000000
H         9.94184978       1.94994851      13.92187320          1         0.00000000       0.00000000       0.00000000
H         8.98560814       3.96440155      12.23906479          1         0.00000000       0.00000000       0.00000000
6
iter=20000 frozen=false energy=-1.26974174 energy_frozen_part=0.00000000 Lattice="15.00000000 0.00000000 0.00000000 0.00000000 15.00000000 0.00000000 0.00000000 0.00000000 15.00000000" pbc=[F, F, F] list_num_par=6 Properties=species:S:1:pos:R:3:Z:I:1:velocities:R:3
H        11.62889111       4.04571960      13.14782811          1         0.00000000       0.00000000       0.00000000
H         9.40881092       1.38965901      11.24384231          1         0.00000000       0.00000000       0.00000000
H        11.08868345       3.48171050      10.46560220          1         0.00000000       0.00000000       0.00000000
H        12.05027138       1.47079205      12.14959558          1         0.00000000       0.00000000       0.00000000
H         9.94901928       1.95367515      13.92606483          1         0.00000000       0.00000000       0.00000000
H         8.98743683       3.96459330      12.24207309          1         0.00000000       0.00000000       0.00000000
6
iter=20000 frozen=false energy=-1.26974174 energy_frozen_part=0.00000000 Lattice="15.00000000 0.00000000 0.00000000 0.00000000 15.00000000 0.00000000 0.00000000 0.00000000 15.00000000" pbc=[F, F, F] list_num_par=6 Properties=species:S:1:pos:R:3:Z:I:1:velocities:R:3
H        11.40774517       1.83979871      11.07364082          1         0.00000000       0.00000000       0.00000000
H        10.15813702       2.93940288      13.31721252          1         0.00000000       0.00000000       0.00000000
H         9.46773159       3.82520067      10.75928672          1         0.00000000       0.00000000       0.00000000
H        12.84130208       3.51258974      12.79148945          1         0.00000000       0.00000000       0.00000000
H        10.90128088       5.49797924      12.47714207          1         0.00000000       0.00000000       0.00000000
H        12.15089272       4.39837494      10.23356627          1         0.00000000       0.00000000       0.00000000
6
iter=20000 frozen=false energy=-1.26974174 energy_frozen_part=0.00000000 Lattice="15.00000000 0.00000000 0.00000000 0.00000000 15.00000000 0.00000000 0.00000000 0.00000000 15.00000000" pbc=[F, F, F] list_num_par=6 Properties=species:S:1:pos:R:3:Z:I:1:velocities:R:3
H        11.62347686       4.04497015      13.15499125          1         0.00000000       0.00000000       0.00000000
H         9.41214541       1.39213877      11.23639325          1         0.00000000       0.00000000       0.00000000
H        11.09360288       3.48706831      10.46943018          1         0.00000000       0.00000000       0.00000000
H        12.05016453       1.47270199      12.15216493          1         0.00000000       0.00000000       0.00000000
H         9.94201673       1.95003309      13.92195511          1         0.00000000       0.00000000       0.00000000
H         8.98545828       3.96440337      12.23921513          1         0.00000000       0.00000000       0.00000000
6
iter=20000 frozen=false energy=-1.26974174 energy_frozen_part=0.00000000 Lattice="15.00000000 0.00000000 0.00000000 0.00000000 15.00000000 0.00000000 0.00000000 0.00000000 15.00000000" pbc=[F, F, F] list_num_par=6 Properties=species:S:1:pos:R:3:Z:I:1:velocities:R:3
H        11.62404866       4.04858240      13.15014206          1         0.00000000       0.00000000       0.00000000
H         9.41017993       1.38942274      11.24324477          1         0.00000000       0.00000000       0.00000000
H        11.08854226       3.48349264      10.46719565          1         0.00000000       0.00000000       0.00000000
H        12.05018453       1.47404162      12.15291540          1         0.00000000       0.00000000       0.00000000
H         9.94568366       1.95451435      13.92619705          1         0.00000000       0.00000000       0.00000000
H         8.98404524       3.96396131      12.24047071          1         0.00000000       0.00000000       0.00000000
6
iter=20000 frozen=false energy=-1.26974174 energy_frozen_part=0.00000000 Lattice="15.00000000 0.00000000 0.00000000 0.00000000 15.00000000 0.00000000 0.00000000 0.00000000 15.00000000" pbc=[F, F, F] list_num_par=6 Properties=species:S:1:pos:R:3:Z:I:1:velocities:R:3
H        11.62891101       4.04579189      13.14785660          1         0.00000000       0.00000000       0.00000000
H         9.40883682       1.38973585      11.24387034          1         0.00000000       0.00000000       0.00000000
H        11.08869414       3.48178890      10.46563281          1         0.00000000       0.00000000       0.00000000
H        12.05030254       1.47087073      12.14961540          1         0.00000000       0.00000000       0.00000000
H         9.94905287       1.95373443      13.92609709          1         0.00000000       0.00000000       0.00000000
H         8.98744699       3.96465923      12.24212354          1         0.00000000       0.00000000       0.00000000
6
iter=20000 frozen=false energy=-1.26974174 energy_frozen_part=0.00000000 Lattice="15.00000000 0.00000000 0.00000000 0.00000000 15.00000000 0.00000000 0.00000000 0.00000000 15.00000000" pbc=[F, F, F] list_num_par=6 Properties=species:S:1:pos:R:3:Z:I:1:velocities:R:3
H        11.40775971       1.83981378      11.07364234          1         0.00000000       0.00000000       0.00000000
H        10.15811416       2.93943150      13.31719175          1         0.00000000       0.00000000       0.00000000
H         9.46774159       3.82521143      10.75925029          1         0.00000000       0.00000000       0.00000000
H        12.84128873       3.51260732      12.79150274          1         0.00000000       0.00000000       0.00000000
H        10.90127171       5.49800352      12.47711277          1         0.00000000       0.00000000       0.00000000
H        12.15091306       4.39838882      10.23355932          1         0.00000000       0.00000000       0.00000000
6
iter=20000 frozen=false energy=-1.26974174 energy_frozen_part=0.00000000 Lattice="15.00000000 0.00000000 0.00000000 0.00000000 15.00000000 0.00000000 0.00000000 0.00000000 15.00000000" pbc=[F, F, F] list_num_par=6 Properties=species:S:1:pos:R:3:Z:I:1:velocities:R:3
H        11.62351658       4.04496047      13.15500263          1         0.00000000       0.00000000       0.00000000
H         9.41221604       1.39212048      11.23636145          1         0.00000000       0.00000000       0.00000000
H        11.09366380       3.48706984      10.46943044          1         0.00000000       0.00000000       0.00000000
H        12.05022094       1.47269879      12.15216902          1         0.00000000       0.00000000       0.00000000
H         9.94205690       1.95002015      13.92193694          1         0.00000000       0.00000000       0.00000000
H         8.98550194       3.96438408      12.23920378          1         0.00000000       0.00000000       0.00000000
6
iter=20000 frozen=false energy=-1.26974174 energy_frozen_part=0.00000000 Lattice="15.00000000 0.00000000 0.00000000 0.00000000 15.00000000 0.00000000 0.00000000 0.00000000 15.00000000" pbc=[F, F, F] list_num_par=6 Properties=species:S:1:pos:R:3:Z:I:1:velocities:R:3
H        11.62887373       4.04574115      13.14784706          1         0.00000000       0.00000000       0.00000000
H         9.40883456       1.38965734      11.24385842          1         0.00000000       0.00000000       0.00000000
H        11.08869705       3.48171457      10.46562245          1         0.00000000       0.00000000       0.00000000
H        12.05028791       1.47081294      12.14963512          1         0.00000000       0.00000000       0.00000000
H         9.94901683       1.95367840      13.92608762          1         0.00000000       0.00000000       0.00000000
H         8.98742676       3.96458183      12.24207311          1         0.00000000       0.00000000       0.00000000
6
iter=20000 frozen=false energy=-1.26974174 energy_frozen_part=0.00000000 Lattice="15.00000000 0.00000000 0.00000000 0.00000000 15.00000000 0.00000000 0.00000000 0.00000000 15.00000000" pbc=[F, F, F] list_num_par=6 Properties=species:S:1:pos:R:3:Z:I:1:velocities:R:3
H        11.62353164       4.04481090      13.15516544          1         0.00000000       0.00000000       0.00000000
H         9.41227230       1.39213232      11.23623592          1         0.00000000       0.00000000       0.00000000
H        11.09395030       3.48698257      10.46952595          1         0.00000000       0.00000000       0.00000000
H        12.05018331       1.47253461      12.15234267          1         0.00000000       0.00000000       0.00000000
H         9.94184702       1.94995915      13.92187578          1         0.00000000       0.00000000       0.00000000
H         8.98561515       3.96441048      12.23906185          1         0.00000000       0.00000000       0.00000000
6
iter=20000 frozen=false energy=-1.26974174 energy_frozen_part=0.00000000 Lattice="15.00000000 0.00000000 0.00000000 0.00000000 15.00000000 0.00000000 0.00000000 0.00000000 15.00000000" pbc=[F, F, F] list_num_par=6 Properties=species:S:1:pos:R:3:Z:I:1:velocities:R:3
H        11.62874851       4.04589861      13.14796351          1         0.00000000       0.00000000       0.00000000
H         9.40882242       1.38974930      11.24393453          1         0.00000000       0.00000000       0.00000000
H        11.08861822       3.48186520      10.46572575          1         0.00000000       0.00000000       0.00000000
H        12.05026057       1.47098608      12.14973436          1         0.00000000       0.00000000       0.00000000
H         9.94895142       1.95378030      13.92616802          1         0.00000000       0.00000000       0.00000000
H         8.98731024       3.96465972      12.24216193          1         0.00000000       0.00000000       0.00000000
6
iter=20000 frozen=false energy=-1.26974174 energy_frozen_part=0.00000000 Lattice="15.00000000 0.00000000 0.00000000 0.00000000 15.00000000 0.00000000 0.00000000 0.00000000 15.00000000" pbc=[F, F, F] list_num_par=6 Properties=species:S:1:pos:R:3:Z:I:1:velocities:R:3
H        11.62891693       4.04577917      13.14783786          1         0.00000000       0.00000000       0.00000000
H         9.40879136       1.38971769      11.24390435          1         0.00000000       0.00000000       0.00000000
H        11.08865678       3.48175316      10.46561624          1         0.00000000       0.00000000       0.00000000
H        12.05026779       1.47084137      12.14960411          1         0.00000000       0.00000000       0.00000000
H         9.94904977       1.95374332      13.92611837          1         0.00000000       0.00000000       0.00000000
H         8.98744435       3.96465816      12.24213033          1         0.00000000       0.00000000       0.00000000
6
iter=20000 frozen=false energy=-1.26974174 energy_frozen_part=0.00000000 Lattice="15.00000000 0.00000000 0.00000000 0.00000000 15.00000000 0.00000000 0.00000000 0.00000000 15.00000000" pbc=[F, F, F] list_num_par=6 Properties=species:S:1:pos:R:3:Z:I:1:velocities:R:3
H        11.62885650       4.04574929      13.14784795          1         0.00000000       0.00000000       0.00000000
H         9.40883144       1.38964741      11.24385661          1         0.00000000       0.00000000       0.00000000
H        11.08869001       3.48170503      10.46561844          1         0.00000000       0.00000000       0.00000000
H        12.05028308       1.47081225      12.14963477          1         0.00000000       0.00000000       0.00000000
H         9.94900741       1.95368785      13.92608491          1         0.00000000       0.00000000       0.00000000
H         8.98741413       3.96457888      12.24206138          1         0.00000000       0.00000000       0.00000000
6
iter=20000 frozen=false energy=-1.26974174 energy_frozen_part=0.00000000 Lattice="15.00000000 0.00000000 0.00000000 0.00000000 15.00000000 0.00000000 0.00000000 0.00000000 15.00000000" pbc=[F, F, F] list_num_par=6 Properties=species:S:1:pos:R:3:Z:I:1:velocities:R:3
H        11.62889398       4.04572561      13.14782145          1         0.00000000       0.00000000       0.00000000
H         9.40882164       1.38965739      11.24383783          1         0.00000000       0.00000000       0.00000000
H        11.08867339       3.48172498      10.46559732          1         0.00000000       0.00000000       0.00000000
H        12.05028199       1.47080564      12.14957917          1         0.00000000       0.00000000       0.00000000
H         9.94903939       1.95366843      13.92606820          1         0.00000000       0.00000000       0.00000000
H         8.98743400       3.96458078      12.24207830          1         0.00000000       0.00000000       0.00000000
6
iter=20000 frozen=false energy=-1.26974174 energy_frozen_part=0.00000000 Lattice="15.00000000 0.00000000 0.00000000 0.00000000 15.00000000 0.00000000 0.00000000 0.00000000 15.00000000" pbc=[F, F, F] list_num_par=6 Properties=species:S:1:pos:R:3:Z:I:1:velocities:R:3
H        11.62889033       4.04575859      13.14781293          1         0.00000000       0.00000000       0.00000000
H         9.40880292       1.38965010      11.24390531          1         0.00000000       0.00000000       0.00000000
H        11.08864476       3.48169325      10.46560573          1         0.00000000       0.00000000       0.00000000
H        12.05027386       1.47081384      12.14961911          1         0.00000000       0.00000000       0.00000000
H         9.94904806       1.95370402      13.92612155          1         0.00000000       0.00000000       0.00000000
H         8.98741713       3.96458839      12.24210852          1         0.00000000       0.00000000       0.00000000
6
iter=20000 frozen=false energy=-1.26974174 energy_frozen_part=0.00000000 Lattice="15.00000000 0.00000000 0.00000000 0.00000000 15.00000000 0.00000000 0.00000000 0.00000000 15.00000000" pbc=[F, F, F] list_num_par=6 Properties=species:S:1:pos:R:3:Z:I:1:velocities:R:3
H        11.62893485       4.04576329      13.14784884          1         0.00000000       0.00000000       0.00000000
H         9.40879796       1.38974472      11.24387085          1         0.00000000       0.00000000       0.00000000
H        11.08867731       3.48177812      10.46562734          1         0.00000000       0.00000000       0.00000000
H        12.05026632       1.47083630      12.14959789          1         0.00000000       0.00000000       0.00000000
H         9.94904382       1.95372732      13.92609749          1         0.00000000       0.00000000       0.00000000
H         8.98745688       3.96467459      12.24213277          1         0.00000000       0.00000000       0.00000000
6
iter=20000 frozen=false energy=-1.26974174 energy_frozen_part=0.00000000 Lattice="15.00000000 0.00000000 0.00000000 0.00000000 15.00000000 0.00000000 0.00000000 0.00000000 15.00000000" pbc=[F, F, F] list_num_par=6 Properties=species:S:1:pos:R:3:Z:I:1:velocities:R:3
H        11.62876096       4.04590916      13.14793752          1         0.00000000       0.00000000       0.00000000
H         9.40881382       1.38975150      11.24392684          1         0.00000000       0.00000000       0.00000000
H        11.08861547       3.48186280      10.46569600          1         0.00000000       0.00000000       0.00000000
H        12.05025244       1.47099425      12.14972038          1         0.00000000       0.00000000       0.00000000
H         9.94896004       1.95379739      13.92616202          1         0.00000000       0.00000000       0.00000000
H         8.98731588       3.96466737      12.24214052          1         0.00000000       0.00000000       0.00000000
6
iter=20000 frozen=false energy=-1.26974174 energy_frozen_part=0.00000000 Lattice="15.00000000 0.00000000 0.00000000 0.00000000 15.00000000 0.00000000 0.00000000 0.00000000 15.00000000" pbc=[F, F, F] list_num_par=6 Properties=species:S:1:pos:R:3:Z:I:1:velocities:R:3
H        11.62892038       4.04577001      13.14782960          1         0.00000000       0.00000000       0.00000000
H         9.40878621       1.38973007      11.24388494          1         0.00000000       0.00000000       0.00000000
H        11.08865177       3.48176183      10.46561022          1         0.00000000       0.00000000       0.00000000
H        12.05026573       1.47084453      12.14959212          1         0.00000000       0.00000000       0.00000000
H         9.94905250       1.95373602      13.92610882          1         0.00000000       0.00000000       0.00000000
H         8.98744355       3.96466054      12.24213386          1         0.00000000       0.00000000       0.00000000
6
iter=20000 frozen=false energy=-1.26974174 energy_frozen_part=0.00000000 Lattice="15.00000000 0.00000000 0.00000000 0.00000000 15.00000000 0.00000000 0.00000000 0.00000000 15.00000000" pbc=[F, F, F] list_num_par=6 Properties=species:S:1:pos:R:3:Z:I:1:velocities:R:3
H        11.62885429       4.04575160      13.14786738          1         0.00000000       0.00000000       0.00000000
H         9.40884389       1.38965044      11.24383862          1         0.00000000       0.00000000       0.00000000
H        11.08869474       3.48172982      10.46562616          1         0.00000000       0.00000000       0.00000000
H        12.05029146       1.47082771      12.14963509          1         0.00000000       0.00000000       0.00000000
H         9.94900524       1.95367037      13.92607679          1         0.00000000       0.00000000       0.00000000
H         8.98741327       3.96457774      12.24206844          1         0.00000000       0.00000000       0.00000000
6
iter=20000 frozen=false energy=-1.26974174 energy_frozen_part=0.00000000 Lattice="15.00000000 0.00000000 0.00000000 0.00000000 15.00000000 0.00000000 0.00000000 0.00000000 15.00000000" pbc=[F, F, F] list_num_par=6 Properties=species:S:1:pos:R:3:Z:I:1:velocities:R:3
H        11.62886026       4.04574404      13.14783871          1         0.00000000       0.00000000       0.00000000
H         9.40883529       1.38964510      11.24384269          1         0.00000000       0.00000000       0.00000000
H        11.08868468       3.48170730      10.46561195          1         0.00000000       0.00000000       0.00000000
H        12.05028335       1.47081832      12.14963548          1         0.00000000       0.00000000       0.00000000
H         9.94900520       1.95368766      13.92607683          1         0.00000000       0.00000000       0.00000000
H         8.98740918       3.96457656      12.24205107          1         0.00000000       0.00000000       0.00000000
6
iter=20000 frozen=false energy=-1.26974174 energy_frozen_part=0.00000000 Lattice="15.00000000 0.00000000 0.00000000 0.00000000 15.00000000 0.00000000 0.00000000 0.00000000 15.00000000" pbc=[F, F, F] list_num_par=6 Properties=species:S:1:pos:R:3:Z:I:1:velocities:R:3
H        11.40774633       1.83982950      11.07365297          1         0.00000000       0.00000000       0.00000000
H        10.15807941       2.93943810      13.31719427          1         0.00000000       0.00000000       0.00000000
H         9.46775611       3.82525075      10.75924919          1         0.00000000       0.00000000       0.00000000
H        12.84126267       3.51259216      12.79154731          1         0.00000000       0.00000000       0.00000000
H        10.90127644       5.49800595      12.47715232          1         0.00000000       0.00000000       0.00000000
H        12.15094427       4.39839612      10.23360188          1         0.00000000       0.00000000       0.00000000
6
iter=20000 frozen=false energy=-1.26974174 energy_frozen_part=0.00000000 Lattice="15.00000000 0.00000000 0.00000000 0.00000000 15.00000000 0.00000000 0.00000000 0.00000000 15.00000000" pbc=[F, F, F] list_num_par=6 Properties=species:S:1:pos:R:3:Z:I:1:velocities:R:3
H        11.62890868       4.04578440      13.14786327          1         0.00000000       0.00000000       0.00000000
H         9.40883370       1.38973099      11.24387181          1         0.00000000       0.00000000       0.00000000
H        11.08869464       3.48178017      10.46563460          1         0.00000000       0.00000000       0.00000000
H        12.05029541       1.47085894      12.14962141          1         0.00000000       0.00000000       0.00000000
H         9.94905007       1.95372992      13.92610441          1         0.00000000       0.00000000       0.00000000
H         8.98744698       3.96465836      12.24211650          1         0.00000000       0.00000000       0.00000000
6
iter=20000 frozen=false energy=-1.26974174 energy_frozen_part=0.00000000 Lattice="15.00000000 0.00000000 0.00000000 0.00000000 15.00000000 0.00000000 0.00000000 0.00000000 15.00000000" pbc=[F, F, F] list_num_par=6 Properties=species:S:1:pos:R:3:Z:I:1:velocities:R:3
H        11.62874515       4.04581633      13.14797312          1         0.00000000       0.00000000       0.00000000
H         9.40855637       1.38986838      11.24395691          1         0.00000000       0.00000000       0.00000000
H        11.08840270       3.48194405      10.46574165          1         0.00000000       0.00000000       0.00000000
H        12.05006239       1.47093057      12.14958666          1         0.00000000       0.00000000       0.00000000
H         9.94890097       1.95374081      13.92618063          1         0.00000000       0.00000000       0.00000000
H         8.98724227       3.96475426      12.24233506          1         0.00000000       0.00000000       0.00000000
6
iter=20000 frozen=false energy=-1.26974174 energy_frozen_part=0.00000000 Lattice="15.00000000 0.00000000 0.00000000 0.00000000 15.00000000 0.00000000 0.00000000 0.00000000 15.00000000" pbc=[F, F, F] list_num_par=6 Properties=species:S:1:pos:R:3:Z:I:1:velocities:R:3
H        11.40775218       1.83981083      11.07363431          1         0.00000000       0.00000000       0.00000000
H        10.15813511       2.93940022      13.31721535          1         0.00000000       0.00000000       0.00000000
H         9.46773503       3.82520094      10.75928833          1         0.00000000       0.00000000       0.00000000
H        12.84129586       3.51258421      12.79150331          1         0.00000000       0.00000000       0.00000000
H        10.90127955       5.49797770      12.47714723          1         0.00000000       0.00000000       0.00000000
H        12.15089382       4.39838593      10.23356988          1         0.00000000       0.00000000       0.00000000
6
iter=20000 frozen=false energy=-1.26974174 energy_frozen_part=0.00000000 Lattice="15.00000000 0.00000000 0.00000000 0.00000000 15.00000000 0.00000000 0.00000000 0.00000000 15.00000000" pbc=[F, F, F] list_num_par=6 Properties=species:S:1:pos:R:3:Z:I:1:velocities:R:3
H        11.62354457       4.04481221      13.15516450          1         0.00000000       0.00000000       0.00000000
H         9.41222577       1.39213386      11.23630995          1         0.00000000       0.00000000       0.00000000
H        11.09392481       3.48695323      10.46953784          1         0.00000000       0.00000000       0.00000000
H        12.05014900       1.47251585      12.15237834          1         0.00000000       0.00000000       0.00000000
H         9.94184238       1.95000035      13.92193370          1         0.00000000       0.00000000       0.00000000
H         8.98561570       3.96442997      12.23908941          1         0.00000000       0.00000000       0.00000000
6
iter=20000 frozen=false energy=-1.26974174 energy_frozen_part=0.00000000 Lattice="15.00000000 0.00000000 0.00000000 0.00000000 15.00000000 0.00000000 0.00000000 0.00000000 15.00000000" pbc=[F, F, F] list_num_par=6 Properties=species:S:1:pos:R:3:Z:I:1:velocities:R:3
H        11.62876675       4.04576766      13.14796982          1         0.00000000       0.00000000       0.00000000
H         9.40852802       1.38989075      11.24390398          1         0.00000000       0.00000000       0.00000000
H        11.08841266       3.48195688      10.46572653          1         0.00000000       0.00000000       0.00000000
H        12.05003513       1.47090279      12.14953675          1         0.00000000       0.00000000       0.00000000
H         9.94888023       1.95371220      13.92614420          1         0.00000000       0.00000000       0.00000000
H         8.98725975       3.96476735      12.24232532          1         0.00000000       0.00000000       0.00000000
6
iter=20000 frozen=false energy=-1.26974174 energy_frozen_part=0.00000000 Lattice="15.00000000 0.00000000 0.00000000 0.00000000 15.00000000 0.00000000 0.00000000 0.00000000 15.00000000" pbc=[F, F, F] list_num_par=6 Properties=species:S:1:pos:R:3:Z:I:1:velocities:R:3
H        11.62880940       4.04590222      13.14793408          1         0.00000000       0.00000000       0.00000000
H         9.40879932       1.38978529      11.24394789          1         0.00000000       0.00000000       0.00000000
H        11.08862661       3.48186435      10.46570697          1         0.00000000       0.00000000       0.00000000
H        12.05024089       1.47097485      12.14972213          1         0.00000000       0.00000000       0.00000000
H         9.94897404       1.95382611      13.92618202          1         0.00000000       0.00000000       0.00000000
H         8.98735488       3.96470750      12.24216278          1         0.00000000       0.00000000       0.00000000
6
iter=20000 frozen=false energy=-1.26974174 energy_frozen_part=0.00000000 Lattice="15.00000000 0.00000000 0.00000000 0.00000000 15.00000000 0.00000000 0.00000000 0.00000000 15.00000000" pbc=[F, F, F] list_num_par=6 Properties=species:S:1:pos:R:3:Z:I:1:velocities:R:3
H        11.62893705       4.04576381      13.14783569          1         0.00000000       0.00000000       0.00000000
H         9.40879431       1.38975334      11.24387320          1         0.00000000       0.00000000       0.00000000
H        11.08869803       3.48176998      10.46560943          1         0.00000000       0.00000000       0.00000000
H        12.05026471       1.47083077      12.14959664          1         0.00000000       0.00000000       0.00000000
H         9.94904206       1.95375148      13.92609775          1         0.00000000       0.00000000       0.00000000
H         8.98747075       3.96468867      12.24210353          1         0.00000000       0.00000000       0.00000000
6
iter=20000 frozen=false energy=-1.26974174 energy_frozen_part=0.00000000 Lattice="15.00000000 0.00000000 0.00000000 0.00000000 15.00000000 0.00000000 0.00000000 0.00000000 15.00000000" pbc=[F, F, F] list_num_par=6 Properties=species:S:1:pos:R:3:Z:I:1:velocities:R:3
H        11.62891214       4.04579171      13.14784177          1         0.00000000       0.00000000       0.00000000
H         9.40882468       1.38972892      11.24386955          1         0.00000000       0.00000000       0.00000000
H        11.08867193       3.48178845      10.46561450          1         0.00000000       0.00000000       0.00000000
H        12.05029273       1.47087437      12.14960121          1         0.00000000       0.00000000       0.00000000
H         9.94905837       1.95373923      13.92609993          1         0.00000000       0.00000000       0.00000000
H         8.98744292       3.96465583      12.24211700          1         0.00000000       0.00000000       0.00000000
6
iter=20000 frozen=false energy=-1.26974174 energy_frozen_part=0.00000000 Lattice="15.00000000 0.00000000 0.00000000 0.00000000 15.00000000 0.00000000 0.00000000 0.00000000 15.00000000" pbc=[F, F, F] list_num_par=6 Properties=species:S:1:pos:R:3:Z:I:1:velocities:R:3
H        11.62352186       4.04495387      13.15500261          1         0.00000000       0.00000000       0.00000000
H         9.41219514       1.39213526      11.23636650          1         0.00000000       0.00000000       0.00000000
H        11.09366383       3.48707478      10.46943205          1         0.00000000       0.00000000       0.00000000
H        12.05021371       1.47269656      12.15215405          1         0.00000000       0.00000000       0.00000000
H         9.94205309       1.95001367      13.92193740          1         0.00000000       0.00000000       0.00000000
H         8.98550188       3.96439006      12.23921018          1         0.00000000       0.00000000       0.00000000
6
iter=20000 frozen=false energy=-1.26974174 energy_frozen_part=0.00000000 Lattice="15.00000000 0.00000000 0.00000000 0.00000000 15.00000000 0.00000000 0.00000000 0.00000000 15.00000000" pbc=[F, F, F] list_num_par=6 Properties=species:S:1:pos:R:3:Z:I:1:velocities:R:3
H        11.62879167       4.04582448      13.14808694          1         0.00000000       0.00000000       0.00000000
H         9.40861265       1.38992918      11.24399604          1         0.00000000       0.00000000       0.00000000
H        11.08842919       3.48204584      10.46584054          1         0.00000000       0.00000000       0.00000000
H        12.05012451       1.47098337      12.14960323          1         0.00000000       0.00000000       0.00000000
H         9.94898361       1.95369944      13.92624021          1         0.00000000       0.00000000       0.00000000
H         8.98728486       3.96476513      12.24248138          1         0.00000000       0.00000000       0.00000000
6
iter=20000 frozen=false energy=-1.26974174 energy_frozen_part=0.00000000 Lattice="15.00000000 0.00000000 0.00000000 0.00000000 15.00000000 0.00000000 0.00000000 0.00000000 15.00000000" pbc=[F, F, F] list_num_par=6 Properties=species:S:1:pos:R:3:Z:I:1:velocities:R:3
H        11.62354438       4.04480797      13.15515921          1         0.00000000       0.00000000       0.00000000
H         9.41223470       1.39210474      11.23633418          1         0.00000000       0.00000000       0.00000000
H        11.09394679       3.48689894      10.46954190          1         0.00000000       0.00000000       0.00000000
H        12.05014663       1.47248411      12.15242661          1         0.00000000       0.00000000       0.00000000
H         9.94183408       1.95001700      13.92195386          1         0.00000000       0.00000000       0.00000000
H         8.98562708       3.96442435      12.23907312          1         0.00000000       0.00000000       0.00000000
6
iter=20000 frozen=false energy=-1.26974174 energy_frozen_part=0.00000000 Lattice="15.00000000 0.00000000 0.00000000 0.00000000 15.00000000 0.00000000 0.00000000 0.00000000 15.00000000" pbc=[F, F, F] list_num_par=6 Properties=species:S:1:pos:R:3:Z:I:1:velocities:R:3
H        11.62874940       4.04581473      13.14798101          1         0.00000000       0.00000000       0.00000000
H         9.40855614       1.38987004      11.24395413          1         0.00000000       0.00000000       0.00000000
H        11.08840065       3.48194870      10.46574742          1         0.00000000       0.00000000       0.00000000
H        12.05006767       1.47093628      12.14958792          1         0.00000000       0.00000000       0.00000000
H         9.94890341       1.95372986      13.92618796          1         0.00000000       0.00000000       0.00000000
H         8.98724769       3.96474679      12.24234938          1         0.00000000       0.00000000       0.00000000
6
iter=20000 frozen=false energy=-1.26974174 energy_frozen_part=0.00000000 Lattice="15.00000000 0.00000000 0.00000000 0.00000000 15.00000000 0.00000000 0.00000000 0.00000000 15.00000000" pbc=[F, F, F] list_num_par=6 Properties=species:S:1:pos:R:3:Z:I:1:velocities:R:3
H        11.40775264       1.83981276      11.07363095          1         0.00000000       0.00000000       0.00000000
H        10.15812097       2.93943814      13.31719113          1         0.00000000       0.00000000       0.00000000
H         9.46774158       3.82521129      10.75924573          1         0.00000000       0.00000000       0.00000000
H        12.84129284       3.51260264      12.79148590          1         0.00000000       0.00000000       0.00000000
H        10.90127640       5.49800084      12.47710867          1         0.00000000       0.00000000       0.00000000
H        12.15091138       4.39838071      10.23354720          1         0.00000000       0.00000000       0.00000000
6
iter=20000 frozen=false energy=-1.26974174 energy_frozen_part=0.00000000 Lattice="15.00000000 0.00000000 0.00000000 0.00000000 15.00000000 0.00000000 0.00000000 0.00000000 15.00000000" pbc=[F, F, F] list_num_par=6 Properties=species:S:1:pos:R:3:Z:I:1:velocities:R:3
H        11.62893289       4.04576339      13.14785534          1         0.00000000       0.00000000       0.00000000
H         9.40879061       1.38975538      11.24387289          1         0.00000000       0.00000000       0.00000000
H        11.08868071       3.48178436      10.46562871          1         0.00000000       0.00000000       0.00000000
H        12.05025940       1.47083128      12.14959436          1         0.00000000       0.00000000       0.00000000
H         9.94903284       1.95374120      13.92609552          1         0.00000000       0.00000000       0.00000000
H         8.98745987       3.96468653      12.24212672          1         0.00000000       0.00000000       0.00000000
6
iter=20000 frozen=false energy=-1.26974174 energy_frozen_part=0.00000000 Lattice="15.00000000 0.00000000 0.00000000 0.00000000 15.00000000 0.00000000 0.00000000 0.00000000 15.00000000" pbc=[F, F, F] list_num_par=6 Properties=species:S:1:pos:R:3:Z:I:1:velocities:R:3
H        11.62879988       4.04582483      13.14808544          1         0.00000000       0.00000000       0.00000000
H         9.40860697       1.38993942      11.24398813          1         0.00000000       0.00000000       0.00000000
H        11.08843904       3.48205728      10.46583780          1         0.00000000       0.00000000       0.00000000
H        12.05012489       1.47098424      12.14959508          1         0.00000000       0.00000000       0.00000000
H         9.94898051       1.95370159      13.92623927          1         0.00000000       0.00000000       0.00000000
H         8.98728812       3.96477103      12.24247794          1         0.00000000       0.00000000       0.00000000
6
iter=20000 frozen=false energy=-1.26974174 energy_frozen_part=0.00000000 Lattice="15.00000000 0.00000000 0.00000000 0.00000000 15.00000000 0.00000000 0.00000000 0.00000000 15.00000000" pbc=[F, F, F] list_num_par=6 Properties=species:S:1:pos:R:3:Z:I:1:velocities:R:3
H        11.62879214       4.04582712      13.14807808          1         0.00000000       0.00000000       0.00000000
H         9.40862218       1.38991202      11.24397825          1         0.00000000       0.00000000       0.00000000
H        11.08843300       3.48204237      10.46583195          1         0.00000000       0.00000000       0.00000000
H        12.05013083       1.47098488      12.14960215          1         0.00000000       0.00000000       0.00000000
H         9.94898202       1.95369435      13.92623240          1         0.00000000       0.00000000       0.00000000
H         8.98728016       3.96474651      12.24246542          1         0.00000000       0.00000000       0.00000000
6
iter=20000 frozen=false energy=-1.26974174 energy_frozen_part=0.00000000 Lattice="15.00000000 0.00000000 0.00000000 0.00000000 15.00000000 0.00000000 0.00000000 0.00000000 15.00000000" pbc=[F, F, F] list_num_par=6 Properties=species:S:1:pos:R:3:Z:I:1:velocities:R:3
H        11.62875188       4.04581029      13.14796591          1         0.00000000       0.00000000       0.00000000
H         9.40855746       1.38988625      11.24391705          1         0.00000000       0.00000000       0.00000000
H        11.08841964       3.48196329      10.46572419          1         0.00000000       0.00000000       0.00000000
H        12.05005380       1.47093675      12.14955350          1         0.00000000       0.00000000       0.00000000
H         9.94889519       1.95373643      13.92615643          1         0.00000000       0.00000000       0.00000000
H         8.98725400       3.96476289      12.24232011          1         0.00000000       0.00000000       0.00000000
6
iter=20000 frozen=false energy=-1.26974174 energy_frozen_part=0.00000000 Lattice="15.00000000 0.00000000 0.00000000 0.00000000 15.00000000 0.00000000 0.00000000 0.00000000 15.00000000" pbc=[F, F, F] list_num_par=6 Properties=species:S:1:pos:R:3:Z:I:1:velocities:R:3
H        11.62889412       4.04572633      13.14783069          1         0.00000000       0.00000000       0.00000000
H         9.40881630       1.38966091      11.24385386          1         0.00000000       0.00000000       0.00000000
H        11.08867214       3.48171584      10.46560579          1         0.00000000       0.00000000       0.00000000
H        12.05028508       1.47080392      12.14958950          1         0.00000000       0.00000000       0.00000000
H         9.94904015       1.95367935      13.92607647          1         0.00000000       0.00000000       0.00000000
H         8.98742790       3.96458954      12.24208320          1         0.00000000       0.00000000       0.00000000
6
iter=20000 frozen=false energy=-1.26974174 energy_frozen_part=0.00000000 Lattice="15.00000000 0.00000000 0.00000000 0.00000000 15.00000000 0.00000000 0.00000000 0.00000000 15.00000000" pbc=[F, F, F] list_num_par=6 Properties=species:S:1:pos:R:3:Z:I:1:velocities:R:3
H        11.62348118       4.04497150      13.15500692          1         0.00000000       0.00000000       0.00000000
H         9.41217117       1.39215380      11.23635518          1         0.00000000       0.00000000       0.00000000
H        11.09364545       3.48708476      10.46943354          1         0.00000000       0.00000000       0.00000000
H        12.05018062       1.47270382      12.15217431          1         0.00000000       0.00000000       0.00000000
H         9.94201279       1.95003417      13.92193088          1         0.00000000       0.00000000       0.00000000
H         8.98547654       3.96441389      12.23919912          1         0.00000000       0.00000000       0.00000000
6
iter=20000 frozen=false energy=-1.26974174 energy_frozen_part=0.00000000 Lattice="15.00000000 0.00000000 0.00000000 0.00000000 15.00000000 0.00000000 0.00000000 0.00000000 15.00000000" pbc=[F, F, F] list_num_par=6 Properties=species:S:1:pos:R:3:Z:I:1:velocities:R:3
H        11.62352428       4.04480111      13.15516548          1         0.00000000       0.00000000       0.00000000
H         9.41226832       1.39213764      11.23624399          1         0.00000000       0.00000000       0.00000000
H        11.09395791       3.48697939      10.46951986          1         0.00000000       0.00000000       0.00000000
H        12.05017646       1.47252389      12.15234270          1         0.00000000       0.00000000       0.00000000
H         9.94184019       1.94996324      13.92188023          1         0.00000000       0.00000000       0.00000000
H         8.98561433       3.96441809      12.23905169          1         0.00000000       0.00000000       0.00000000
6
iter=20000 frozen=false energy=-1.26974174 energy_frozen_part=0.00000000 Lattice="15.00000000 0.00000000 0.00000000 0.00000000 15.00000000 0.00000000 0.00000000 0.00000000 15.00000000" pbc=[F, F, F] list_num_par=6 Properties=species:S:1:pos:R:3:Z:I:1:velocities:R:3
H        11.62351165       4.04495972      13.15496191          1         0.00000000       0.00000000       0.00000000
H         9.41217413       1.39211555      11.23638703          1         0.00000000       0.00000000       0.00000000
H        11.09362763       3.48704624      10.46940568          1         0.00000000       0.00000000       0.00000000
H        12.05020134       1.47269281      12.15215221          1         0.00000000       0.00000000       0.00000000
H         9.94205924       1.95002689      13.92194588          1         0.00000000       0.00000000       0.00000000
H         8.98548419       3.96438546      12.23920734          1         0.00000000       0.00000000       0.00000000
6
iter=20000 frozen=false energy=-1.26974174 energy_frozen_part=0.00000000 Lattice="15.00000000 0.00000000 0.00000000 0.00000000 15.00000000 0.00000000 0.00000000 0.00000000 15.00000000" pbc=[F, F, F] list_num_par=6 Properties=species:S:1:pos:R:3:Z:I:1:velocities:R:3
H        11.62893319       4.04576036      13.14784833          1         0.00000000       0.00000000       0.00000000
H         9.40878843       1.38974910      11.24386624          1         0.00000000       0.00000000       0.00000000
H        11.08868898       3.48176930      10.46561716          1         0.00000000       0.00000000       0.00000000
H        12.05026222       1.47082768      12.14959657          1         0.00000000       0.00000000       0.00000000
H         9.94903666       1.95373260      13.92609429          1         0.00000000       0.00000000       0.00000000
H         8.98747113       3.96468039      12.24211720          1         0.00000000       0.00000000       0.00000000
6
iter=20000 frozen=false energy=-1.26974174 energy_frozen_part=0.00000000 Lattice="15.00000000 0.00000000 0.00000000 0.00000000 15.00000000 0.00000000 0.00000000 0.00000000 15.00000000" pbc=[F, F, F] list_num_par=6 Properties=species:S:1:pos:R:3:Z:I:1:velocities:R:3
H        11.62872878       4.04579147      13.14800767          1         0.00000000       0.00000000       0.00000000
H         9.40856019       1.38989081      11.24392134          1         0.00000000       0.00000000       0.00000000
H        11.08841881       3.48197428      10.46575748          1         0.00000000       0.00000000       0.00000000
H        12.05005599       1.47093482      12.14958296          1         0.00000000       0.00000000       0.00000000
H         9.94886511       1.95370860      13.92616733          1         0.00000000       0.00000000       0.00000000
H         8.98723903       3.96475168      12.24234479          1         0.00000000       0.00000000       0.00000000
6
iter=20000 frozen=false energy=-1.26974174 energy_frozen_part=0.00000000 Lattice="15.00000000 0.00000000 0.00000000 0.00000000 15.00000000 0.00000000 0.00000000 0.00000000 15.00000000" pbc=[F, F, F] list_num_par=6 Properties=species:S:1:pos:R:3:Z:I:1:velocities:R:3
H        11.62351656       4.04487332      13.15510790          1         0.00000000       0.00000000       0.00000000
H         9.41223674       1.39210710      11.23634597          1         0.00000000       0.00000000       0.00000000
H        11.09386320       3.48694823      10.46950390          1         0.00000000       0.00000000       0.00000000
H        12.05017208       1.47256661      12.15236509          1         0.00000000       0.00000000       0.00000000
H         9.94189064       1.95002660      13.92195615          1         0.00000000       0.00000000       0.00000000
H         8.98557192       3.96440336      12.23909886          1         0.00000000       0.00000000       0.00000000
6
iter=20000 frozen=false energy=-1.26974174 energy_frozen_part=0.00000000 Lattice="15.00000000 0.00000000 0.00000000 0.00000000 15.00000000 0.00000000 0.00000000 0.00000000 15.00000000" pbc=[F, F, F] list_num_par=6 Properties=species:S:1:pos:R:3:Z:I:1:velocities:R:3
H        11.62892003       4.04576755      13.14784366          1         0.00000000       0.00000000       0.00000000
H         9.40879357       1.38973417      11.24387721          1         0.00000000       0.00000000       0.00000000
H        11.08867373       3.48177012      10.46562498          1         0.00000000       0.00000000       0.00000000
H        12.05026233       1.47083226      12.14959723          1         0.00000000       0.00000000       0.00000000
H         9.94903968       1.95373219      13.92609780          1         0.00000000       0.00000000       0.00000000
H         8.98745133       3.96466383      12.24212546          1         0.00000000       0.00000000       0.00000000
6
iter=20000 frozen=false energy=-1.26974174 energy_frozen_part=0.00000000 Lattice="15.00000000 0.00000000 0.00000000 0.00000000 15.00000000 0.00000000 0.00000000 0.00000000 15.00000000" pbc=[F, F, F] list_num_par=6 Properties=species:S:1:pos:R:3:Z:I:1:velocities:R:3
H        11.40776111       1.83982234      11.07365350          1         0.00000000       0.00000000       0.00000000
H        10.15813333       2.93943826      13.31721240          1         0.00000000       0.00000000       0.00000000
H         9.46773758       3.82520321      10.75927037          1         0.00000000       0.00000000       0.00000000
H        12.84129738       3.51262080      12.79149900          1         0.00000000       0.00000000       0.00000000
H        10.90126929       5.49800393      12.47712754          1         0.00000000       0.00000000       0.00000000
H        12.15090021       4.39838849      10.23356121          1         0.00000000       0.00000000       0.00000000
6
iter=20000 frozen=false energy=-1.26974174 energy_frozen_part=0.00000000 Lattice="15.00000000 0.00000000 0.00000000 0.00000000 15.00000000 0.00000000 0.00000000 0.00000000 15.00000000" pbc=[F, F, F] list_num_par=6 Properties=species:S:1:pos:R:3:Z:I:1:velocities:R:3
H        11.40775957       1.83981559      11.07364091          1         0.00000000       0.00000000       0.00000000
H        10.15811347       2.93943378      13.31719146          1         0.00000000       0.00000000       0.00000000
H         9.46773924       3.82519568      10.75924732          1         0.00000000       0.00000000       0.00000000
H        12.84127293       3.51262119      12.79149944          1         0.00000000       0.00000000       0.00000000
H        10.90125119       5.49800528      12.47710528          1         0.00000000       0.00000000       0.00000000
H        12.15090346       4.39838893      10.23355515          1         0.00000000       0.00000000       0.00000000
6
iter=20000 frozen=false energy=-1.26974174 energy_frozen_part=0.00000000 Lattice="15.00000000 0.00000000 0.00000000 0.00000000 15.00000000 0.00000000 0.00000000 0.00000000 15.00000000" pbc=[F, F, F] list_num_par=6 Properties=species:S:1:pos:R:3:Z:I:1:velocities:R:3
H        11.62886155       4.04574223      13.14785295          1         0.00000000       0.00000000       0.00000000
H         9.40884741       1.38963292      11.24386849          1         0.00000000       0.00000000       0.00000000
H        11.08869340       3.48169425      10.46561715          1         0.00000000       0.00000000       0.00000000
H        12.05028953       1.47081076      12.14965203          1         0.00000000       0.00000000       0.00000000
H         9.94901304       1.95368104      13.92609855          1         0.00000000       0.00000000       0.00000000
H         8.98741661       3.96456920      12.24206697          1         0.00000000       0.00000000       0.00000000
6
iter=20000 frozen=false energy=-1.26974174 energy_frozen_part=0.00000000 Lattice="15.00000000 0.00000000 0.00000000 0.00000000 15.00000000 0.00000000 0.00000000 0.00000000 15.00000000" pbc=[F, F, F] list_num_par=6 Properties=species:S:1:pos:R:3:Z:I:1:velocities:R:3
H        11.62352334       4.04480364      13.15516489          1         0.00000000       0.00000000       0.00000000
H         9.41226520       1.39214429      11.23622923          1         0.00000000       0.00000000       0.00000000
H        11.09394869       3.48698425      10.46951833          1         0.00000000       0.00000000       0.00000000
H        12.05017995       1.47253061      12.15233588          1         0.00000000       0.00000000       0.00000000
H         9.94183816       1.94995873      13.92187391          1         0.00000000       0.00000000       0.00000000
H         8.98561271       3.96442153      12.23906094          1         0.00000000       0.00000000       0.00000000
6
iter=20000 frozen=false energy=-1.26974174 energy_frozen_part=0.00000000 Lattice="15.00000000 0.00000000 0.00000000 0.00000000 15.00000000 0.00000000 0.00000000 0.00000000 15.00000000" pbc=[F, F, F] list_num_par=6 Properties=species:S:1:pos:R:3:Z:I:1:velocities:R:3
H        11.62890770       4.04577871      13.14783739          1         0.00000000       0.00000000       0.00000000
H         9.40880224       1.38972209      11.24387894          1         0.00000000       0.00000000       0.00000000
H        11.08865073       3.48177377      10.46562004          1         0.00000000       0.00000000       0.00000000
H        12.05027446       1.47085304      12.14960023          1         0.00000000       0.00000000       0.00000000
H         9.94905014       1.95372660      13.92610587          1         0.00000000       0.00000000       0.00000000
H         8.98742688       3.96464594      12.24213144          1         0.00000000       0.00000000       0.00000000
6
iter=20000 frozen=false energy=-1.26974174 energy_frozen_part=0.00000000 Lattice="15.00000000 0.00000000 0.00000000 0.00000000 15.00000000 0.00000000 0.00000000 0.00000000 15.00000000" pbc=[F, F, F] list_num_par=6 Properties=species:S:1:pos:R:3:Z:I:1:velocities:R:3
H        11.62873841       4.04580620      13.14799987          1         0.00000000       0.00000000       0.00000000
H         9.40856205       1.38989522      11.24391531          1         0.00000000       0.00000000       0.00000000
H        11.08842305       3.48197947      10.46574999          1         0.00000000       0.00000000       0.00000000
H        12.05005211       1.47093835      12.14957622          1         0.00000000       0.00000000       0.00000000
H         9.94887719       1.95371784      13.92616520          1         0.00000000       0.00000000       0.00000000
H         8.98724725       3.96475943      12.24234535          1         0.00000000       0.00000000       0.00000000
6
iter=20000 frozen=false energy=-1.26974174 energy_frozen_part=0.00000000 Lattice="15.00000000 0.00000000 0.00000000 0.00000000 15.00000000 0.00000000 0.00000000 0.00000000 15.00000000" pbc=[F, F, F] list_num_par=6 Properties=species:S:1:pos:R:3:Z:I:1:velocities:R:3
H        11.62875721       4.04590508      13.14797023          1         0.00000000       0.00000000       0.00000000
H         9.40882132       1.38975339      11.24393781          1         0.00000000       0.00000000       0.00000000
H        11.08862620       3.48186671      10.46572731          1         0.00000000       0.00000000       0.00000000
H        12.05025767       1.47099313      12.14975527          1         0.00000000       0.00000000       0.00000000
H         9.94894040       1.95379636      13.92617166          1         0.00000000       0.00000000       0.00000000
H         8.98732209       3.96467424      12.24214987          1         0.00000000       0.00000000       0.00000000
6
iter=20000 frozen=false energy=-1.26974174 energy_frozen_part=0.00000000 Lattice="15.00000000 0.00000000 0.00000000 0.00000000 15.00000000 0.00000000 0.00000000 0.00000000 15.00000000" pbc=[F, F, F] list_num_par=6 Properties=species:S:1:pos:R:3:Z:I:1:velocities:R:3
H        11.62353072       4.04484168      13.15514928          1         0.00000000       0.00000000       0.00000000
H         9.41223573       1.39215361      11.23628917          1         0.00000000       0.00000000       0.00000000
H        11.09391767       3.48697526      10.46951920          1         0.00000000       0.00000000       0.00000000
H        12.05016285       1.47255187      12.15235567          1         0.00000000       0.00000000       0.00000000
H         9.94185005       1.95001076      13.92191606          1         0.00000000       0.00000000       0.00000000
H         8.98561061       3.96444734      12.23907526          1         0.00000000       0.00000000       0.00000000
6
iter=20000 frozen=false energy=-1.26974174 energy_frozen_part=0.00000000 Lattice="15.00000000 0.00000000 0.00000000 0.00000000 15.00000000 0.00000000 0.00000000 0.00000000 15.00000000" pbc=[F, F, F] list_num_par=6 Properties=species:S:1:pos:R:3:Z:I:1:velocities:R:3
H        11.62891224       4.04578162      13.14785199          1         0.00000000       0.00000000       0.00000000
H         9.40881754       1.38972748      11.24386759          1         0.00000000       0.00000000       0.00000000
H        11.08867500       3.48178518      10.46562319          1         0.00000000       0.00000000       0.00000000
H        12.05028871       1.47086011      12.14960598          1         0.00000000       0.00000000       0.00000000
H         9.94904754       1.95373155      13.92609253          1         0.00000000       0.00000000       0.00000000
H         8.98744281       3.96465211      12.24211488          1         0.00000000       0.00000000       0.00000000
6
iter=20000 frozen=false energy=-1.26974174 energy_frozen_part=0.00000000 Lattice="15.00000000 0.00000000 0.00000000 0.00000000 15.00000000 0.00000000 0.00000000 0.00000000 15.00000000" pbc=[F, F, F] list_num_par=6 Properties=species:S:1:pos:R:3:Z:I:1:velocities:R:3
H        11.62348361       4.04497383      13.15499706          1         0.00000000       0.00000000       0.00000000
H         9.41216531       1.39213816      11.23637992          1         0.00000000       0.00000000       0.00000000
H        11.09362383       3.48707217      10.46943026          1         0.00000000       0.00000000       0.00000000
H        12.05017501       1.47270213      12.15217077          1         0.00000000       0.00000000       0.00000000
H         9.94201703       1.95003925      13.92195212          1         0.00000000       0.00000000       0.00000000
H         8.98546587       3.96440816      12.23920800          1         0.00000000       0.00000000       0.00000000
6
iter=20000 frozen=false energy=-1.26974174 energy_frozen_part=0.00000000 Lattice="15.00000000 0.00000000 0.00000000 0.00000000 15.00000000 0.00000000 0.00000000 0.00000000 15.00000000" pbc=[F, F, F] list_num_par=6 Properties=species:S:1:pos:R:3:Z:I:1:velocities:R:3
H        11.62891214       4.04577996      13.14784079          1         0.00000000       0.00000000       0.00000000
H         9.40882313       1.38972758      11.24386725          1         0.00000000       0.00000000       0.00000000
H        11.08867335       3.48177882      10.46561252          1         0.00000000       0.00000000       0.00000000
H        12.05029519       1.47086185      12.14958954          1         0.00000000       0.00000000       0.00000000
H         9.94905852       1.95372898      13.92609249          1         0.00000000       0.00000000       0.00000000
H         8.98744579       3.96464949      12.24211751          1         0.00000000       0.00000000       0.00000000
6
iter=20000 frozen=false energy=-1.26974174 energy_frozen_part=0.00000000 Lattice="15.00000000 0.00000000 0.00000000 0.00000000 15.00000000 0.00000000 0.00000000 0.00000000 15.00000000" pbc=[F, F, F] list_num_par=6 Properties=species:S:1:pos:R:3:Z:I:1:velocities:R:3
H        11.62874269       4.04581025      13.14796335          1         0.00000000       0.00000000       0.00000000
H         9.40855324       1.38988594      11.24391624          1         0.00000000       0.00000000       0.00000000
H        11.08840661       3.48196113      10.46572586          1         0.00000000       0.00000000       0.00000000
H        12.05004961       1.47093485      12.14956767          1         0.00000000       0.00000000       0.00000000
H         9.94888536       1.95373132      13.92616141          1         0.00000000       0.00000000       0.00000000
H         8.98724002       3.96475758      12.24231997          1         0.00000000       0.00000000       0.00000000
6
iter=20000 frozen=false energy=-1.26974174 energy_frozen_part=0.00000000 Lattice="15.00000000 0.00000000 0.00000000 0.00000000 15.00000000 0.00000000 0.00000000 0.00000000 15.00000000" pbc=[F, F, F] list_num_par=6 Properties=species:S:1:pos:R:3:Z:I:1:velocities:R:3
H        11.62885864       4.04574126      13.14786149          1         0.00000000       0.00000000       0.00000000
H         9.40883744       1.38966083      11.24384148          1         0.00000000       0.00000000       0.00000000
H        11.08869453       3.48172844      10.46562356          1         0.00000000       0.00000000       0.00000000
H        12.05028068       1.47082171      12.14963032          1         0.00000000       0.00000000       0.00000000
H         9.94900525       1.95367039      13.92607572          1         0.00000000       0.00000000       0.00000000
H         8.98740848       3.96457583      12.24206958          1         0.00000000       0.00000000       0.00000000
6
iter=20000 frozen=false energy=-1.26974174 energy_frozen_part=0.00000000 Lattice="15.00000000 0.00000000 0.00000000 0.00000000 15.00000000 0.00000000 0.00000000 0.00000000 15.00000000" pbc=[F, F, F] list_num_par=6 Properties=species:S:1:pos:R:3:Z:I:1:velocities:R:3
H        11.62347884       4.04497093      13.15499515          1         0.00000000       0.00000000       0.00000000
H         9.41215744       1.39212985      11.23638717          1         0.00000000       0.00000000       0.00000000
H        11.09361473       3.48706898      10.46942642          1         0.00000000       0.00000000       0.00000000
H        12.05017276       1.47270821      12.15216961          1         0.00000000       0.00000000       0.00000000
H         9.94201207       1.95003903      13.92195224          1         0.00000000       0.00000000       0.00000000
H         8.98546553       3.96440399      12.23920236          1         0.00000000       0.00000000       0.00000000
6
iter=20000 frozen=false energy=-1.26974174 energy_frozen_part=0.00000000 Lattice="15.00000000 0.00000000 0.00000000 0.00000000 15.00000000 0.00000000 0.00000000 0.00000000 15.00000000" pbc=[F, F, F] list_num_par=6 Properties=species:S:1:pos:R:3:Z:I:1:velocities:R:3
H        11.62887320       4.04574525      13.14784263          1         0.00000000       0.00000000       0.00000000
H         9.40883486       1.38966015      11.24385040          1         0.00000000       0.00000000       0.00000000
H        11.08868651       3.48172238      10.46561217          1         0.00000000       0.00000000       0.00000000
H        12.05027910       1.47081786      12.14962654          1         0.00000000       0.00000000       0.00000000
H         9.94901250       1.95368601      13.92608772          1         0.00000000       0.00000000       0.00000000
H         8.98741937       3.96458455      12.24207304          1         0.00000000       0.00000000       0.00000000
6
iter=20000 frozen=false energy=-1.26974174 energy_frozen_part=0.00000000 Lattice="15.00000000 0.00000000 0.00000000 0.00000000 15.00000000 0.00000000 0.00000000 0.00000000 15.00000000" pbc=[F, F, F] list_num_par=6 Properties=species:S:1:pos:R:3:Z:I:1:velocities:R:3
H        11.62353383       4.04495206      13.15496699          1         0.00000000       0.00000000       0.00000000
H         9.41216301       1.39213045      11.23638512          1         0.00000000       0.00000000       0.00000000
H        11.09365913       3.48703414      10.46940346          1         0.00000000       0.00000000       0.00000000
H        12.05018494       1.47267065      12.15216164          1         0.00000000       0.00000000       0.00000000
H         9.94204346       1.95005680      13.92194523          1         0.00000000       0.00000000       0.00000000
H         8.98551694       3.96441402      12.23918852          1         0.00000000       0.00000000       0.00000000
6
iter=20000 frozen=false energy=-1.26974174 energy_frozen_part=0.00000000 Lattice="15.00000000 0.00000000 0.00000000 0.00000000 15.00000000 0.00000000 0.00000000 0.00000000 15.00000000" pbc=[F, F, F] list_num_par=6 Properties=species:S:1:pos:R:3:Z:I:1:velocities:R:3
H        11.62879816       4.04582798      13.14808623          1         0.00000000       0.00000000       0.00000000
H         9.40861763       1.38993487      11.24399327          1         0.00000000       0.00000000       0.00000000
H        11.08843477       3.48205507      10.46584142          1         0.00000000       0.00000000       0.00000000
H        12.05012901       1.47099059      12.14960325          1         0.00000000       0.00000000       0.00000000
H         9.94898302       1.95370620      13.92623703          1         0.00000000       0.00000000       0.00000000
H         8.98728347       3.96477762      12.24247942          1         0.00000000       0.00000000       0.00000000
6
iter=20000 frozen=false energy=-1.26974174 energy_frozen_part=0.00000000 Lattice="15.00000000 0.00000000 0.00000000 0.00000000 15.00000000 0.00000000 0.00000000 0.00000000 15.00000000" pbc=[F, F, F] list_num_par=6 Properties=species:S:1:pos:R:3:Z:I:1:velocities:R:3
H        11.62885362       4.04574767      13.14786349          1         0.00000000       0.00000000       0.00000000
H         9.40883924       1.38966294      11.24383131          1         0.00000000       0.00000000       0.00000000
H        11.08869956       3.48173453      10.46562341          1         0.00000000       0.00000000       0.00000000
H        12.05028248       1.47082514      12.14963583          1         0.00000000       0.00000000       0.00000000
H         9.94899253       1.95367565      13.92606975          1         0.00000000       0.00000000       0.00000000
H         8.98741252       3.96458397      12.24206911          1         0.00000000       0.00000000       0.00000000
6
iter=20000 frozen=false energy=-1.26974174 energy_frozen_part=0.00000000 Lattice="15.00000000 0.00000000 0.00000000 0.00000000 15.00000000 0.00000000 0.00000000 0.00000000 15.00000000" pbc=[F, F, F] list_num_par=6 Properties=species:S:1:pos:R:3:Z:I:1:velocities:R:3
H        11.62892405       4.04576165      13.14783786          1         0.00000000       0.00000000       0.00000000
H         9.40880778       1.38972286      11.24387370          1         0.00000000       0.00000000       0.00000000
H        11.08867057       3.48176466      10.46561426          1         0.00000000       0.00000000       0.00000000
H        12.05027827       1.47084192      12.14959384          1         0.00000000       0.00000000       0.00000000
H         9.94905386       1.95372019      13.92609917          1         0.00000000       0.00000000       0.00000000
H         8.98745425       3.96464923      12.24212786          1         0.00000000       0.00000000       0.00000000
6
iter=20000 frozen=false energy=-1.26974174 energy_frozen_part=0.00000000 Lattice="15.00000000 0.00000000 0.00000000 0.00000000 15.00000000 0.00000000 0.00000000 0.00000000 15.00000000" pbc=[F, F, F] list_num_par=6 Properties=species:S:1:pos:R:3:Z:I:1:velocities:R:3
H        11.62874763       4.04591069      13.14795416          1         0.00000000       0.00000000       0.00000000
H         9.40882295       1.38974843      11.24392340          1         0.00000000       0.00000000       0.00000000
H        11.08861087       3.48187724      10.46571252          1         0.00000000       0.00000000       0.00000000
H        12.05026178       1.47100582      12.14973210          1         0.00000000       0.00000000       0.00000000
H         9.94895284       1.95378730      13.92616276          1         0.00000000       0.00000000       0.00000000
H         8.98730236       3.96465743      12.24215023          1         0.00000000       0.00000000       0.00000000
6
iter=20000 frozen=false energy=-1.26974174 energy_frozen_part=0.00000000 Lattice="15.00000000 0.00000000 0.00000000 0.00000000 15.00000000 0.00000000 0.00000000 0.00000000 15.00000000" pbc=[F, F, F] list_num_par=6 Properties=species:S:1:pos:R:3:Z:I:1:velocities:R:3
H        11.62352977       4.04479577      13.15517149          1         0.00000000       0.00000000       0.00000000
H         9.41225093       1.39214070      11.23625320          1         0.00000000       0.00000000       0.00000000
H        11.09394296       3.48697307      10.46953203          1         0.00000000       0.00000000       0.00000000
H        12.05016289       1.47250934      12.15235107          1         0.00000000       0.00000000       0.00000000
H         9.94183441       1.94996639      13.92189331          1         0.00000000       0.00000000       0.00000000
H         8.98561920       3.96442238      12.23907404          1         0.00000000       0.00000000       0.00000000
6
iter=20000 frozen=false energy=-1.26974174 energy_frozen_part=0.00000000 Lattice="15.00000000 0.00000000 0.00000000 0.00000000 15.00000000 0.00000000 0.00000000 0.00000000 15.00000000" pbc=[F, F, F] list_num_par=6 Properties=species:S:1:pos:R:3:Z:I:1:velocities:R:3
H        11.62353692       4.04496332      13.15496040          1         0.00000000       0.00000000       0.00000000
H         9.41215567       1.39213025      11.23639409          1         0.00000000       0.00000000       0.00000000
H        11.09366384       3.48701734      10.46940444          1         0.00000000       0.00000000       0.00000000
H        12.05017246       1.47266634      12.15218256          1         0.00000000       0.00000000       0.00000000
H         9.94203422       1.95007261      13.92195237          1         0.00000000       0.00000000       0.00000000
H         8.98551941       3.96442108      12.23917917          1         0.00000000       0.00000000       0.00000000
6
iter=20000 frozen=false energy=-1.26974174 energy_frozen_part=0.00000000 Lattice="15.00000000 0.00000000 0.00000000 0.00000000 15.00000000 0.00000000 0.00000000 0.00000000 15.00000000" pbc=[F, F, F] list_num_par=6 Properties=species:S:1:pos:R:3:Z:I:1:velocities:R:3
H        11.62891926       4.04577964      13.14782415          1         0.00000000       0.00000000       0.00000000
H         9.40878922       1.38972484      11.24389175          1         0.00000000       0.00000000       0.00000000
H        11.08865082       3.48176461      10.46561275          1         0.00000000       0.00000000       0.00000000
H        12.05026820       1.47084435      12.14959601          1         0.00000000       0.00000000       0.00000000
H         9.94905702       1.95374287      13.92610336          1         0.00000000       0.00000000       0.00000000
H         8.98743522       3.96466170      12.24212405          1         0.00000000       0.00000000       0.00000000
6
iter=20000 frozen=false energy=-1.26974174 energy_frozen_part=0.00000000 Lattice="15.00000000 0.00000000 0.00000000 0.00000000 15.00000000 0.00000000 0.00000000 0.00000000 15.00000000" pbc=[F, F, F] list_num_par=6 Properties=species:S:1:pos:R:3:Z:I:1:velocities:R:3
H        11.62349245       4.04496869      13.15501123          1         0.00000000       0.00000000       0.00000000
H         9.41218115       1.39215282      11.23637016          1         0.00000000       0.00000000       0.00000000
H        11.09365319       3.48708040      10.46943527          1         0.00000000       0.00000000       0.00000000
H        12.05018364       1.47270648      12.15218493          1         0.00000000       0.00000000       0.00000000
H         9.94201622       1.95004122      13.92194810          1         0.00000000       0.00000000       0.00000000
H         8.98548534       3.96441653      12.23919515          1         0.00000000       0.00000000       0.00000000
6
iter=20000 frozen=false energy=-1.26974174 energy_frozen_part=0.00000000 Lattice="15.00000000 0.00000000 0.00000000 0.00000000 15.00000000 0.00000000 0.00000000 0.00000000 15.00000000" pbc=[F, F, F] list_num_par=6 Properties=species:S:1:pos:R:3:Z:I:1:velocities:R:3
H        11.62353709       4.04481777      13.15515690          1         0.00000000       0.00000000       0.00000000
H         9.41223900       1.39213672      11.23630252          1         0.00000000       0.00000000       0.00000000
H        11.09392877       3.48694863      10.46953033          1         0.00000000       0.00000000       0.00000000
H        12.05015787       1.47252202      12.15237776          1         0.00000000       0.00000000       0.00000000
H         9.94184569       1.95000646      13.92193244          1         0.00000000       0.00000000       0.00000000
H         8.98562041       3.96443414      12.23908141          1         0.00000000       0.00000000       0.00000000
6
iter=20000 frozen=false energy=-1.26974174 energy_frozen_part=0.00000000 Lattice="15.00000000 0.00000000 0.00000000 0.00000000 15.00000000 0.00000000 0.00000000 0.00000000 15.00000000" pbc=[F, F, F] list_num_par=6 Properties=species:S:1:pos:R:3:Z:I:1:velocities:R:3
H        11.62351692       4.04479334      13.15517729          1         0.00000000       0.00000000       0.00000000
H         9.41226300       1.39213502      11.23624077          1         0.00000000       0.00000000       0.00000000
H        11.09394519       3.48697896      10.46953330          1         0.00000000       0.00000000       0.00000000
H        12.05016925       1.47252211      12.15235214          1         0.00000000       0.00000000       0.00000000
H         9.94182789       1.94995588      13.92188914          1         0.00000000       0.00000000       0.00000000
H         8.98560650       3.96441489      12.23906481          1         0.00000000       0.00000000       0.00000000
6
iter=20000 frozen=false energy=-1.26974174 energy_frozen_part=0.00000000 Lattice="15.00000000 0.00000000 0.00000000 0.00000000 15.00000000 0.00000000 0.00000000 0.00000000 15.00000000" pbc=[F, F, F] list_num_par=6 Properties=species:S:1:pos:R:3:Z:I:1:velocities:R:3
H        11.62886825       4.04574486      13.14784685          1         0.00000000       0.00000000       0.00000000
H         9.40882404       1.38965700      11.24385723          1         0.00000000       0.00000000       0.00000000
H        11.08868718       3.48171610      10.46562070          1         0.00000000       0.00000000       0.00000000
H        12.05028091       1.47081494      12.14962981          1         0.00000000       0.00000000       0.00000000
H         9.94901506       1.95368302      13.92608702          1         0.00000000       0.00000000       0.00000000
H         8.98741698       3.96458461      12.24206814          1         0.00000000       0.00000000       0.00000000
6
iter=20000 frozen=false energy=-1.26974174 energy_frozen_part=0.00000000 Lattice="15.00000000 0.00000000 0.00000000 0.00000000 15.00000000 0.00000000 0.00000000 0.00000000 15.00000000" pbc=[F, F, F] list_num_par=6 Properties=species:S:1:pos:R:3:Z:I:1:velocities:R:3
H        11.62885842       4.04574552      13.14786353          1         0.00000000       0.00000000       0.00000000
H         9.40884759       1.38965977      11.24384584          1         0.00000000       0.00000000       0.00000000
H        11.08870045       3.48173253      10.46562563          1         0.00000000       0.00000000       0.00000000
H        12.05028924       1.47082698      12.14964218          1         0.00000000       0.00000000       0.00000000
H         9.94900241       1.95368090      13.92608268          1         0.00000000       0.00000000       0.00000000
H         8.98741099       3.96458123      12.24207173          1         0.00000000       0.00000000       0.00000000
6
iter=20000 frozen=false energy=-1.26974174 energy_frozen_part=0.00000000 Lattice="15.00000000 0.00000000 0.00000000 0.00000000 15.00000000 0.00000000 0.00000000 0.00000000 15.00000000" pbc=[F, F, F] list_num_par=6 Properties=species:S:1:pos:R:3:Z:I:1:velocities:R:3
H        11.62875843       4.04589995      13.14793798          1         0.00000000       0.00000000       0.00000000
H         9.40879941       1.38975821      11.24392146          1         0.00000000       0.00000000       0.00000000
H        11.08860913       3.48186419      10.46569906          1         0.00000000       0.00000000       0.00000000
H        12.05025085       1.47098444      12.14971062          1         0.00000000       0.00000000       0.00000000
H         9.94895556       1.95379109      13.92615563          1         0.00000000       0.00000000       0.00000000
H         8.98732056       3.96467435      12.24214468          1         0.00000000       0.00000000       0.00000000
6
iter=20000 frozen=false energy=-1.26974174 energy_frozen_part=0.00000000 Lattice="15.00000000 0.00000000 0.00000000 0.00000000 15.00000000 0.00000000 0.00000000 0.00000000 15.00000000" pbc=[F, F, F] list_num_par=6 Properties=species:S:1:pos:R:3:Z:I:1:velocities:R:3
H        11.62888000       4.04574819      13.14782261          1         0.00000000       0.00000000       0.00000000
H         9.40879879       1.38965539      11.24389161          1         0.00000000       0.00000000       0.00000000
H        11.08865022       3.48170037      10.46560439          1         0.00000000       0.00000000       0.00000000
H        12.05027218       1.47081285      12.14960861          1         0.00000000       0.00000000       0.00000000
H         9.94903764       1.95369880      13.92610369          1         0.00000000       0.00000000       0.00000000
H         8.98741245       3.96459418      12.24209247          1         0.00000000       0.00000000       0.00000000
6
iter=20000 frozen=false energy=-1.26974174 energy_frozen_part=0.00000000 Lattice="15.00000000 0.00000000 0.00000000 0.00000000 15.00000000 0.00000000 0.00000000 0.00000000 15.00000000" pbc=[F, F, F] list_num_par=6 Properties=species:S:1:pos:R:3:Z:I:1:velocities:R:3
H        11.62404470       4.04858037      13.15015016          1         0.00000000       0.00000000       0.00000000
H         9.41019996       1.38942431      11.24323766          1         0.00000000       0.00000000       0.00000000
H        11.08854540       3.48351121      10.46720492          1         0.00000000       0.00000000       0.00000000
H        12.05020581       1.47405510      12.15290253          1         0.00000000       0.00000000       0.00000000
H         9.94570454       1.95449596      13.92618314          1         0.00000000       0.00000000       0.00000000
H         8.98404038       3.96394688      12.24048247          1         0.00000000       0.00000000       0.00000000
6
iter=20000 frozen=false energy=-1.26974174 energy_frozen_part=0.00000000 Lattice="15.00000000 0.00000000 0.00000000 0.00000000 15.00000000 0.00000000 0.00000000 0.00000000 15.00000000" pbc=[F, F, F] list_num_par=6 Properties=species:S:1:pos:R:3:Z:I:1:velocities:R:3
H        11.62875397       4.04590466      13.14795852          1         0.00000000       0.00000000       0.00000000
H         9.40882629       1.38975432      11.24393696          1         0.00000000       0.00000000       0.00000000
H        11.08863472       3.48185766      10.46572056          1         0.00000000       0.00000000       0.00000000
H        12.05025914       1.47098594      12.14975597          1         0.00000000       0.00000000       0.00000000
H         9.94894967       1.95380016      13.92617630          1         0.00000000       0.00000000       0.00000000
H         8.98732394       3.96466606      12.24214503          1         0.00000000       0.00000000       0.00000000
6
iter=20000 frozen=false energy=-1.26974174 energy_frozen_part=0.00000000 Lattice="15.00000000 0.00000000 0.00000000 0.00000000 15.00000000 0.00000000 0.00000000 0.00000000 15.00000000" pbc=[F, F, F] list_num_par=6 Properties=species:S:1:pos:R:3:Z:I:1:velocities:R:3
H        11.62892224       4.04577293      13.14782676          1         0.00000000       0.00000000       0.00000000
H         9.40878543       1.38973615      11.24388798          1         0.00000000       0.00000000       0.00000000
H        11.08864595       3.48177081      10.46560937          1         0.00000000       0.00000000       0.00000000
H        12.05026745       1.47084327      12.14957583          1         0.00000000       0.00000000       0.00000000
H         9.94905867       1.95373393      13.92610508          1         0.00000000       0.00000000       0.00000000
H         8.98743959       3.96465922      12.24213245          1         0.00000000       0.00000000       0.00000000
6
iter=20000 frozen=false energy=-1.26974174 energy_frozen_part=0.00000000 Lattice="15.00000000 0.00000000 0.00000000 0.00000000 15.00000000 0.00000000 0.00000000 0.00000000 15.00000000" pbc=[F, F, F] list_num_par=6 Properties=species:S:1:pos:R:3:Z:I:1:velocities:R:3
H        11.62353037       4.04480592      13.15516083          1         0.00000000       0.00000000       0.00000000
H         9.41224637       1.39212910      11.23629257          1         0.00000000       0.00000000       0.00000000
H        11.09394198       3.48694941      10.46953026          1         0.00000000       0.00000000       0.00000000
H        12.05016413       1.47251068      12.15237181          1         0.00000000       0.00000000       0.00000000
H         9.94184229       1.94998620      13.92192049          1         0.00000000       0.00000000       0.00000000
H         8.98561391       3.96441735      12.23907149          1         0.00000000       0.00000000       0.00000000
6
iter=20000 frozen=false energy=-1.26974174 energy_frozen_part=0.00000000 Lattice="15.00000000 0.00000000 0.00000000 0.00000000 15.00000000 0.00000000 0.00000000 0.00000000 15.00000000" pbc=[F, F, F] list_num_par=6 Properties=species:S:1:pos:R:3:Z:I:1:velocities:R:3
H        11.62877124       4.04576459      13.14796974          1         0.00000000       0.00000000       0.00000000
H         9.40853096       1.38989462      11.24390902          1         0.00000000       0.00000000       0.00000000
H        11.08842063       3.48194529      10.46572433          1         0.00000000       0.00000000       0.00000000
H        12.05003053       1.47089521      12.14955341          1         0.00000000       0.00000000       0.00000000
H         9.94887023       1.95371914      13.92614987          1         0.00000000       0.00000000       0.00000000
H         8.98726831       3.96477448      12.24232269          1         0.00000000       0.00000000       0.00000000
6
iter=20000 frozen=false energy=-1.26974174 energy_frozen_part=0.00000000 Lattice="15.00000000 0.00000000 0.00000000 0.00000000 15.00000000 0.00000000 0.00000000 0.00000000 15.00000000" pbc=[F, F, F] list_num_par=6 Properties=species:S:1:pos:R:3:Z:I:1:velocities:R:3
H        11.62892946       4.04575593      13.14783106          1         0.00000000       0.00000000       0.00000000
H         9.40878739       1.38972043      11.24387993          1         0.00000000       0.00000000       0.00000000
H        11.08866313       3.48175457      10.46561582          1         0.00000000       0.00000000       0.00000000
H        12.05026551       1.47082297      12.14958875          1         0.00000000       0.00000000       0.00000000
H         9.94905578       1.95371808      13.92609981          1         0.00000000       0.00000000       0.00000000
H         8.98744743       3.96465384      12.24212917          1         0.00000000       0.00000000       0.00000000
6
iter=20000 frozen=false energy=-1.26974174 energy_frozen_part=0.00000000 Lattice="15.00000000 0.00000000 0.00000000 0.00000000 15.00000000 0.00000000 0.00000000 0.00000000 15.00000000" pbc=[F, F, F] list_num_par=6 Properties=species:S:1:pos:R:3:Z:I:1:velocities:R:3
H        11.62351015       4.04496661      13.15496903          1         0.00000000       0.00000000       0.00000000
H         9.41217224       1.39211442      11.23637943          1         0.00000000       0.00000000       0.00000000
H        11.09363494       3.48704404      10.46940633          1         0.00000000       0.00000000       0.00000000
H        12.05019415       1.47269456      12.15214974          1         0.00000000       0.00000000       0.00000000
H         9.94205262       1.95003159      13.92194125          1         0.00000000       0.00000000       0.00000000
H         8.98549084       3.96439010      12.23919603          1         0.00000000       0.00000000       0.00000000
6
iter=20000 frozen=false energy=-1.26974174 energy_frozen_part=0.00000000 Lattice="15.00000000 0.00000000 0.00000000 0.00000000 15.00000000 0.00000000 0.00000000 0.00000000 15.00000000" pbc=[F, F, F] list_num_par=6 Properties=species:S:1:pos:R:3:Z:I:1:velocities:R:3
H        11.62886717       4.04574737      13.14783690          1         0.00000000       0.00000000       0.00000000
H         9.40881225       1.38966050      11.24385940          1         0.00000000       0.00000000       0.00000000
H        11.08867301       3.48171882      10.46560596          1         0.00000000       0.00000000       0.00000000
H        12.05027126       1.47081836      12.14961594          1         0.00000000       0.00000000       0.00000000
H         9.94901275       1.95368699      13.92608705          1         0.00000000       0.00000000       0.00000000
H         8.98741012       3.96458840      12.24207426          1         0.00000000       0.00000000       0.00000000
6
iter=20000 frozen=false energy=-1.26974174 energy_frozen_part=0.00000000 Lattice="15.00000000 0.00000000 0.00000000 0.00000000 15.00000000 0.00000000 0.00000000 0.00000000 15.00000000" pbc=[F, F, F] list_num_par=6 Properties=species:S:1:pos:R:3:Z:I:1:velocities:R:3
H        11.62893093       4.04577067      13.14784253          1         0.00000000       0.00000000       0.00000000
H         9.40878514       1.38975444      11.24387220          1         0.00000000       0.00000000       0.00000000
H        11.08867562       3.48178384      10.46562102          1         0.00000000       0.00000000       0.00000000
H        12.05026153       1.47083905      12.14958594          1         0.00000000       0.00000000       0.00000000
H         9.94905117       1.95373185      13.92609504          1         0.00000000       0.00000000       0.00000000
H         8.98745949       3.96467901      12.24213363          1         0.00000000       0.00000000       0.00000000
6
iter=20000 frozen=false energy=-1.26974174 energy_frozen_part=0.00000000 Lattice="15.00000000 0.00000000 0.00000000 0.00000000 15.00000000 0.00000000 0.00000000 0.00000000 15.00000000" pbc=[F, F, F] list_num_par=6 Properties=species:S:1:pos:R:3:Z:I:1:velocities:R:3
H        11.62876572       4.04577358      13.14796947          1         0.00000000       0.00000000       0.00000000
H         9.40855915       1.38988065      11.24390331          1         0.00000000       0.00000000       0.00000000
H        11.08841862       3.48195679      10.46572774          1         0.00000000       0.00000000       0.00000000
H        12.05005528       1.47090788      12.14954696          1         0.00000000       0.00000000       0.00000000
H         9.94889279       1.95370039      13.92614480          1         0.00000000       0.00000000       0.00000000
H         8.98726057       3.96474835      12.24233405          1         0.00000000       0.00000000       0.00000000
6
iter=20000 frozen=false energy=-1.26974174 energy_frozen_part=0.00000000 Lattice="15.00000000 0.00000000 0.00000000 0.00000000 15.00000000 0.00000000 0.00000000 0.00000000 15.00000000" pbc=[F, F, F] list_num_par=6 Properties=species:S:1:pos:R:3:Z:I:1:velocities:R:3
H        11.62891058       4.04577902      13.14785612          1         0.00000000       0.00000000       0.00000000
H         9.40882575       1.38973238      11.24387027          1         0.00000000       0.00000000       0.00000000
H        11.08868636       3.48178606      10.46562790          1         0.00000000       0.00000000       0.00000000
H        12.05028992       1.47086203      12.14961331          1         0.00000000       0.00000000       0.00000000
H         9.94904075       1.95373289      13.92609844          1         0.00000000       0.00000000       0.00000000
H         8.98744332       3.96465778      12.24211584          1         0.00000000       0.00000000       0.00000000
6
iter=20000 frozen=false energy=-1.26974174 energy_frozen_part=0.00000000 Lattice="15.00000000 0.00000000 0.00000000 0.00000000 15.00000000 0.00000000 0.00000000 0.00000000 15.00000000" pbc=[F, F, F] list_num_par=6 Properties=species:S:1:pos:R:3:Z:I:1:velocities:R:3
H        11.62891301       4.04576818      13.14784170          1         0.00000000       0.00000000       0.00000000
H         9.40879520       1.38973381      11.24387952          1         0.00000000       0.00000000       0.00000000
H        11.08866229       3.48177248      10.46561894          1         0.00000000       0.00000000       0.00000000
H        12.05026989       1.47084010      12.14959027          1         0.00000000       0.00000000       0.00000000
H         9.94905066       1.95373051      13.92610065          1         0.00000000       0.00000000       0.00000000
H         8.98744300       3.96466050      12.24212836          1         0.00000000       0.00000000       0.00000000
6
iter=20000 frozen=false energy=-1.26974174 energy_frozen_part=0.00000000 Lattice="15.00000000 0.00000000 0.00000000 0.00000000 15.00000000 0.00000000 0.00000000 0.00000000 15.00000000" pbc=[F, F, F] list_num_par=6 Properties=species:S:1:pos:R:3:Z:I:1:velocities:R:3
H        11.62888247       4.04575369      13.14781804          1         0.00000000       0.00000000       0.00000000
H         9.40879310       1.38964517      11.24390217          1         0.00000000       0.00000000       0.00000000
H        11.08864524       3.48169161      10.46560550          1         0.00000000       0.00000000       0.00000000
H        12.05026746       1.47080543      12.14961773          1         0.00000000       0.00000000       0.00000000
H         9.94904064       1.95370552      13.92611241          1         0.00000000       0.00000000       0.00000000
H         8.98741142       3.96458508      12.24209726          1         0.00000000       0.00000000       0.00000000
6
iter=20000 frozen=false energy=-1.26974174 energy_frozen_part=0.00000000 Lattice="15.00000000 0.00000000 0.00000000 0.00000000 15.00000000 0.00000000 0.00000000 0.00000000 15.00000000" pbc=[F, F, F] list_num_par=6 Properties=species:S:1:pos:R:3:Z:I:1:velocities:R:3
H        11.62404777       4.04858495      13.15014513          1         0.00000000       0.00000000       0.00000000
H         9.41019941       1.38942466      11.24324019          1         0.00000000       0.00000000       0.00000000
H        11.08855170       3.48350084      10.46719606          1         0.00000000       0.00000000       0.00000000
H        12.05019920       1.47405182      12.15291425          1         0.00000000       0.00000000       0.00000000
H         9.94569645       1.95450965      13.92619005          1         0.00000000       0.00000000       0.00000000
H         8.98404150       3.96395378      12.24047426          1         0.00000000       0.00000000       0.00000000
6
iter=20000 frozen=false energy=-1.26974174 energy_frozen_part=0.00000000 Lattice="15.00000000 0.00000000 0.00000000 0.00000000 15.00000000 0.00000000 0.00000000 0.00000000 15.00000000" pbc=[F, F, F] list_num_par=6 Properties=species:S:1:pos:R:3:Z:I:1:velocities:R:3
H        11.62876651       4.04576649      13.14797576          1         0.00000000       0.00000000       0.00000000
H         9.40855189       1.38988009      11.24390279          1         0.00000000       0.00000000       0.00000000
H        11.08841752       3.48195166      10.46572821          1         0.00000000       0.00000000       0.00000000
H        12.05005740       1.47090201      12.14953923          1         0.00000000       0.00000000       0.00000000
H         9.94889836       1.95368865      13.92614618          1         0.00000000       0.00000000       0.00000000
H         8.98726635       3.96474549      12.24234390          1         0.00000000       0.00000000       0.00000000
6
iter=20000 frozen=false energy=-1.26974174 energy_frozen_part=0.00000000 Lattice="15.00000000 0.00000000 0.00000000 0.00000000 15.00000000 0.00000000 0.00000000 0.00000000 15.00000000" pbc=[F, F, F] list_num_par=6 Properties=species:S:1:pos:R:3:Z:I:1:velocities:R:3
H        11.62883084       4.04578586      13.14807814          1         0.00000000       0.00000000       0.00000000
H         9.40886850       1.38979948      11.24385478          1         0.00000000       0.00000000       0.00000000
H        11.08872359       3.48192328      10.46579472          1         0.00000000       0.00000000       0.00000000
H        12.05029411       1.47092674      12.14970421          1         0.00000000       0.00000000       0.00000000
H         9.94897935       1.95366065      13.92613553          1         0.00000000       0.00000000       0.00000000
H         8.98740169       3.96466138      12.24222499          1         0.00000000       0.00000000       0.00000000
6
iter=20000 frozen=false energy=-1.26974174 energy_frozen_part=0.00000000 Lattice="15.00000000 0.00000000 0.00000000 0.00000000 15.00000000 0.00000000 0.00000000 0.00000000 15.00000000" pbc=[F, F, F] list_num_par=6 Properties=species:S:1:pos:R:3:Z:I:1:velocities:R:3
H        11.62880118       4.04582672      13.14808065          1         0.00000000       0.00000000       0.00000000
H         9.40860662       1.38994526      11.24397924          1         0.00000000       0.00000000       0.00000000
H        11.08843255       3.48206500      10.46583252          1         0.00000000       0.00000000       0.00000000
H        12.05011690       1.47099224      12.14958950          1         0.00000000       0.00000000       0.00000000
H         9.94897309       1.95371282      13.92623015          1         0.00000000       0.00000000       0.00000000
H         8.98728745       3.96478242      12.24247403          1         0.00000000       0.00000000       0.00000000
6
iter=20000 frozen=false energy=-1.26974174 energy_frozen_part=0.00000000 Lattice="15.00000000 0.00000000 0.00000000 0.00000000 15.00000000 0.00000000 0.00000000 0.00000000 15.00000000" pbc=[F, F, F] list_num_par=6 Properties=species:S:1:pos:R:3:Z:I:1:velocities:R:3
H        11.62885608       4.04576073      13.14783865          1         0.00000000       0.00000000       0.00000000
H         9.40883477       1.38964785      11.24385226          1         0.00000000       0.00000000       0.00000000
H        11.08868906       3.48170627      10.46560595          1         0.00000000       0.00000000       0.00000000
H        12.05028684       1.47082713      12.14963903          1         0.00000000       0.00000000       0.00000000
H         9.94900712       1.95369641      13.92608544          1         0.00000000       0.00000000       0.00000000
H         8.98741512       3.96458084      12.24204930          1         0.00000000       0.00000000       0.00000000
