6
pbc=[F, F, F] list_num_par=6 frozen=false iter=20000 energy=-1.26974174 Lattice="15.00000000 0.00000000 0.00000000 0.00000000 15.00000000 0.00000000 0.00000000 0.00000000 15.00000000" energy_frozen_part=0.00000000 Properties=species:S:1:pos:R:3:velocities:R:3:Z:I:1
H        10.86440306      10.93707682       6.51803913         0.00000000       0.00000000       0.00000000          1
H        10.84050793       8.97444373       4.53013147         0.00000000       0.00000000       0.00000000          1
H        10.25675487       7.03386277       6.45305251         0.00000000       0.00000000       0.00000000          1
H        10.28065099       8.99648821       8.44096742         0.00000000       0.00000000       0.00000000          1
H         8.62887911       9.29082947       6.20729389         0.00000000       0.00000000       0.00000000          1
H        12.49228167       8.68011261       6.76380801         0.00000000       0.00000000       0.00000000          1
6
pbc=[F, F, F] list_num_par=6 frozen=false iter=20000 energy=-1.26974174 Lattice="15.00000000 0.00000000 0.00000000 0.00000000 15.00000000 0.00000000 0.00000000 0.00000000 15.00000000" energy_frozen_part=0.00000000 Properties=species:S:1:pos:R:3:velocities:R:3:Z:I:1
H        10.86535018      10.93675400       6.51617243         0.00000000       0.00000000       0.00000000          1
H        10.84197425       8.97367745       4.52869262         0.00000000       0.00000000       0.00000000          1
H        10.25576521       7.03382684       6.45161785         0.00000000       0.00000000       0.00000000          1
H        10.27913610       8.99691035       8.43909365         0.00000000       0.00000000       0.00000000          1
H         8.62922494       9.29156768       6.20408830         0.00000000       0.00000000       0.00000000          1
H        12.49188670       8.67901497       6.76370295         0.00000000       0.00000000       0.00000000          1
6
pbc=[F, F, F] list_num_par=6 frozen=false iter=20000 energy=-1.26974174 Lattice="15.00000000 0.00000000 0.00000000 0.00000000 15.00000000 0.00000000 0.00000000 0.00000000 15.00000000" energy_frozen_part=0.00000000 Properties=species:S:1:pos:R:3:velocities:R:3:Z:I:1
H        11.39197335      11.29905259       5.85536294         0.00000000       0.00000000       0.00000000          1
H         9.88959884      11.68348759       8.17901318         0.00000000       0.00000000       0.00000000          1
H         8.70251894      10.54613415       5.92035481         0.00000000       0.00000000       0.00000000          1
H        10.69866740       8.59283996       5.85482866         0.00000000       0.00000000       0.00000000          1
H        11.88575113       9.73019222       8.11348803         0.00000000       0.00000000       0.00000000          1
H         9.19629148       8.97727003       8.17848546         0.00000000       0.00000000       0.00000000          1
6
pbc=[F, F, F] list_num_par=6 frozen=false iter=20000 energy=-1.26974174 Lattice="15.00000000 0.00000000 0.00000000 0.00000000 15.00000000 0.00000000 0.00000000 0.00000000 15.00000000" energy_frozen_part=0.00000000 Properties=species:S:1:pos:R:3:velocities:R:3:Z:I:1
H        10.87170405      10.93431221       6.51217587         0.00000000       0.00000000       0.00000000          1
H        10.83611951       8.96645779       4.52960410         0.00000000       0.00000000       0.00000000          1
H        10.25215203       7.03278040       6.45942024         0.00000000       0.00000000       0.00000000          1
H        10.28773836       9.00063225       8.44198238         0.00000000       0.00000000       0.00000000          1
H         8.63034899       9.29397471       6.21234140         0.00000000       0.00000000       0.00000000          1
H        12.49350660       8.67312270       6.75924869         0.00000000       0.00000000       0.00000000          1
6
pbc=[F, F, F] list_num_par=6 frozen=false iter=20000 energy=-1.26974174 Lattice="15.00000000 0.00000000 0.00000000 0.00000000 15.00000000 0.00000000 0.00000000 0.00000000 15.00000000" energy_frozen_part=0.00000000 Properties=species:S:1:pos:R:3:velocities:R:3:Z:I:1
H        10.86591690      10.93702276       6.51704531         0.00000000       0.00000000       0.00000000          1
H        10.84117529       8.97351121       4.53001866         0.00000000       0.00000000       0.00000000          1
H        10.25720651       7.03393887       6.45390401         0.00000000       0.00000000       0.00000000          1
H        10.28195040       8.99746084       8.44092990         0.00000000       0.00000000       0.00000000          1
H         8.62989620       9.29123084       6.20739236         0.00000000       0.00000000       0.00000000          1
H        12.49322664       8.67972396       6.76355648         0.00000000       0.00000000       0.00000000          1
6
pbc=[F, F, F] list_num_par=6 frozen=false iter=20000 energy=-1.26974174 Lattice="15.00000000 0.00000000 0.00000000 0.00000000 15.00000000 0.00000000 0.00000000 0.00000000 15.00000000" energy_frozen_part=0.00000000 Properties=species:S:1:pos:R:3:velocities:R:3:Z:I:1
H        10.87168122      10.93430143       6.51218382         0.00000000       0.00000000       0.00000000          1
H        10.83611539       8.96644370       4.52961940         0.00000000       0.00000000       0.00000000          1
H        10.25215530       7.03276664       6.45942626         0.00000000       0.00000000       0.00000000          1
H        10.28772930       9.00061898       8.44199412         0.00000000       0.00000000       0.00000000          1
H         8.63033720       9.29395295       6.21235400         0.00000000       0.00000000       0.00000000          1
H        12.49350458       8.67312252       6.75926044         0.00000000       0.00000000       0.00000000          1
6
pbc=[F, F, F] list_num_par=6 frozen=false iter=20000 energy=-1.26974174 Lattice="15.00000000 0.00000000 0.00000000 0.00000000 15.00000000 0.00000000 0.00000000 0.00000000 15.00000000" energy_frozen_part=0.00000000 Properties=species:S:1:pos:R:3:velocities:R:3:Z:I:1
H        10.86534499      10.93674803       6.51618685         0.00000000       0.00000000       0.00000000          1
H        10.84196865       8.97369302       4.52869288         0.00000000       0.00000000       0.00000000          1
H        10.25575318       7.03382892       6.45160229         0.00000000       0.00000000       0.00000000          1
H        10.27913075       8.99689173       8.43909267         0.00000000       0.00000000       0.00000000          1
H         8.62921743       9.29157630       6.20408915         0.00000000       0.00000000       0.00000000          1
H        12.49188359       8.67900577       6.76369033         0.00000000       0.00000000       0.00000000          1
6
pbc=[F, F, F] list_num_par=6 frozen=false iter=20000 energy=-1.26974174 Lattice="15.00000000 0.00000000 0.00000000 0.00000000 15.00000000 0.00000000 0.00000000 0.00000000 15.00000000" energy_frozen_part=0.00000000 Properties=species:S:1:pos:R:3:velocities:R:3:Z:I:1
H        10.87168363      10.93431318       6.51218385         0.00000000       0.00000000       0.00000000          1
H        10.83610583       8.96645642       4.52962172         0.00000000       0.00000000       0.00000000          1
H        10.25215566       7.03277165       6.45942950         0.00000000       0.00000000       0.00000000          1
H        10.28773353       9.00062930       8.44199395         0.00000000       0.00000000       0.00000000          1
H         8.63033613       9.29395363       6.21235642         0.00000000       0.00000000       0.00000000          1
H        12.49349674       8.67312711       6.75925699         0.00000000       0.00000000       0.00000000          1
6
pbc=[F, F, F] list_num_par=6 frozen=false iter=20000 energy=-1.26974174 Lattice="15.00000000 0.00000000 0.00000000 0.00000000 15.00000000 0.00000000 0.00000000 0.00000000 15.00000000" energy_frozen_part=0.00000000 Properties=species:S:1:pos:R:3:velocities:R:3:Z:I:1
H        10.87179695      10.93435098       6.51217049         0.00000000       0.00000000       0.00000000          1
H        10.83612810       8.96654575       4.52954826         0.00000000       0.00000000       0.00000000          1
H        10.25198093       7.03286368       6.45929981         0.00000000       0.00000000       0.00000000          1
H        10.28764694       9.00066190       8.44191157         0.00000000       0.00000000       0.00000000          1
H         8.63033539       9.29417190       6.21223351         0.00000000       0.00000000       0.00000000          1
H        12.49343991       8.67304325       6.75922475         0.00000000       0.00000000       0.00000000          1
6
pbc=[F, F, F] list_num_par=6 frozen=false iter=20000 energy=-1.26974174 Lattice="15.00000000 0.00000000 0.00000000 0.00000000 15.00000000 0.00000000 0.00000000 0.00000000 15.00000000" energy_frozen_part=0.00000000 Properties=species:S:1:pos:R:3:velocities:R:3:Z:I:1
H        10.86533444      10.93675500       6.51620783         0.00000000       0.00000000       0.00000000          1
H        10.84199651       8.97371048       4.52869904         0.00000000       0.00000000       0.00000000          1
H        10.25580450       7.03382715       6.45159063         0.00000000       0.00000000       0.00000000          1
H        10.27914134       8.99687301       8.43909391         0.00000000       0.00000000       0.00000000          1
H         8.62923325       9.29154377       6.20408342         0.00000000       0.00000000       0.00000000          1
H        12.49190728       8.67903618       6.76370752         0.00000000       0.00000000       0.00000000          1
6
pbc=[F, F, F] list_num_par=6 frozen=false iter=20000 energy=-1.26974174 Lattice="15.00000000 0.00000000 0.00000000 0.00000000 15.00000000 0.00000000 0.00000000 0.00000000 15.00000000" energy_frozen_part=0.00000000 Properties=species:S:1:pos:R:3:velocities:R:3:Z:I:1
H        11.39196866      11.29905746       5.85534649         0.00000000       0.00000000       0.00000000          1
H         9.88960652      11.68349598       8.17900956         0.00000000       0.00000000       0.00000000          1
H         8.70251877      10.54612912       5.92036253         0.00000000       0.00000000       0.00000000          1
H        10.69867260       8.59283348       5.85482159         0.00000000       0.00000000       0.00000000          1
H        11.88576240       9.73020160       8.11347382         0.00000000       0.00000000       0.00000000          1
H         9.19631583       8.97727421       8.17848582         0.00000000       0.00000000       0.00000000          1
6
pbc=[F, F, F] list_num_par=6 frozen=false iter=20000 energy=-1.26974174 Lattice="15.00000000 0.00000000 0.00000000 0.00000000 15.00000000 0.00000000 0.00000000 0.00000000 15.00000000" energy_frozen_part=0.00000000 Properties=species:S:1:pos:R:3:velocities:R:3:Z:I:1
H        10.86532740      10.93676171       6.51622539         0.00000000       0.00000000       0.00000000          1
H        10.84199809       8.97372390       4.52871500         0.00000000       0.00000000       0.00000000          1
H        10.25578318       7.03383043       6.45159198         0.00000000       0.00000000       0.00000000          1
H        10.27911439       8.99686969       8.43910389         0.00000000       0.00000000       0.00000000          1
H         8.62922045       9.29155420       6.20408573         0.00000000       0.00000000       0.00000000          1
H        12.49189229       8.67903310       6.76372958         0.00000000       0.00000000       0.00000000          1
6
pbc=[F, F, F] list_num_par=6 frozen=false iter=20000 energy=-1.26974174 Lattice="15.00000000 0.00000000 0.00000000 0.00000000 15.00000000 0.00000000 0.00000000 0.00000000 15.00000000" energy_frozen_part=0.00000000 Properties=species:S:1:pos:R:3:velocities:R:3:Z:I:1
H        10.87169032      10.93429894       6.51219064         0.00000000       0.00000000       0.00000000          1
H        10.83611101       8.96643829       4.52963523         0.00000000       0.00000000       0.00000000          1
H        10.25214762       7.03276589       6.45944777         0.00000000       0.00000000       0.00000000          1
H        10.28772733       9.00063237       8.44200482         0.00000000       0.00000000       0.00000000          1
H         8.63033797       9.29394869       6.21236739         0.00000000       0.00000000       0.00000000          1
H        12.49350003       8.67311324       6.75927363         0.00000000       0.00000000       0.00000000          1
6
pbc=[F, F, F] list_num_par=6 frozen=false iter=20000 energy=-1.26974174 Lattice="15.00000000 0.00000000 0.00000000 0.00000000 15.00000000 0.00000000 0.00000000 0.00000000 15.00000000" energy_frozen_part=0.00000000 Properties=species:S:1:pos:R:3:velocities:R:3:Z:I:1
H        10.86535334      10.93675259       6.51617931         0.00000000       0.00000000       0.00000000          1
H        10.84198154       8.97368450       4.52869297         0.00000000       0.00000000       0.00000000          1
H        10.25575744       7.03383154       6.45160876         0.00000000       0.00000000       0.00000000          1
H        10.27913473       8.99689394       8.43909211         0.00000000       0.00000000       0.00000000          1
H         8.62922373       9.29157099       6.20408641         0.00000000       0.00000000       0.00000000          1
H        12.49188876       8.67900426       6.76369590         0.00000000       0.00000000       0.00000000          1
6
pbc=[F, F, F] list_num_par=6 frozen=false iter=20000 energy=-1.26974174 Lattice="15.00000000 0.00000000 0.00000000 0.00000000 15.00000000 0.00000000 0.00000000 0.00000000 15.00000000" energy_frozen_part=0.00000000 Properties=species:S:1:pos:R:3:velocities:R:3:Z:I:1
H        10.87179502      10.93434636       6.51217255         0.00000000       0.00000000       0.00000000          1
H        10.83612942       8.96654829       4.52955017         0.00000000       0.00000000       0.00000000          1
H        10.25198282       7.03286547       6.45929748         0.00000000       0.00000000       0.00000000          1
H        10.28764989       9.00066623       8.44191294         0.00000000       0.00000000       0.00000000          1
H         8.63033765       9.29417166       6.21223805         0.00000000       0.00000000       0.00000000          1
H        12.49344248       8.67303842       6.75922460         0.00000000       0.00000000       0.00000000          1
6
pbc=[F, F, F] list_num_par=6 frozen=false iter=20000 energy=-1.26974174 Lattice="15.00000000 0.00000000 0.00000000 0.00000000 15.00000000 0.00000000 0.00000000 0.00000000 15.00000000" energy_frozen_part=0.00000000 Properties=species:S:1:pos:R:3:velocities:R:3:Z:I:1
H        10.86442198      10.93708599       6.51800714         0.00000000       0.00000000       0.00000000          1
H        10.84049553       8.97444408       4.53010972         0.00000000       0.00000000       0.00000000          1
H        10.25670606       7.03387556       6.45304924         0.00000000       0.00000000       0.00000000          1
H        10.28063786       8.99652140       8.44094665         0.00000000       0.00000000       0.00000000          1
H         8.62887170       9.29087026       6.20727126         0.00000000       0.00000000       0.00000000          1
H        12.49225891       8.68009401       6.76379051         0.00000000       0.00000000       0.00000000          1
6
pbc=[F, F, F] list_num_par=6 frozen=false iter=20000 energy=-1.26974174 Lattice="15.00000000 0.00000000 0.00000000 0.00000000 15.00000000 0.00000000 0.00000000 0.00000000 15.00000000" energy_frozen_part=0.00000000 Properties=species:S:1:pos:R:3:velocities:R:3:Z:I:1
H        10.86537336      10.93673734       6.51619432         0.00000000       0.00000000       0.00000000          1
H        10.84199036       8.97367840       4.52870279         0.00000000       0.00000000       0.00000000          1
H        10.25577448       7.03381980       6.45161781         0.00000000       0.00000000       0.00000000          1
H        10.27915554       8.99688474       8.43910474         0.00000000       0.00000000       0.00000000          1
H         8.62924060       9.29156425       6.20409909         0.00000000       0.00000000       0.00000000          1
H        12.49190387       8.67899385       6.76370833         0.00000000       0.00000000       0.00000000          1
6
pbc=[F, F, F] list_num_par=6 frozen=false iter=20000 energy=-1.26974174 Lattice="15.00000000 0.00000000 0.00000000 0.00000000 15.00000000 0.00000000 0.00000000 0.00000000 15.00000000" energy_frozen_part=0.00000000 Properties=species:S:1:pos:R:3:velocities:R:3:Z:I:1
H        10.87169882      10.93430784       6.51218695         0.00000000       0.00000000       0.00000000          1
H        10.83612223       8.96645304       4.52961511         0.00000000       0.00000000       0.00000000          1
H        10.25215462       7.03277637       6.45942053         0.00000000       0.00000000       0.00000000          1
H        10.28773287       9.00062812       8.44199027         0.00000000       0.00000000       0.00000000          1
H         8.63034525       9.29396650       6.21234397         0.00000000       0.00000000       0.00000000          1
H        12.49350404       8.67312356       6.75925978         0.00000000       0.00000000       0.00000000          1
6
pbc=[F, F, F] list_num_par=6 frozen=false iter=20000 energy=-1.26974174 Lattice="15.00000000 0.00000000 0.00000000 0.00000000 15.00000000 0.00000000 0.00000000 0.00000000 15.00000000" energy_frozen_part=0.00000000 Properties=species:S:1:pos:R:3:velocities:R:3:Z:I:1
H        10.87163188      10.93435618       6.51218986         0.00000000       0.00000000       0.00000000          1
H        10.83637949       8.96630975       4.52981451         0.00000000       0.00000000       0.00000000          1
H        10.25192623       7.03284687       6.45969093         0.00000000       0.00000000       0.00000000          1
H        10.28718197       9.00090044       8.44206906         0.00000000       0.00000000       0.00000000          1
H         8.63026778       9.29408159       6.21205493         0.00000000       0.00000000       0.00000000          1
H        12.49329218       8.67311411       6.75982854         0.00000000       0.00000000       0.00000000          1
6
pbc=[F, F, F] list_num_par=6 frozen=false iter=20000 energy=-1.26974174 Lattice="15.00000000 0.00000000 0.00000000 0.00000000 15.00000000 0.00000000 0.00000000 0.00000000 15.00000000" energy_frozen_part=0.00000000 Properties=species:S:1:pos:R:3:velocities:R:3:Z:I:1
H        10.87167039      10.93430553       6.51215101         0.00000000       0.00000000       0.00000000          1
H        10.83616024       8.96642755       4.52960370         0.00000000       0.00000000       0.00000000          1
H        10.25218971       7.03275979       6.45942224         0.00000000       0.00000000       0.00000000          1
H        10.28770392       9.00063523       8.44196292         0.00000000       0.00000000       0.00000000          1
H         8.63035138       9.29392181       6.21229353         0.00000000       0.00000000       0.00000000          1
H        12.49351441       8.67314097       6.75928005         0.00000000       0.00000000       0.00000000          1
6
pbc=[F, F, F] list_num_par=6 frozen=false iter=20000 energy=-1.26974174 Lattice="15.00000000 0.00000000 0.00000000 0.00000000 15.00000000 0.00000000 0.00000000 0.00000000 15.00000000" energy_frozen_part=0.00000000 Properties=species:S:1:pos:R:3:velocities:R:3:Z:I:1
H        10.86438094      10.93708114       6.51801637         0.00000000       0.00000000       0.00000000          1
H        10.84048878       8.97442099       4.53012185         0.00000000       0.00000000       0.00000000          1
H        10.25673757       7.03385549       6.45307052         0.00000000       0.00000000       0.00000000          1
H        10.28062968       8.99651255       8.44096122         0.00000000       0.00000000       0.00000000          1
H         8.62885973       9.29081934       6.20728301         0.00000000       0.00000000       0.00000000          1
H        12.49226099       8.68011996       6.76379913         0.00000000       0.00000000       0.00000000          1
6
pbc=[F, F, F] list_num_par=6 frozen=false iter=20000 energy=-1.26974174 Lattice="15.00000000 0.00000000 0.00000000 0.00000000 15.00000000 0.00000000 0.00000000 0.00000000 15.00000000" energy_frozen_part=0.00000000 Properties=species:S:1:pos:R:3:velocities:R:3:Z:I:1
H        10.86442522      10.93710628       6.51787794         0.00000000       0.00000000       0.00000000          1
H        10.84048562       8.97437986       4.53006425         0.00000000       0.00000000       0.00000000          1
H        10.25673115       7.03390003       6.45309162         0.00000000       0.00000000       0.00000000          1
H        10.28067388       8.99662248       8.44090463         0.00000000       0.00000000       0.00000000          1
H         8.62887422       9.29087275       6.20723548         0.00000000       0.00000000       0.00000000          1
H        12.49228289       8.68013068       6.76373387         0.00000000       0.00000000       0.00000000          1
6
pbc=[F, F, F] list_num_par=6 frozen=false iter=20000 energy=-1.26974174 Lattice="15.00000000 0.00000000 0.00000000 0.00000000 15.00000000 0.00000000 0.00000000 0.00000000 15.00000000" energy_frozen_part=0.00000000 Properties=species:S:1:pos:R:3:velocities:R:3:Z:I:1
H        10.86592340      10.93701903       6.51704164         0.00000000       0.00000000       0.00000000          1
H        10.84117201       8.97351065       4.53000686         0.00000000       0.00000000       0.00000000          1
H        10.25720616       7.03394233       6.45389664         0.00000000       0.00000000       0.00000000          1
H        10.28195504       8.99745391       8.44093186         0.00000000       0.00000000       0.00000000          1
H         8.62990262       9.29123897       6.20739007         0.00000000       0.00000000       0.00000000          1
H        12.49322793       8.67972317       6.76355283         0.00000000       0.00000000       0.00000000          1
6
pbc=[F, F, F] list_num_par=6 frozen=false iter=20000 energy=-1.26974174 Lattice="15.00000000 0.00000000 0.00000000 0.00000000 15.00000000 0.00000000 0.00000000 0.00000000 15.00000000" energy_frozen_part=0.00000000 Properties=species:S:1:pos:R:3:velocities:R:3:Z:I:1
H        10.86441496      10.93712026       6.51790191         0.00000000       0.00000000       0.00000000          1
H        10.84046015       8.97441632       4.53006767         0.00000000       0.00000000       0.00000000          1
H        10.25672763       7.03391116       6.45308273         0.00000000       0.00000000       0.00000000          1
H        10.28067483       8.99662156       8.44091776         0.00000000       0.00000000       0.00000000          1
H         8.62886633       9.29088067       6.20726423         0.00000000       0.00000000       0.00000000          1
H        12.49227389       8.68015197       6.76371945         0.00000000       0.00000000       0.00000000          1
6
pbc=[F, F, F] list_num_par=6 frozen=false iter=20000 energy=-1.26974174 Lattice="15.00000000 0.00000000 0.00000000 0.00000000 15.00000000 0.00000000 0.00000000 0.00000000 15.00000000" energy_frozen_part=0.00000000 Properties=species:S:1:pos:R:3:velocities:R:3:Z:I:1
H        10.86441882      10.93707961       6.51795581         0.00000000       0.00000000       0.00000000          1
H        10.84047286       8.97440655       4.53008989         0.00000000       0.00000000       0.00000000          1
H        10.25674454       7.03386829       6.45307515         0.00000000       0.00000000       0.00000000          1
H        10.28068590       8.99654601       8.44093886         0.00000000       0.00000000       0.00000000          1
H         8.62887197       9.29083473       6.20728640         0.00000000       0.00000000       0.00000000          1
H        12.49228676       8.68011030       6.76374726         0.00000000       0.00000000       0.00000000          1
6
pbc=[F, F, F] list_num_par=6 frozen=false iter=20000 energy=-1.26974174 Lattice="15.00000000 0.00000000 0.00000000 0.00000000 15.00000000 0.00000000 0.00000000 0.00000000 15.00000000" energy_frozen_part=0.00000000 Properties=species:S:1:pos:R:3:velocities:R:3:Z:I:1
H        10.87167813      10.93429646       6.51214879         0.00000000       0.00000000       0.00000000          1
H        10.83615242       8.96642936       4.52960043         0.00000000       0.00000000       0.00000000          1
H        10.25218946       7.03275149       6.45941572         0.00000000       0.00000000       0.00000000          1
H        10.28771401       9.00062532       8.44196537         0.00000000       0.00000000       0.00000000          1
H         8.63035105       9.29392053       6.21230417         0.00000000       0.00000000       0.00000000          1
H        12.49351319       8.67312953       6.75926891         0.00000000       0.00000000       0.00000000          1
6
pbc=[F, F, F] list_num_par=6 frozen=false iter=20000 energy=-1.26974174 Lattice="15.00000000 0.00000000 0.00000000 0.00000000 15.00000000 0.00000000 0.00000000 0.00000000 15.00000000" energy_frozen_part=0.00000000 Properties=species:S:1:pos:R:3:velocities:R:3:Z:I:1
H        10.86438251      10.93707929       6.51800876         0.00000000       0.00000000       0.00000000          1
H        10.84046213       8.97443968       4.53010687         0.00000000       0.00000000       0.00000000          1
H        10.25673182       7.03386254       6.45305229         0.00000000       0.00000000       0.00000000          1
H        10.28064270       8.99650529       8.44094960         0.00000000       0.00000000       0.00000000          1
H         8.62884680       9.29082668       6.20728784         0.00000000       0.00000000       0.00000000          1
H        12.49225717       8.68011573       6.76376423         0.00000000       0.00000000       0.00000000          1
6
pbc=[F, F, F] list_num_par=6 frozen=false iter=20000 energy=-1.26974174 Lattice="15.00000000 0.00000000 0.00000000 0.00000000 15.00000000 0.00000000 0.00000000 0.00000000 15.00000000" energy_frozen_part=0.00000000 Properties=species:S:1:pos:R:3:velocities:R:3:Z:I:1
H        10.86592402      10.93701626       6.51702607         0.00000000       0.00000000       0.00000000          1
H        10.84117868       8.97347757       4.53001633         0.00000000       0.00000000       0.00000000          1
H        10.25722424       7.03392485       6.45392644         0.00000000       0.00000000       0.00000000          1
H        10.28196584       8.99745835       8.44093196         0.00000000       0.00000000       0.00000000          1
H         8.62990683       9.29121635       6.20739551         0.00000000       0.00000000       0.00000000          1
H        12.49324100       8.67972342       6.76355600         0.00000000       0.00000000       0.00000000          1
6
pbc=[F, F, F] list_num_par=6 frozen=false iter=20000 energy=-1.26974174 Lattice="15.00000000 0.00000000 0.00000000 0.00000000 15.00000000 0.00000000 0.00000000 0.00000000 15.00000000" energy_frozen_part=0.00000000 Properties=species:S:1:pos:R:3:velocities:R:3:Z:I:1
H        10.86443423      10.93707870       6.51801257         0.00000000       0.00000000       0.00000000          1
H        10.84048832       8.97443913       4.53010597         0.00000000       0.00000000       0.00000000          1
H        10.25670582       7.03387536       6.45304514         0.00000000       0.00000000       0.00000000          1
H        10.28064893       8.99651321       8.44095335         0.00000000       0.00000000       0.00000000          1
H         8.62887123       9.29087430       6.20727913         0.00000000       0.00000000       0.00000000          1
H        12.49226512       8.68008251       6.76377976         0.00000000       0.00000000       0.00000000          1
6
pbc=[F, F, F] list_num_par=6 frozen=false iter=20000 energy=-1.26974174 Lattice="15.00000000 0.00000000 0.00000000 0.00000000 15.00000000 0.00000000 0.00000000 0.00000000 15.00000000" energy_frozen_part=0.00000000 Properties=species:S:1:pos:R:3:velocities:R:3:Z:I:1
H        10.86440388      10.93707892       6.51805287         0.00000000       0.00000000       0.00000000          1
H        10.84047441       8.97445026       4.53013818         0.00000000       0.00000000       0.00000000          1
H        10.25668536       7.03387607       6.45306330         0.00000000       0.00000000       0.00000000          1
H        10.28060313       8.99650368       8.44097555         0.00000000       0.00000000       0.00000000          1
H         8.62884796       9.29087118       6.20730005         0.00000000       0.00000000       0.00000000          1
H        12.49224000       8.68008725       6.76382009         0.00000000       0.00000000       0.00000000          1
6
pbc=[F, F, F] list_num_par=6 frozen=false iter=20000 energy=-1.26974174 Lattice="15.00000000 0.00000000 0.00000000 0.00000000 15.00000000 0.00000000 0.00000000 0.00000000 15.00000000" energy_frozen_part=0.00000000 Properties=species:S:1:pos:R:3:velocities:R:3:Z:I:1
H        10.87168613      10.93430198       6.51218504         0.00000000       0.00000000       0.00000000          1
H        10.83610046       8.96644353       4.52962332         0.00000000       0.00000000       0.00000000          1
H        10.25214938       7.03276959       6.45944442         0.00000000       0.00000000       0.00000000          1
H        10.28772868       9.00062656       8.44200366         0.00000000       0.00000000       0.00000000          1
H         8.63033309       9.29395576       6.21236717         0.00000000       0.00000000       0.00000000          1
H        12.49349947       8.67311924       6.75926640         0.00000000       0.00000000       0.00000000          1
6
pbc=[F, F, F] list_num_par=6 frozen=false iter=20000 energy=-1.26974174 Lattice="15.00000000 0.00000000 0.00000000 0.00000000 15.00000000 0.00000000 0.00000000 0.00000000 15.00000000" energy_frozen_part=0.00000000 Properties=species:S:1:pos:R:3:velocities:R:3:Z:I:1
H        11.39192151      11.29896692       5.85532141         0.00000000       0.00000000       0.00000000          1
H         9.88954773      11.68346235       8.17896470         0.00000000       0.00000000       0.00000000          1
H         8.70246238      10.54605636       5.92033574         0.00000000       0.00000000       0.00000000          1
H        10.69861338       8.59275485       5.85484990         0.00000000       0.00000000       0.00000000          1
H        11.88569345       9.73015321       8.11348652         0.00000000       0.00000000       0.00000000          1
H         9.19623528       8.97724076       8.17849616         0.00000000       0.00000000       0.00000000          1
6
pbc=[F, F, F] list_num_par=6 frozen=false iter=20000 energy=-1.26974174 Lattice="15.00000000 0.00000000 0.00000000 0.00000000 15.00000000 0.00000000 0.00000000 0.00000000 15.00000000" energy_frozen_part=0.00000000 Properties=species:S:1:pos:R:3:velocities:R:3:Z:I:1
H        10.87180000      10.93438058       6.51217439         0.00000000       0.00000000       0.00000000          1
H        10.83615162       8.96656541       4.52957274         0.00000000       0.00000000       0.00000000          1
H        10.25199163       7.03288858       6.45932411         0.00000000       0.00000000       0.00000000          1
H        10.28764759       9.00070376       8.44192811         0.00000000       0.00000000       0.00000000          1
H         8.63034362       9.29419652       6.21224314         0.00000000       0.00000000       0.00000000          1
H        12.49344809       8.67307885       6.75926289         0.00000000       0.00000000       0.00000000          1
6
pbc=[F, F, F] list_num_par=6 frozen=false iter=20000 energy=-1.26974174 Lattice="15.00000000 0.00000000 0.00000000 0.00000000 15.00000000 0.00000000 0.00000000 0.00000000 15.00000000" energy_frozen_part=0.00000000 Properties=species:S:1:pos:R:3:velocities:R:3:Z:I:1
H        10.87167304      10.93429630       6.51214999         0.00000000       0.00000000       0.00000000          1
H        10.83615014       8.96642997       4.52959851         0.00000000       0.00000000       0.00000000          1
H        10.25218723       7.03275699       6.45941178         0.00000000       0.00000000       0.00000000          1
H        10.28771307       9.00062409       8.44197195         0.00000000       0.00000000       0.00000000          1
H         8.63035131       9.29392125       6.21230145         0.00000000       0.00000000       0.00000000          1
H        12.49351315       8.67313139       6.75926834         0.00000000       0.00000000       0.00000000          1
6
pbc=[F, F, F] list_num_par=6 frozen=false iter=20000 energy=-1.26974174 Lattice="15.00000000 0.00000000 0.00000000 0.00000000 15.00000000 0.00000000 0.00000000 0.00000000 15.00000000" energy_frozen_part=0.00000000 Properties=species:S:1:pos:R:3:velocities:R:3:Z:I:1
H        10.87171260      10.93438669       6.51226675         0.00000000       0.00000000       0.00000000          1
H        10.83606664       8.96654257       4.52968876         0.00000000       0.00000000       0.00000000          1
H        10.25208432       7.03286705       6.45950294         0.00000000       0.00000000       0.00000000          1
H        10.28773198       9.00071482       8.44207267         0.00000000       0.00000000       0.00000000          1
H         8.63032121       9.29409328       6.21245229         0.00000000       0.00000000       0.00000000          1
H        12.49347821       8.67315997       6.75930546         0.00000000       0.00000000       0.00000000          1
6
pbc=[F, F, F] list_num_par=6 frozen=false iter=20000 energy=-1.26974174 Lattice="15.00000000 0.00000000 0.00000000 0.00000000 15.00000000 0.00000000 0.00000000 0.00000000 15.00000000" energy_frozen_part=0.00000000 Properties=species:S:1:pos:R:3:velocities:R:3:Z:I:1
H        10.86537357      10.93674272       6.51619251         0.00000000       0.00000000       0.00000000          1
H        10.84198669       8.97368506       4.52870018         0.00000000       0.00000000       0.00000000          1
H        10.25576608       7.03382750       6.45161150         0.00000000       0.00000000       0.00000000          1
H        10.27915158       8.99688797       8.43910456         0.00000000       0.00000000       0.00000000          1
H         8.62923604       9.29157574       6.20410478         0.00000000       0.00000000       0.00000000          1
H        12.49190590       8.67899953       6.76370498         0.00000000       0.00000000       0.00000000          1
6
pbc=[F, F, F] list_num_par=6 frozen=false iter=20000 energy=-1.26974174 Lattice="15.00000000 0.00000000 0.00000000 0.00000000 15.00000000 0.00000000 0.00000000 0.00000000 15.00000000" energy_frozen_part=0.00000000 Properties=species:S:1:pos:R:3:velocities:R:3:Z:I:1
H        10.87167274      10.93430647       6.51215096         0.00000000       0.00000000       0.00000000          1
H        10.83614586       8.96643225       4.52960293         0.00000000       0.00000000       0.00000000          1
H        10.25218491       7.03275843       6.45941902         0.00000000       0.00000000       0.00000000          1
H        10.28771023       9.00063715       8.44196454         0.00000000       0.00000000       0.00000000          1
H         8.63034768       9.29392241       6.21229880         0.00000000       0.00000000       0.00000000          1
H        12.49351301       8.67313980       6.75926776         0.00000000       0.00000000       0.00000000          1
6
pbc=[F, F, F] list_num_par=6 frozen=false iter=20000 energy=-1.26974174 Lattice="15.00000000 0.00000000 0.00000000 0.00000000 15.00000000 0.00000000 0.00000000 0.00000000 15.00000000" energy_frozen_part=0.00000000 Properties=species:S:1:pos:R:3:velocities:R:3:Z:I:1
H        11.39196761      11.29906186       5.85534139         0.00000000       0.00000000       0.00000000          1
H         9.88961525      11.68349394       8.17900892         0.00000000       0.00000000       0.00000000          1
H         8.70251170      10.54612850       5.92035962         0.00000000       0.00000000       0.00000000          1
H        10.69867010       8.59284049       5.85482679         0.00000000       0.00000000       0.00000000          1
H        11.88577283       9.73020285       8.11346999         0.00000000       0.00000000       0.00000000          1
H         9.19631758       8.97727475       8.17849192         0.00000000       0.00000000       0.00000000          1
6
pbc=[F, F, F] list_num_par=6 frozen=false iter=20000 energy=-1.26974174 Lattice="15.00000000 0.00000000 0.00000000 0.00000000 15.00000000 0.00000000 0.00000000 0.00000000 15.00000000" energy_frozen_part=0.00000000 Properties=species:S:1:pos:R:3:velocities:R:3:Z:I:1
H        11.39196685      11.29906004       5.85534659         0.00000000       0.00000000       0.00000000          1
H         9.88960302      11.68349357       8.17900476         0.00000000       0.00000000       0.00000000          1
H         8.70251660      10.54612323       5.92035390         0.00000000       0.00000000       0.00000000          1
H        10.69867515       8.59283475       5.85482348         0.00000000       0.00000000       0.00000000          1
H        11.88576448       9.73019772       8.11347064         0.00000000       0.00000000       0.00000000          1
H         9.19631256       8.97727143       8.17848189         0.00000000       0.00000000       0.00000000          1
6
pbc=[F, F, F] list_num_par=6 frozen=false iter=20000 energy=-1.26974174 Lattice="15.00000000 0.00000000 0.00000000 0.00000000 15.00000000 0.00000000 0.00000000 0.00000000 15.00000000" energy_frozen_part=0.00000000 Properties=species:S:1:pos:R:3:velocities:R:3:Z:I:1
H        10.86534478      10.93674548       6.51618380         0.00000000       0.00000000       0.00000000          1
H        10.84197355       8.97368368       4.52868920         0.00000000       0.00000000       0.00000000          1
H        10.25575215       7.03382690       6.45160197         0.00000000       0.00000000       0.00000000          1
H        10.27913368       8.99689166       8.43909891         0.00000000       0.00000000       0.00000000          1
H         8.62921868       9.29156780       6.20409097         0.00000000       0.00000000       0.00000000          1
H        12.49188220       8.67900189       6.76369624         0.00000000       0.00000000       0.00000000          1
6
pbc=[F, F, F] list_num_par=6 frozen=false iter=20000 energy=-1.26974174 Lattice="15.00000000 0.00000000 0.00000000 0.00000000 15.00000000 0.00000000 0.00000000 0.00000000 15.00000000" energy_frozen_part=0.00000000 Properties=species:S:1:pos:R:3:velocities:R:3:Z:I:1
H        10.87179968      10.93440119       6.51219455         0.00000000       0.00000000       0.00000000          1
H        10.83618005       8.96658994       4.52958253         0.00000000       0.00000000       0.00000000          1
H        10.25208019       7.03289664       6.45933976         0.00000000       0.00000000       0.00000000          1
H        10.28770031       9.00071072       8.44195271         0.00000000       0.00000000       0.00000000          1
H         8.63038203       9.29416213       6.21227161         0.00000000       0.00000000       0.00000000          1
H        12.49349957       8.67313171       6.75926130         0.00000000       0.00000000       0.00000000          1
6
pbc=[F, F, F] list_num_par=6 frozen=false iter=20000 energy=-1.26974174 Lattice="15.00000000 0.00000000 0.00000000 0.00000000 15.00000000 0.00000000 0.00000000 0.00000000 15.00000000" energy_frozen_part=0.00000000 Properties=species:S:1:pos:R:3:velocities:R:3:Z:I:1
H        10.87169122      10.93430297       6.51218906         0.00000000       0.00000000       0.00000000          1
H        10.83610235       8.96645874       4.52961545         0.00000000       0.00000000       0.00000000          1
H        10.25215590       7.03277604       6.45942150         0.00000000       0.00000000       0.00000000          1
H        10.28774390       9.00061876       8.44198976         0.00000000       0.00000000       0.00000000          1
H         8.63033511       9.29395817       6.21236348         0.00000000       0.00000000       0.00000000          1
H        12.49350977       8.67311930       6.75924540         0.00000000       0.00000000       0.00000000          1
6
pbc=[F, F, F] list_num_par=6 frozen=false iter=20000 energy=-1.26974174 Lattice="15.00000000 0.00000000 0.00000000 0.00000000 15.00000000 0.00000000 0.00000000 0.00000000 15.00000000" energy_frozen_part=0.00000000 Properties=species:S:1:pos:R:3:velocities:R:3:Z:I:1
H        10.87167919      10.93440119       6.51224970         0.00000000       0.00000000       0.00000000          1
H        10.83608775       8.96653126       4.52970025         0.00000000       0.00000000       0.00000000          1
H        10.25210579       7.03287047       6.45951907         0.00000000       0.00000000       0.00000000          1
H        10.28769826       9.00074415       8.44207203         0.00000000       0.00000000       0.00000000          1
H         8.63031389       9.29406652       6.21242930         0.00000000       0.00000000       0.00000000          1
H        12.49346773       8.67320452       6.75934719         0.00000000       0.00000000       0.00000000          1
6
pbc=[F, F, F] list_num_par=6 frozen=false iter=20000 energy=-1.26974174 Lattice="15.00000000 0.00000000 0.00000000 0.00000000 15.00000000 0.00000000 0.00000000 0.00000000 15.00000000" energy_frozen_part=0.00000000 Properties=species:S:1:pos:R:3:velocities:R:3:Z:I:1
H        10.87179894      10.93436670       6.51218339         0.00000000       0.00000000       0.00000000          1
H        10.83615187       8.96655794       4.52957524         0.00000000       0.00000000       0.00000000          1
H        10.25199532       7.03287773       6.45932041         0.00000000       0.00000000       0.00000000          1
H        10.28764450       9.00068789       8.44193473         0.00000000       0.00000000       0.00000000          1
H         8.63034655       9.29418131       6.21224630         0.00000000       0.00000000       0.00000000          1
H        12.49344261       8.67305935       6.75926709         0.00000000       0.00000000       0.00000000          1
6
pbc=[F, F, F] list_num_par=6 frozen=false iter=20000 energy=-1.26974174 Lattice="15.00000000 0.00000000 0.00000000 0.00000000 15.00000000 0.00000000 0.00000000 0.00000000 15.00000000" energy_frozen_part=0.00000000 Properties=species:S:1:pos:R:3:velocities:R:3:Z:I:1
H        10.86592514      10.93701850       6.51703860         0.00000000       0.00000000       0.00000000          1
H        10.84117434       8.97350305       4.53000915         0.00000000       0.00000000       0.00000000          1
H        10.25720665       7.03393995       6.45389654         0.00000000       0.00000000       0.00000000          1
H        10.28195039       8.99744839       8.44093086         0.00000000       0.00000000       0.00000000          1
H         8.62989969       9.29123602       6.20738780         0.00000000       0.00000000       0.00000000          1
H        12.49322840       8.67971929       6.76355174         0.00000000       0.00000000       0.00000000          1
6
pbc=[F, F, F] list_num_par=6 frozen=false iter=20000 energy=-1.26974174 Lattice="15.00000000 0.00000000 0.00000000 0.00000000 15.00000000 0.00000000 0.00000000 0.00000000 15.00000000" energy_frozen_part=0.00000000 Properties=species:S:1:pos:R:3:velocities:R:3:Z:I:1
H        11.39196913      11.29905589       5.85534305         0.00000000       0.00000000       0.00000000          1
H         9.88960652      11.68349351       8.17900193         0.00000000       0.00000000       0.00000000          1
H         8.70251913      10.54612980       5.92035093         0.00000000       0.00000000       0.00000000          1
H        10.69867428       8.59283815       5.85482538         0.00000000       0.00000000       0.00000000          1
H        11.88576130       9.73019702       8.11347796         0.00000000       0.00000000       0.00000000          1
H         9.19630708       8.97727183       8.17848244         0.00000000       0.00000000       0.00000000          1
6
pbc=[F, F, F] list_num_par=6 frozen=false iter=20000 energy=-1.26974174 Lattice="15.00000000 0.00000000 0.00000000 0.00000000 15.00000000 0.00000000 0.00000000 0.00000000 15.00000000" energy_frozen_part=0.00000000 Properties=species:S:1:pos:R:3:velocities:R:3:Z:I:1
H        10.87167642      10.93430227       6.51214931         0.00000000       0.00000000       0.00000000          1
H        10.83616557       8.96642572       4.52960009         0.00000000       0.00000000       0.00000000          1
H        10.25220116       7.03275883       6.45941249         0.00000000       0.00000000       0.00000000          1
H        10.28770596       9.00063355       8.44196113         0.00000000       0.00000000       0.00000000          1
H         8.63035716       9.29391854       6.21228921         0.00000000       0.00000000       0.00000000          1
H        12.49351717       8.67314613       6.75928038         0.00000000       0.00000000       0.00000000          1
6
pbc=[F, F, F] list_num_par=6 frozen=false iter=20000 energy=-1.26974174 Lattice="15.00000000 0.00000000 0.00000000 0.00000000 15.00000000 0.00000000 0.00000000 0.00000000 15.00000000" energy_frozen_part=0.00000000 Properties=species:S:1:pos:R:3:velocities:R:3:Z:I:1
H        10.86443168      10.93707459       6.51801551         0.00000000       0.00000000       0.00000000          1
H        10.84050095       8.97443423       4.53011876         0.00000000       0.00000000       0.00000000          1
H        10.25671661       7.03386762       6.45305648         0.00000000       0.00000000       0.00000000          1
H        10.28065214       8.99650982       8.44095481         0.00000000       0.00000000       0.00000000          1
H         8.62887596       9.29086753       6.20728293         0.00000000       0.00000000       0.00000000          1
H        12.49227216       8.68008045       6.76378909         0.00000000       0.00000000       0.00000000          1
6
pbc=[F, F, F] list_num_par=6 frozen=false iter=20000 energy=-1.26974174 Lattice="15.00000000 0.00000000 0.00000000 0.00000000 15.00000000 0.00000000 0.00000000 0.00000000 15.00000000" energy_frozen_part=0.00000000 Properties=species:S:1:pos:R:3:velocities:R:3:Z:I:1
H        10.86533740      10.93675487       6.51622151         0.00000000       0.00000000       0.00000000          1
H        10.84199850       8.97371245       4.52871426         0.00000000       0.00000000       0.00000000          1
H        10.25578251       7.03382572       6.45158876         0.00000000       0.00000000       0.00000000          1
H        10.27911717       8.99687068       8.43910469         0.00000000       0.00000000       0.00000000          1
H         8.62922606       9.29155767       6.20408920         0.00000000       0.00000000       0.00000000          1
H        12.49188868       8.67902406       6.76373053         0.00000000       0.00000000       0.00000000          1
6
pbc=[F, F, F] list_num_par=6 frozen=false iter=20000 energy=-1.26974174 Lattice="15.00000000 0.00000000 0.00000000 0.00000000 15.00000000 0.00000000 0.00000000 0.00000000 15.00000000" energy_frozen_part=0.00000000 Properties=species:S:1:pos:R:3:velocities:R:3:Z:I:1
H        10.87168211      10.93439724       6.51226185         0.00000000       0.00000000       0.00000000          1
H        10.83609369       8.96656023       4.52967920         0.00000000       0.00000000       0.00000000          1
H        10.25210191       7.03287453       6.45947095         0.00000000       0.00000000       0.00000000          1
H        10.28770587       9.00071126       8.44205462         0.00000000       0.00000000       0.00000000          1
H         8.63031586       9.29407673       6.21241195         0.00000000       0.00000000       0.00000000          1
H        12.49347437       8.67319159       6.75932266         0.00000000       0.00000000       0.00000000          1
6
pbc=[F, F, F] list_num_par=6 frozen=false iter=20000 energy=-1.26974174 Lattice="15.00000000 0.00000000 0.00000000 0.00000000 15.00000000 0.00000000 0.00000000 0.00000000 15.00000000" energy_frozen_part=0.00000000 Properties=species:S:1:pos:R:3:velocities:R:3:Z:I:1
H        10.86443877      10.93709404       6.51790354         0.00000000       0.00000000       0.00000000          1
H        10.84048357       8.97438229       4.53007179         0.00000000       0.00000000       0.00000000          1
H        10.25672225       7.03389130       6.45309455         0.00000000       0.00000000       0.00000000          1
H        10.28068370       8.99660564       8.44092499         0.00000000       0.00000000       0.00000000          1
H         8.62888034       9.29087236       6.20725876         0.00000000       0.00000000       0.00000000          1
H        12.49228405       8.68011439       6.76373791         0.00000000       0.00000000       0.00000000          1
6
pbc=[F, F, F] list_num_par=6 frozen=false iter=20000 energy=-1.26974174 Lattice="15.00000000 0.00000000 0.00000000 0.00000000 15.00000000 0.00000000 0.00000000 0.00000000 15.00000000" energy_frozen_part=0.00000000 Properties=species:S:1:pos:R:3:velocities:R:3:Z:I:1
H        10.87167412      10.93428760       6.51216317         0.00000000       0.00000000       0.00000000          1
H        10.83615144       8.96641728       4.52960795         0.00000000       0.00000000       0.00000000          1
H        10.25217600       7.03274481       6.45942325         0.00000000       0.00000000       0.00000000          1
H        10.28769527       9.00062118       8.44197651         0.00000000       0.00000000       0.00000000          1
H         8.63034767       9.29391829       6.21229931         0.00000000       0.00000000       0.00000000          1
H        12.49350171       8.67311942       6.75928057         0.00000000       0.00000000       0.00000000          1
6
pbc=[F, F, F] list_num_par=6 frozen=false iter=20000 energy=-1.26974174 Lattice="15.00000000 0.00000000 0.00000000 0.00000000 15.00000000 0.00000000 0.00000000 0.00000000 15.00000000" energy_frozen_part=0.00000000 Properties=species:S:1:pos:R:3:velocities:R:3:Z:I:1
H        10.87176674      10.93438179       6.51212173         0.00000000       0.00000000       0.00000000          1
H        10.83611660       8.96656254       4.52952209         0.00000000       0.00000000       0.00000000          1
H        10.25201711       7.03288759       6.45929152         0.00000000       0.00000000       0.00000000          1
H        10.28766003       9.00070614       8.44189088         0.00000000       0.00000000       0.00000000          1
H         8.63033189       9.29416243       6.21221505         0.00000000       0.00000000       0.00000000          1
H        12.49344800       8.67310783       6.75919664         0.00000000       0.00000000       0.00000000          1
6
pbc=[F, F, F] list_num_par=6 frozen=false iter=20000 energy=-1.26974174 Lattice="15.00000000 0.00000000 0.00000000 0.00000000 15.00000000 0.00000000 0.00000000 0.00000000 15.00000000" energy_frozen_part=0.00000000 Properties=species:S:1:pos:R:3:velocities:R:3:Z:I:1
H        10.86533940      10.93675381       6.51623148         0.00000000       0.00000000       0.00000000          1
H        10.84199817       8.97372181       4.52871260         0.00000000       0.00000000       0.00000000          1
H        10.25576767       7.03382761       6.45158114         0.00000000       0.00000000       0.00000000          1
H        10.27910996       8.99686207       8.43910130         0.00000000       0.00000000       0.00000000          1
H         8.62922353       9.29156472       6.20408097         0.00000000       0.00000000       0.00000000          1
H        12.49188270       8.67901091       6.76373251         0.00000000       0.00000000       0.00000000          1
6
pbc=[F, F, F] list_num_par=6 frozen=false iter=20000 energy=-1.26974174 Lattice="15.00000000 0.00000000 0.00000000 0.00000000 15.00000000 0.00000000 0.00000000 0.00000000 15.00000000" energy_frozen_part=0.00000000 Properties=species:S:1:pos:R:3:velocities:R:3:Z:I:1
H        10.87167828      10.93430282       6.51219407         0.00000000       0.00000000       0.00000000          1
H        10.83611195       8.96646355       4.52961628         0.00000000       0.00000000       0.00000000          1
H        10.25215867       7.03277159       6.45942002         0.00000000       0.00000000       0.00000000          1
H        10.28772622       9.00061473       8.44199374         0.00000000       0.00000000       0.00000000          1
H         8.63033478       9.29395237       6.21235709         0.00000000       0.00000000       0.00000000          1
H        12.49350175       8.67312639       6.75925763         0.00000000       0.00000000       0.00000000          1
6
pbc=[F, F, F] list_num_par=6 frozen=false iter=20000 energy=-1.26974174 Lattice="15.00000000 0.00000000 0.00000000 0.00000000 15.00000000 0.00000000 0.00000000 0.00000000 15.00000000" energy_frozen_part=0.00000000 Properties=species:S:1:pos:R:3:velocities:R:3:Z:I:1
H        10.86536110      10.93674595       6.51618795         0.00000000       0.00000000       0.00000000          1
H        10.84197532       8.97368155       4.52869408         0.00000000       0.00000000       0.00000000          1
H        10.25575279       7.03381942       6.45160630         0.00000000       0.00000000       0.00000000          1
H        10.27913363       8.99688592       8.43909193         0.00000000       0.00000000       0.00000000          1
H         8.62922414       9.29157070       6.20409108         0.00000000       0.00000000       0.00000000          1
H        12.49188742       8.67899434       6.76369647         0.00000000       0.00000000       0.00000000          1
6
pbc=[F, F, F] list_num_par=6 frozen=false iter=20000 energy=-1.26974174 Lattice="15.00000000 0.00000000 0.00000000 0.00000000 15.00000000 0.00000000 0.00000000 0.00000000 15.00000000" energy_frozen_part=0.00000000 Properties=species:S:1:pos:R:3:velocities:R:3:Z:I:1
H        10.86533725      10.93674797       6.51622894         0.00000000       0.00000000       0.00000000          1
H        10.84199590       8.97371736       4.52871418         0.00000000       0.00000000       0.00000000          1
H        10.25577145       7.03382566       6.45158870         0.00000000       0.00000000       0.00000000          1
H        10.27911280       8.99686060       8.43910442         0.00000000       0.00000000       0.00000000          1
H         8.62922443       9.29155919       6.20408742         0.00000000       0.00000000       0.00000000          1
H        12.49188763       8.67901548       6.76372724         0.00000000       0.00000000       0.00000000          1
6
pbc=[F, F, F] list_num_par=6 frozen=false iter=20000 energy=-1.26974174 Lattice="15.00000000 0.00000000 0.00000000 0.00000000 15.00000000 0.00000000 0.00000000 0.00000000 15.00000000" energy_frozen_part=0.00000000 Properties=species:S:1:pos:R:3:velocities:R:3:Z:I:1
H        10.87180755      10.93438953       6.51217857         0.00000000       0.00000000       0.00000000          1
H        10.83614606       8.96657298       4.52957752         0.00000000       0.00000000       0.00000000          1
H        10.25198582       7.03290196       6.45934099         0.00000000       0.00000000       0.00000000          1
H        10.28764473       9.00072413       8.44193659         0.00000000       0.00000000       0.00000000          1
H         8.63034802       9.29420730       6.21224444         0.00000000       0.00000000       0.00000000          1
H        12.49344285       8.67307808       6.75926590         0.00000000       0.00000000       0.00000000          1
6
pbc=[F, F, F] list_num_par=6 frozen=false iter=20000 energy=-1.26974174 Lattice="15.00000000 0.00000000 0.00000000 0.00000000 15.00000000 0.00000000 0.00000000 0.00000000 15.00000000" energy_frozen_part=0.00000000 Properties=species:S:1:pos:R:3:velocities:R:3:Z:I:1
H        11.39197058      11.29906431       5.85534924         0.00000000       0.00000000       0.00000000          1
H         9.88960395      11.68349530       8.17900846         0.00000000       0.00000000       0.00000000          1
H         8.70252086      10.54613294       5.92035290         0.00000000       0.00000000       0.00000000          1
H        10.69867445       8.59284330       5.85482943         0.00000000       0.00000000       0.00000000          1
H        11.88576841       9.73020982       8.11348062         0.00000000       0.00000000       0.00000000          1
H         9.19631193       8.97727789       8.17848783         0.00000000       0.00000000       0.00000000          1
6
pbc=[F, F, F] list_num_par=6 frozen=false iter=20000 energy=-1.26974174 Lattice="15.00000000 0.00000000 0.00000000 0.00000000 15.00000000 0.00000000 0.00000000 0.00000000 15.00000000" energy_frozen_part=0.00000000 Properties=species:S:1:pos:R:3:velocities:R:3:Z:I:1
H        10.86534929      10.93674351       6.51618430         0.00000000       0.00000000       0.00000000          1
H        10.84197923       8.97367967       4.52869827         0.00000000       0.00000000       0.00000000          1
H        10.25575463       7.03382402       6.45160170         0.00000000       0.00000000       0.00000000          1
H        10.27913353       8.99688914       8.43909779         0.00000000       0.00000000       0.00000000          1
H         8.62922076       9.29156667       6.20409403         0.00000000       0.00000000       0.00000000          1
H        12.49188560       8.67899975       6.76370217         0.00000000       0.00000000       0.00000000          1
6
pbc=[F, F, F] list_num_par=6 frozen=false iter=20000 energy=-1.26974174 Lattice="15.00000000 0.00000000 0.00000000 0.00000000 15.00000000 0.00000000 0.00000000 0.00000000 15.00000000" energy_frozen_part=0.00000000 Properties=species:S:1:pos:R:3:velocities:R:3:Z:I:1
H        10.87167962      10.93430105       6.51217963         0.00000000       0.00000000       0.00000000          1
H        10.83609236       8.96643993       4.52962356         0.00000000       0.00000000       0.00000000          1
H        10.25215359       7.03277196       6.45945157         0.00000000       0.00000000       0.00000000          1
H        10.28773885       9.00063872       8.44200284         0.00000000       0.00000000       0.00000000          1
H         8.63033090       9.29394459       6.21236875         0.00000000       0.00000000       0.00000000          1
H        12.49350099       8.67312441       6.75925701         0.00000000       0.00000000       0.00000000          1
6
pbc=[F, F, F] list_num_par=6 frozen=false iter=20000 energy=-1.26974174 Lattice="15.00000000 0.00000000 0.00000000 0.00000000 15.00000000 0.00000000 0.00000000 0.00000000 15.00000000" energy_frozen_part=0.00000000 Properties=species:S:1:pos:R:3:velocities:R:3:Z:I:1
H        11.39192489      11.29896900       5.85532538         0.00000000       0.00000000       0.00000000          1
H         9.88954820      11.68345919       8.17897016         0.00000000       0.00000000       0.00000000          1
H         8.70246903      10.54605668       5.92033625         0.00000000       0.00000000       0.00000000          1
H        10.69861871       8.59274807       5.85485009         0.00000000       0.00000000       0.00000000          1
H        11.88569859       9.73015548       8.11348859         0.00000000       0.00000000       0.00000000          1
H         9.19624119       8.97724063       8.17849437         0.00000000       0.00000000       0.00000000          1
6
pbc=[F, F, F] list_num_par=6 frozen=false iter=20000 energy=-1.26974174 Lattice="15.00000000 0.00000000 0.00000000 0.00000000 15.00000000 0.00000000 0.00000000 0.00000000 15.00000000" energy_frozen_part=0.00000000 Properties=species:S:1:pos:R:3:velocities:R:3:Z:I:1
H        10.87166576      10.93438068       6.51226038         0.00000000       0.00000000       0.00000000          1
H        10.83606943       8.96652123       4.52969533         0.00000000       0.00000000       0.00000000          1
H        10.25211212       7.03284468       6.45950913         0.00000000       0.00000000       0.00000000          1
H        10.28770455       9.00070555       8.44207138         0.00000000       0.00000000       0.00000000          1
H         8.63030748       9.29403965       6.21244199         0.00000000       0.00000000       0.00000000          1
H        12.49346489       8.67318989       6.75933143         0.00000000       0.00000000       0.00000000          1
6
pbc=[F, F, F] list_num_par=6 frozen=false iter=20000 energy=-1.26974174 Lattice="15.00000000 0.00000000 0.00000000 0.00000000 15.00000000 0.00000000 0.00000000 0.00000000 15.00000000" energy_frozen_part=0.00000000 Properties=species:S:1:pos:R:3:velocities:R:3:Z:I:1
H        11.39196262      11.29907184       5.85534621         0.00000000       0.00000000       0.00000000          1
H         9.88959864      11.68349047       8.17901110         0.00000000       0.00000000       0.00000000          1
H         8.70251247      10.54613315       5.92035568         0.00000000       0.00000000       0.00000000          1
H        10.69867643       8.59285198       5.85482058         0.00000000       0.00000000       0.00000000          1
H        11.88576492       9.73020995       8.11346983         0.00000000       0.00000000       0.00000000          1
H         9.19631580       8.97727417       8.17848213         0.00000000       0.00000000       0.00000000          1
6
pbc=[F, F, F] list_num_par=6 frozen=false iter=20000 energy=-1.26974174 Lattice="15.00000000 0.00000000 0.00000000 0.00000000 15.00000000 0.00000000 0.00000000 0.00000000 15.00000000" energy_frozen_part=0.00000000 Properties=species:S:1:pos:R:3:velocities:R:3:Z:I:1
H        10.87167621      10.93431041       6.51218874         0.00000000       0.00000000       0.00000000          1
H        10.83610192       8.96645922       4.52961266         0.00000000       0.00000000       0.00000000          1
H        10.25215670       7.03277570       6.45942271         0.00000000       0.00000000       0.00000000          1
H        10.28773111       9.00062560       8.44199135         0.00000000       0.00000000       0.00000000          1
H         8.63033417       9.29395622       6.21235135         0.00000000       0.00000000       0.00000000          1
H        12.49349660       8.67313486       6.75925118         0.00000000       0.00000000       0.00000000          1
6
pbc=[F, F, F] list_num_par=6 frozen=false iter=20000 energy=-1.26974174 Lattice="15.00000000 0.00000000 0.00000000 0.00000000 15.00000000 0.00000000 0.00000000 0.00000000 15.00000000" energy_frozen_part=0.00000000 Properties=species:S:1:pos:R:3:velocities:R:3:Z:I:1
H        10.86593092      10.93700824       6.51704363         0.00000000       0.00000000       0.00000000          1
H        10.84120870       8.97349180       4.53002143         0.00000000       0.00000000       0.00000000          1
H        10.25722779       7.03392906       6.45390441         0.00000000       0.00000000       0.00000000          1
H        10.28195626       8.99744263       8.44093162         0.00000000       0.00000000       0.00000000          1
H         8.62991592       9.29121911       6.20738021         0.00000000       0.00000000       0.00000000          1
H        12.49324278       8.67972113       6.76357754         0.00000000       0.00000000       0.00000000          1
6
pbc=[F, F, F] list_num_par=6 frozen=false iter=20000 energy=-1.26974174 Lattice="15.00000000 0.00000000 0.00000000 0.00000000 15.00000000 0.00000000 0.00000000 0.00000000 15.00000000" energy_frozen_part=0.00000000 Properties=species:S:1:pos:R:3:velocities:R:3:Z:I:1
H        10.86597778      10.93698433       6.51705403         0.00000000       0.00000000       0.00000000          1
H        10.84124620       8.97348084       4.53001159         0.00000000       0.00000000       0.00000000          1
H        10.25724649       7.03389968       6.45388409         0.00000000       0.00000000       0.00000000          1
H        10.28198663       8.99740382       8.44092325         0.00000000       0.00000000       0.00000000          1
H         8.62995410       9.29120747       6.20737123         0.00000000       0.00000000       0.00000000          1
H        12.49327560       8.67967480       6.76356125         0.00000000       0.00000000       0.00000000          1
6
pbc=[F, F, F] list_num_par=6 frozen=false iter=20000 energy=-1.26974174 Lattice="15.00000000 0.00000000 0.00000000 0.00000000 15.00000000 0.00000000 0.00000000 0.00000000 15.00000000" energy_frozen_part=0.00000000 Properties=species:S:1:pos:R:3:velocities:R:3:Z:I:1
H        10.87166368      10.93430957       6.51215149         0.00000000       0.00000000       0.00000000          1
H        10.83610146       8.96644980       4.52958874         0.00000000       0.00000000       0.00000000          1
H        10.25214646       7.03277856       6.45940425         0.00000000       0.00000000       0.00000000          1
H        10.28770140       9.00064039       8.44196136         0.00000000       0.00000000       0.00000000          1
H         8.63032275       9.29395495       6.21231361         0.00000000       0.00000000       0.00000000          1
H        12.49348457       8.67313489       6.75924335         0.00000000       0.00000000       0.00000000          1
6
pbc=[F, F, F] list_num_par=6 frozen=false iter=20000 energy=-1.26974174 Lattice="15.00000000 0.00000000 0.00000000 0.00000000 15.00000000 0.00000000 0.00000000 0.00000000 15.00000000" energy_frozen_part=0.00000000 Properties=species:S:1:pos:R:3:velocities:R:3:Z:I:1
H        10.86443840      10.93709431       6.51790458         0.00000000       0.00000000       0.00000000          1
H        10.84048587       8.97437717       4.53007726         0.00000000       0.00000000       0.00000000          1
H        10.25672605       7.03388293       6.45309465         0.00000000       0.00000000       0.00000000          1
H        10.28067478       8.99660179       8.44092206         0.00000000       0.00000000       0.00000000          1
H         8.62888251       9.29085861       6.20725719         0.00000000       0.00000000       0.00000000          1
H        12.49228248       8.68011421       6.76374360         0.00000000       0.00000000       0.00000000          1
6
pbc=[F, F, F] list_num_par=6 frozen=false iter=20000 energy=-1.26974174 Lattice="15.00000000 0.00000000 0.00000000 0.00000000 15.00000000 0.00000000 0.00000000 0.00000000 15.00000000" energy_frozen_part=0.00000000 Properties=species:S:1:pos:R:3:velocities:R:3:Z:I:1
H        11.39196437      11.29906407       5.85535289         0.00000000       0.00000000       0.00000000          1
H         9.88959688      11.68349299       8.17901559         0.00000000       0.00000000       0.00000000          1
H         8.70251300      10.54613008       5.92036350         0.00000000       0.00000000       0.00000000          1
H        10.69867423       8.59284209       5.85483135         0.00000000       0.00000000       0.00000000          1
H        11.88576545       9.73020600       8.11348190         0.00000000       0.00000000       0.00000000          1
H         9.19631019       8.97727297       8.17849458         0.00000000       0.00000000       0.00000000          1
6
pbc=[F, F, F] list_num_par=6 frozen=false iter=20000 energy=-1.26974174 Lattice="15.00000000 0.00000000 0.00000000 0.00000000 15.00000000 0.00000000 0.00000000 0.00000000 15.00000000" energy_frozen_part=0.00000000 Properties=species:S:1:pos:R:3:velocities:R:3:Z:I:1
H        10.87178988      10.93440495       6.51218729         0.00000000       0.00000000       0.00000000          1
H        10.83617198       8.96659008       4.52958586         0.00000000       0.00000000       0.00000000          1
H        10.25207945       7.03290172       6.45933992         0.00000000       0.00000000       0.00000000          1
H        10.28769855       9.00071751       8.44194627         0.00000000       0.00000000       0.00000000          1
H         8.63037516       9.29416137       6.21227283         0.00000000       0.00000000       0.00000000          1
H        12.49349348       8.67313573       6.75925958         0.00000000       0.00000000       0.00000000          1
6
pbc=[F, F, F] list_num_par=6 frozen=false iter=20000 energy=-1.26974174 Lattice="15.00000000 0.00000000 0.00000000 0.00000000 15.00000000 0.00000000 0.00000000 0.00000000 15.00000000" energy_frozen_part=0.00000000 Properties=species:S:1:pos:R:3:velocities:R:3:Z:I:1
H        10.86593390      10.93701483       6.51703518         0.00000000       0.00000000       0.00000000          1
H        10.84121402       8.97349573       4.53001514         0.00000000       0.00000000       0.00000000          1
H        10.25723650       7.03392958       6.45390780         0.00000000       0.00000000       0.00000000          1
H        10.28195259       8.99745173       8.44092634         0.00000000       0.00000000       0.00000000          1
H         8.62992488       9.29122252       6.20736828         0.00000000       0.00000000       0.00000000          1
H        12.49324626       8.67972362       6.76357361         0.00000000       0.00000000       0.00000000          1
6
pbc=[F, F, F] list_num_par=6 frozen=false iter=20000 energy=-1.26974174 Lattice="15.00000000 0.00000000 0.00000000 0.00000000 15.00000000 0.00000000 0.00000000 0.00000000 15.00000000" energy_frozen_part=0.00000000 Properties=species:S:1:pos:R:3:velocities:R:3:Z:I:1
H        10.87171213      10.93438303       6.51227636         0.00000000       0.00000000       0.00000000          1
H        10.83608389       8.96654742       4.52968792         0.00000000       0.00000000       0.00000000          1
H        10.25207627       7.03287093       6.45948457         0.00000000       0.00000000       0.00000000          1
H        10.28770192       9.00070368       8.44206710         0.00000000       0.00000000       0.00000000          1
H         8.63032213       9.29410266       6.21243082         0.00000000       0.00000000       0.00000000          1
H        12.49346831       8.67315647       6.75933003         0.00000000       0.00000000       0.00000000          1
6
pbc=[F, F, F] list_num_par=6 frozen=false iter=20000 energy=-1.26974174 Lattice="15.00000000 0.00000000 0.00000000 0.00000000 15.00000000 0.00000000 0.00000000 0.00000000 15.00000000" energy_frozen_part=0.00000000 Properties=species:S:1:pos:R:3:velocities:R:3:Z:I:1
H        10.86441003      10.93708171       6.51805071         0.00000000       0.00000000       0.00000000          1
H        10.84048806       8.97444308       4.53014478         0.00000000       0.00000000       0.00000000          1
H        10.25667917       7.03387613       6.45307616         0.00000000       0.00000000       0.00000000          1
H        10.28060575       8.99651594       8.44098349         0.00000000       0.00000000       0.00000000          1
H         8.62885299       9.29087534       6.20730162         0.00000000       0.00000000       0.00000000          1
H        12.49224022       8.68008432       6.76383302         0.00000000       0.00000000       0.00000000          1
6
pbc=[F, F, F] list_num_par=6 frozen=false iter=20000 energy=-1.26974174 Lattice="15.00000000 0.00000000 0.00000000 0.00000000 15.00000000 0.00000000 0.00000000 0.00000000 15.00000000" energy_frozen_part=0.00000000 Properties=species:S:1:pos:R:3:velocities:R:3:Z:I:1
H        10.86442837      10.93707136       6.51801306         0.00000000       0.00000000       0.00000000          1
H        10.84050028       8.97442817       4.53011618         0.00000000       0.00000000       0.00000000          1
H        10.25671811       7.03385927       6.45305218         0.00000000       0.00000000       0.00000000          1
H        10.28065391       8.99650462       8.44095373         0.00000000       0.00000000       0.00000000          1
H         8.62887703       9.29084777       6.20728580         0.00000000       0.00000000       0.00000000          1
H        12.49227371       8.68007807       6.76378075         0.00000000       0.00000000       0.00000000          1
6
pbc=[F, F, F] list_num_par=6 frozen=false iter=20000 energy=-1.26974174 Lattice="15.00000000 0.00000000 0.00000000 0.00000000 15.00000000 0.00000000 0.00000000 0.00000000 15.00000000" energy_frozen_part=0.00000000 Properties=species:S:1:pos:R:3:velocities:R:3:Z:I:1
H        10.87167767      10.93430595       6.51218802         0.00000000       0.00000000       0.00000000          1
H        10.83611501       8.96644786       4.52962421         0.00000000       0.00000000       0.00000000          1
H        10.25215771       7.03276638       6.45943393         0.00000000       0.00000000       0.00000000          1
H        10.28772925       9.00062384       8.44199648         0.00000000       0.00000000       0.00000000          1
H         8.63033899       9.29394571       6.21235866         0.00000000       0.00000000       0.00000000          1
H        12.49350299       8.67312783       6.75927034         0.00000000       0.00000000       0.00000000          1
6
pbc=[F, F, F] list_num_par=6 frozen=false iter=20000 energy=-1.26974174 Lattice="15.00000000 0.00000000 0.00000000 0.00000000 15.00000000 0.00000000 0.00000000 0.00000000 15.00000000" energy_frozen_part=0.00000000 Properties=species:S:1:pos:R:3:velocities:R:3:Z:I:1
H        10.86440763      10.93707228       6.51804432         0.00000000       0.00000000       0.00000000          1
H        10.84046959       8.97443863       4.53013556         0.00000000       0.00000000       0.00000000          1
H        10.25669200       7.03386263       6.45306123         0.00000000       0.00000000       0.00000000          1
H        10.28062671       8.99649886       8.44096881         0.00000000       0.00000000       0.00000000          1
H         8.62884940       9.29085226       6.20730387         0.00000000       0.00000000       0.00000000          1
H        12.49224816       8.68007629       6.76380418         0.00000000       0.00000000       0.00000000          1
6
pbc=[F, F, F] list_num_par=6 frozen=false iter=20000 energy=-1.26974174 Lattice="15.00000000 0.00000000 0.00000000 0.00000000 15.00000000 0.00000000 0.00000000 0.00000000 15.00000000" energy_frozen_part=0.00000000 Properties=species:S:1:pos:R:3:velocities:R:3:Z:I:1
H        10.87167338      10.93439865       6.51225296         0.00000000       0.00000000       0.00000000          1
H        10.83608140       8.96652318       4.52970301         0.00000000       0.00000000       0.00000000          1
H        10.25211044       7.03287039       6.45953140         0.00000000       0.00000000       0.00000000          1
H        10.28769378       9.00073996       8.44207845         0.00000000       0.00000000       0.00000000          1
H         8.63031419       9.29406418       6.21243254         0.00000000       0.00000000       0.00000000          1
H        12.49346632       8.67320096       6.75934816         0.00000000       0.00000000       0.00000000          1
6
pbc=[F, F, F] list_num_par=6 frozen=false iter=20000 energy=-1.26974174 Lattice="15.00000000 0.00000000 0.00000000 0.00000000 15.00000000 0.00000000 0.00000000 0.00000000 15.00000000" energy_frozen_part=0.00000000 Properties=species:S:1:pos:R:3:velocities:R:3:Z:I:1
H        10.87161689      10.93432924       6.51220098         0.00000000       0.00000000       0.00000000          1
H        10.83637323       8.96630054       4.52980934         0.00000000       0.00000000       0.00000000          1
H        10.25191983       7.03282093       6.45966274         0.00000000       0.00000000       0.00000000          1
H        10.28716770       9.00084681       8.44206110         0.00000000       0.00000000       0.00000000          1
H         8.63025643       9.29405351       6.21204700         0.00000000       0.00000000       0.00000000          1
H        12.49328270       8.67309152       6.75982418         0.00000000       0.00000000       0.00000000          1
6
pbc=[F, F, F] list_num_par=6 frozen=false iter=20000 energy=-1.26974174 Lattice="15.00000000 0.00000000 0.00000000 0.00000000 15.00000000 0.00000000 0.00000000 0.00000000 15.00000000" energy_frozen_part=0.00000000 Properties=species:S:1:pos:R:3:velocities:R:3:Z:I:1
H        10.87167191      10.93429110       6.51217833         0.00000000       0.00000000       0.00000000          1
H        10.83611467       8.96644613       4.52960410         0.00000000       0.00000000       0.00000000          1
H        10.25217009       7.03274790       6.45940277         0.00000000       0.00000000       0.00000000          1
H        10.28772150       9.00059516       8.44197617         0.00000000       0.00000000       0.00000000          1
H         8.63033435       9.29391855       6.21233496         0.00000000       0.00000000       0.00000000          1
H        12.49350026       8.67311669       6.75924470         0.00000000       0.00000000       0.00000000          1
6
pbc=[F, F, F] list_num_par=6 frozen=false iter=20000 energy=-1.26974174 Lattice="15.00000000 0.00000000 0.00000000 0.00000000 15.00000000 0.00000000 0.00000000 0.00000000 15.00000000" energy_frozen_part=0.00000000 Properties=species:S:1:pos:R:3:velocities:R:3:Z:I:1
H        10.86440680      10.93706237       6.51806547         0.00000000       0.00000000       0.00000000          1
H        10.84048793       8.97444722       4.53013847         0.00000000       0.00000000       0.00000000          1
H        10.25672377       7.03384855       6.45305078         0.00000000       0.00000000       0.00000000          1
H        10.28063609       8.99646103       8.44097428         0.00000000       0.00000000       0.00000000          1
H         8.62886722       9.29083238       6.20730992         0.00000000       0.00000000       0.00000000          1
H        12.49226357       8.68007972       6.76380887         0.00000000       0.00000000       0.00000000          1
6
pbc=[F, F, F] list_num_par=6 frozen=false iter=20000 energy=-1.26974174 Lattice="15.00000000 0.00000000 0.00000000 0.00000000 15.00000000 0.00000000 0.00000000 0.00000000 15.00000000" energy_frozen_part=0.00000000 Properties=species:S:1:pos:R:3:velocities:R:3:Z:I:1
H        11.39196620      11.29906891       5.85534718         0.00000000       0.00000000       0.00000000          1
H         9.88959361      11.68349898       8.17900246         0.00000000       0.00000000       0.00000000          1
H         8.70252127      10.54612663       5.92034630         0.00000000       0.00000000       0.00000000          1
H        10.69868475       8.59284023       5.85482830         0.00000000       0.00000000       0.00000000          1
H        11.88576461       9.73022030       8.11348116         0.00000000       0.00000000       0.00000000          1
H         9.19631398       8.97727432       8.17848074         0.00000000       0.00000000       0.00000000          1
6
pbc=[F, F, F] list_num_par=6 frozen=false iter=20000 energy=-1.26974174 Lattice="15.00000000 0.00000000 0.00000000 0.00000000 15.00000000 0.00000000 0.00000000 0.00000000 15.00000000" energy_frozen_part=0.00000000 Properties=species:S:1:pos:R:3:velocities:R:3:Z:I:1
H        10.87161397      10.93433393       6.51220073         0.00000000       0.00000000       0.00000000          1
H        10.83636073       8.96630030       4.52980693         0.00000000       0.00000000       0.00000000          1
H        10.25191904       7.03281798       6.45966385         0.00000000       0.00000000       0.00000000          1
H        10.28717366       9.00085058       8.44205714         0.00000000       0.00000000       0.00000000          1
H         8.63025520       9.29405852       6.21205047         0.00000000       0.00000000       0.00000000          1
H        12.49327644       8.67309611       6.75981077         0.00000000       0.00000000       0.00000000          1
6
pbc=[F, F, F] list_num_par=6 frozen=false iter=20000 energy=-1.26974174 Lattice="15.00000000 0.00000000 0.00000000 0.00000000 15.00000000 0.00000000 0.00000000 0.00000000 15.00000000" energy_frozen_part=0.00000000 Properties=species:S:1:pos:R:3:velocities:R:3:Z:I:1
H        11.39196397      11.29906486       5.85535689         0.00000000       0.00000000       0.00000000          1
H         9.88960145      11.68349800       8.17902313         0.00000000       0.00000000       0.00000000          1
H         8.70251035      10.54614400       5.92036573         0.00000000       0.00000000       0.00000000          1
H        10.69866087       8.59284417       5.85483111         0.00000000       0.00000000       0.00000000          1
H        11.88575293       9.73020606       8.11347899         0.00000000       0.00000000       0.00000000          1
H         9.19629980       8.97728190       8.17848855         0.00000000       0.00000000       0.00000000          1
6
pbc=[F, F, F] list_num_par=6 frozen=false iter=20000 energy=-1.26974174 Lattice="15.00000000 0.00000000 0.00000000 0.00000000 15.00000000 0.00000000 0.00000000 0.00000000 15.00000000" energy_frozen_part=0.00000000 Properties=species:S:1:pos:R:3:velocities:R:3:Z:I:1
H        10.86440366      10.93708055       6.51796651         0.00000000       0.00000000       0.00000000          1
H        10.84047035       8.97441545       4.53008885         0.00000000       0.00000000       0.00000000          1
H        10.25674324       7.03386019       6.45306002         0.00000000       0.00000000       0.00000000          1
H        10.28068309       8.99652982       8.44093653         0.00000000       0.00000000       0.00000000          1
H         8.62887138       9.29083378       6.20728600         0.00000000       0.00000000       0.00000000          1
H        12.49227968       8.68011066       6.76374031         0.00000000       0.00000000       0.00000000          1
6
pbc=[F, F, F] list_num_par=6 frozen=false iter=20000 energy=-1.26974174 Lattice="15.00000000 0.00000000 0.00000000 0.00000000 15.00000000 0.00000000 0.00000000 0.00000000 15.00000000" energy_frozen_part=0.00000000 Properties=species:S:1:pos:R:3:velocities:R:3:Z:I:1
H        10.87179603      10.93436709       6.51218123         0.00000000       0.00000000       0.00000000          1
H        10.83614326       8.96655649       4.52957344         0.00000000       0.00000000       0.00000000          1
H        10.25199600       7.03287255       6.45932322         0.00000000       0.00000000       0.00000000          1
H        10.28764945       9.00068387       8.44193230         0.00000000       0.00000000       0.00000000          1
H         8.63034618       9.29417544       6.21225320         0.00000000       0.00000000       0.00000000          1
H        12.49344332       8.67305952       6.75925375         0.00000000       0.00000000       0.00000000          1
6
pbc=[F, F, F] list_num_par=6 frozen=false iter=20000 energy=-1.26974174 Lattice="15.00000000 0.00000000 0.00000000 0.00000000 15.00000000 0.00000000 0.00000000 0.00000000 15.00000000" energy_frozen_part=0.00000000 Properties=species:S:1:pos:R:3:velocities:R:3:Z:I:1
H        10.86533728      10.93674639       6.51621308         0.00000000       0.00000000       0.00000000          1
H        10.84200718       8.97369585       4.52870528         0.00000000       0.00000000       0.00000000          1
H        10.25579285       7.03381888       6.45159604         0.00000000       0.00000000       0.00000000          1
H        10.27912164       8.99686728       8.43910135         0.00000000       0.00000000       0.00000000          1
H         8.62923712       9.29154405       6.20407841         0.00000000       0.00000000       0.00000000          1
H        12.49189690       8.67902580       6.76372390         0.00000000       0.00000000       0.00000000          1
6
pbc=[F, F, F] list_num_par=6 frozen=false iter=20000 energy=-1.26974174 Lattice="15.00000000 0.00000000 0.00000000 0.00000000 15.00000000 0.00000000 0.00000000 0.00000000 15.00000000" energy_frozen_part=0.00000000 Properties=species:S:1:pos:R:3:velocities:R:3:Z:I:1
H        10.87167071      10.93430148       6.51218158         0.00000000       0.00000000       0.00000000          1
H        10.83610747       8.96644859       4.52961207         0.00000000       0.00000000       0.00000000          1
H        10.25215483       7.03276691       6.45942753         0.00000000       0.00000000       0.00000000          1
H        10.28771543       9.00062264       8.44198837         0.00000000       0.00000000       0.00000000          1
H         8.63033062       9.29394114       6.21234432         0.00000000       0.00000000       0.00000000          1
H        12.49349418       8.67312249       6.75926187         0.00000000       0.00000000       0.00000000          1
6
pbc=[F, F, F] list_num_par=6 frozen=false iter=20000 energy=-1.26974174 Lattice="15.00000000 0.00000000 0.00000000 0.00000000 15.00000000 0.00000000 0.00000000 0.00000000 15.00000000" energy_frozen_part=0.00000000 Properties=species:S:1:pos:R:3:velocities:R:3:Z:I:1
H        10.87167348      10.93430093       6.51215160         0.00000000       0.00000000       0.00000000          1
H        10.83614922       8.96642003       4.52960487         0.00000000       0.00000000       0.00000000          1
H        10.25218052       7.03275853       6.45942557         0.00000000       0.00000000       0.00000000          1
H        10.28770597       9.00062910       8.44196981         0.00000000       0.00000000       0.00000000          1
H         8.63034868       9.29392608       6.21230054         0.00000000       0.00000000       0.00000000          1
H        12.49350873       8.67313858       6.75927494         0.00000000       0.00000000       0.00000000          1
6
pbc=[F, F, F] list_num_par=6 frozen=false iter=20000 energy=-1.26974174 Lattice="15.00000000 0.00000000 0.00000000 0.00000000 15.00000000 0.00000000 0.00000000 0.00000000 15.00000000" energy_frozen_part=0.00000000 Properties=species:S:1:pos:R:3:velocities:R:3:Z:I:1
H        10.87168808      10.93429997       6.51217865         0.00000000       0.00000000       0.00000000          1
H        10.83611218       8.96644684       4.52961679         0.00000000       0.00000000       0.00000000          1
H        10.25215399       7.03276580       6.45941672         0.00000000       0.00000000       0.00000000          1
H        10.28772972       9.00061452       8.44198782         0.00000000       0.00000000       0.00000000          1
H         8.63034093       9.29395025       6.21234865         0.00000000       0.00000000       0.00000000          1
H        12.49350430       8.67311529       6.75925587         0.00000000       0.00000000       0.00000000          1
6
pbc=[F, F, F] list_num_par=6 frozen=false iter=20000 energy=-1.26974174 Lattice="15.00000000 0.00000000 0.00000000 0.00000000 15.00000000 0.00000000 0.00000000 0.00000000 15.00000000" energy_frozen_part=0.00000000 Properties=species:S:1:pos:R:3:velocities:R:3:Z:I:1
H        10.86440353      10.93708097       6.51803809         0.00000000       0.00000000       0.00000000          1
H        10.84051562       8.97444245       4.53013312         0.00000000       0.00000000       0.00000000          1
H        10.25676249       7.03386255       6.45306737         0.00000000       0.00000000       0.00000000          1
H        10.28065390       8.99649742       8.44096563         0.00000000       0.00000000       0.00000000          1
H         8.62887830       9.29082488       6.20729254         0.00000000       0.00000000       0.00000000          1
H        12.49228909       8.68011897       6.76381010         0.00000000       0.00000000       0.00000000          1
6
pbc=[F, F, F] list_num_par=6 frozen=false iter=20000 energy=-1.26974174 Lattice="15.00000000 0.00000000 0.00000000 0.00000000 15.00000000 0.00000000 0.00000000 0.00000000 15.00000000" energy_frozen_part=0.00000000 Properties=species:S:1:pos:R:3:velocities:R:3:Z:I:1
H        10.87171826      10.93438334       6.51226503         0.00000000       0.00000000       0.00000000          1
H        10.83607491       8.96653975       4.52969048         0.00000000       0.00000000       0.00000000          1
H        10.25208358       7.03286678       6.45949152         0.00000000       0.00000000       0.00000000          1
H        10.28771748       9.00070910       8.44207349         0.00000000       0.00000000       0.00000000          1
H         8.63032431       9.29409521       6.21244001         0.00000000       0.00000000       0.00000000          1
H        12.49347329       8.67315600       6.75932309         0.00000000       0.00000000       0.00000000          1
6
pbc=[F, F, F] list_num_par=6 frozen=false iter=20000 energy=-1.26974174 Lattice="15.00000000 0.00000000 0.00000000 0.00000000 15.00000000 0.00000000 0.00000000 0.00000000 15.00000000" energy_frozen_part=0.00000000 Properties=species:S:1:pos:R:3:velocities:R:3:Z:I:1
H        11.39195747      11.29907155       5.85534174         0.00000000       0.00000000       0.00000000          1
H         9.88962628      11.68349320       8.17902436         0.00000000       0.00000000       0.00000000          1
H         8.70250969      10.54614613       5.92037587         0.00000000       0.00000000       0.00000000          1
H        10.69866799       8.59285364       5.85481143         0.00000000       0.00000000       0.00000000          1
H        11.88577760       9.73020384       8.11345697         0.00000000       0.00000000       0.00000000          1
H         9.19632673       8.97727618       8.17848876         0.00000000       0.00000000       0.00000000          1
6
pbc=[F, F, F] list_num_par=6 frozen=false iter=20000 energy=-1.26974174 Lattice="15.00000000 0.00000000 0.00000000 0.00000000 15.00000000 0.00000000 0.00000000 0.00000000 15.00000000" energy_frozen_part=0.00000000 Properties=species:S:1:pos:R:3:velocities:R:3:Z:I:1
H        10.86444027      10.93709467       6.51790001         0.00000000       0.00000000       0.00000000          1
H        10.84049185       8.97437800       4.53008172         0.00000000       0.00000000       0.00000000          1
H        10.25672638       7.03388631       6.45309640         0.00000000       0.00000000       0.00000000          1
H        10.28067837       8.99660654       8.44092228         0.00000000       0.00000000       0.00000000          1
H         8.62888135       9.29086998       6.20725543         0.00000000       0.00000000       0.00000000          1
H        12.49228834       8.68011173       6.76374893         0.00000000       0.00000000       0.00000000          1
6
pbc=[F, F, F] list_num_par=6 frozen=false iter=20000 energy=-1.26974174 Lattice="15.00000000 0.00000000 0.00000000 0.00000000 15.00000000 0.00000000 0.00000000 0.00000000 15.00000000" energy_frozen_part=0.00000000 Properties=species:S:1:pos:R:3:velocities:R:3:Z:I:1
H        10.87168892      10.93430563       6.51218495         0.00000000       0.00000000       0.00000000          1
H        10.83611039       8.96645654       4.52961761         0.00000000       0.00000000       0.00000000          1
H        10.25215405       7.03277364       6.45942335         0.00000000       0.00000000       0.00000000          1
H        10.28772717       9.00062423       8.44198614         0.00000000       0.00000000       0.00000000          1
H         8.63033964       9.29395805       6.21234824         0.00000000       0.00000000       0.00000000          1
H        12.49350322       8.67311763       6.75925792         0.00000000       0.00000000       0.00000000          1
6
pbc=[F, F, F] list_num_par=6 frozen=false iter=20000 energy=-1.26974174 Lattice="15.00000000 0.00000000 0.00000000 0.00000000 15.00000000 0.00000000 0.00000000 0.00000000 15.00000000" energy_frozen_part=0.00000000 Properties=species:S:1:pos:R:3:velocities:R:3:Z:I:1
H        10.87170996      10.93438416       6.51227639         0.00000000       0.00000000       0.00000000          1
H        10.83607126       8.96654555       4.52969694         0.00000000       0.00000000       0.00000000          1
H        10.25208338       7.03286821       6.45949966         0.00000000       0.00000000       0.00000000          1
H        10.28771608       9.00070946       8.44207450         0.00000000       0.00000000       0.00000000          1
H         8.63031946       9.29408871       6.21244478         0.00000000       0.00000000       0.00000000          1
H        12.49347152       8.67315497       6.75932491         0.00000000       0.00000000       0.00000000          1
6
pbc=[F, F, F] list_num_par=6 frozen=false iter=20000 energy=-1.26974174 Lattice="15.00000000 0.00000000 0.00000000 0.00000000 15.00000000 0.00000000 0.00000000 0.00000000 15.00000000" energy_frozen_part=0.00000000 Properties=species:S:1:pos:R:3:velocities:R:3:Z:I:1
H        11.39196813      11.29906651       5.85534215         0.00000000       0.00000000       0.00000000          1
H         9.88962054      11.68349488       8.17901630         0.00000000       0.00000000       0.00000000          1
H         8.70251151      10.54613866       5.92037262         0.00000000       0.00000000       0.00000000          1
H        10.69866149       8.59284864       5.85481079         0.00000000       0.00000000       0.00000000          1
H        11.88577063       9.73019529       8.11345768         0.00000000       0.00000000       0.00000000          1
H         9.19631760       8.97727394       8.17848910         0.00000000       0.00000000       0.00000000          1
6
pbc=[F, F, F] list_num_par=6 frozen=false iter=20000 energy=-1.26974174 Lattice="15.00000000 0.00000000 0.00000000 0.00000000 15.00000000 0.00000000 0.00000000 0.00000000 15.00000000" energy_frozen_part=0.00000000 Properties=species:S:1:pos:R:3:velocities:R:3:Z:I:1
H        10.86442343      10.93710413       6.51791010         0.00000000       0.00000000       0.00000000          1
H        10.84049089       8.97438286       4.53008607         0.00000000       0.00000000       0.00000000          1
H        10.25673386       7.03388623       6.45309416         0.00000000       0.00000000       0.00000000          1
H        10.28066421       8.99660370       8.44092160         0.00000000       0.00000000       0.00000000          1
H         8.62887344       9.29086268       6.20725274         0.00000000       0.00000000       0.00000000          1
H        12.49227790       8.68012852       6.76375553         0.00000000       0.00000000       0.00000000          1
6
pbc=[F, F, F] list_num_par=6 frozen=false iter=20000 energy=-1.26974174 Lattice="15.00000000 0.00000000 0.00000000 0.00000000 15.00000000 0.00000000 0.00000000 0.00000000 15.00000000" energy_frozen_part=0.00000000 Properties=species:S:1:pos:R:3:velocities:R:3:Z:I:1
H        11.39196615      11.29906254       5.85536013         0.00000000       0.00000000       0.00000000          1
H         9.88960533      11.68349430       8.17901731         0.00000000       0.00000000       0.00000000          1
H         8.70251075      10.54613713       5.92036075         0.00000000       0.00000000       0.00000000          1
H        10.69866458       8.59284125       5.85482985         0.00000000       0.00000000       0.00000000          1
H        11.88575698       9.73019872       8.11348022         0.00000000       0.00000000       0.00000000          1
H         9.19630406       8.97727711       8.17849037         0.00000000       0.00000000       0.00000000          1
6
pbc=[F, F, F] list_num_par=6 frozen=false iter=20000 energy=-1.26974174 Lattice="15.00000000 0.00000000 0.00000000 0.00000000 15.00000000 0.00000000 0.00000000 0.00000000 15.00000000" energy_frozen_part=0.00000000 Properties=species:S:1:pos:R:3:velocities:R:3:Z:I:1
H        11.39196516      11.29906764       5.85535004         0.00000000       0.00000000       0.00000000          1
H         9.88960794      11.68349389       8.17900851         0.00000000       0.00000000       0.00000000          1
H         8.70251372      10.54613512       5.92035769         0.00000000       0.00000000       0.00000000          1
H        10.69867268       8.59284444       5.85481756         0.00000000       0.00000000       0.00000000          1
H        11.88576675       9.73020647       8.11346840         0.00000000       0.00000000       0.00000000          1
H         9.19631346       8.97727243       8.17847894         0.00000000       0.00000000       0.00000000          1
6
pbc=[F, F, F] list_num_par=6 frozen=false iter=20000 energy=-1.26974174 Lattice="15.00000000 0.00000000 0.00000000 0.00000000 15.00000000 0.00000000 0.00000000 0.00000000 15.00000000" energy_frozen_part=0.00000000 Properties=species:S:1:pos:R:3:velocities:R:3:Z:I:1
H        10.87167349      10.93437692       6.51227301         0.00000000       0.00000000       0.00000000          1
H        10.83606127       8.96653143       4.52969317         0.00000000       0.00000000       0.00000000          1
H        10.25210197       7.03284913       6.45949819         0.00000000       0.00000000       0.00000000          1
H        10.28770644       9.00069209       8.44207306         0.00000000       0.00000000       0.00000000          1
H         8.63030700       9.29405377       6.21244659         0.00000000       0.00000000       0.00000000          1
H        12.49346763       8.67318029       6.75932355         0.00000000       0.00000000       0.00000000          1
6
pbc=[F, F, F] list_num_par=6 frozen=false iter=20000 energy=-1.26974174 Lattice="15.00000000 0.00000000 0.00000000 0.00000000 15.00000000 0.00000000 0.00000000 0.00000000 15.00000000" energy_frozen_part=0.00000000 Properties=species:S:1:pos:R:3:velocities:R:3:Z:I:1
H        10.86591810      10.93701040       6.51702307         0.00000000       0.00000000       0.00000000          1
H        10.84118288       8.97347886       4.53001751         0.00000000       0.00000000       0.00000000          1
H        10.25722742       7.03392533       6.45392512         0.00000000       0.00000000       0.00000000          1
H        10.28197375       8.99746095       8.44093320         0.00000000       0.00000000       0.00000000          1
H         8.62990720       9.29120441       6.20739717         0.00000000       0.00000000       0.00000000          1
H        12.49324339       8.67972566       6.76355333         0.00000000       0.00000000       0.00000000          1
6
pbc=[F, F, F] list_num_par=6 frozen=false iter=20000 energy=-1.26974174 Lattice="15.00000000 0.00000000 0.00000000 0.00000000 15.00000000 0.00000000 0.00000000 0.00000000 15.00000000" energy_frozen_part=0.00000000 Properties=species:S:1:pos:R:3:velocities:R:3:Z:I:1
H        10.86535996      10.93674915       6.51618351         0.00000000       0.00000000       0.00000000          1
H        10.84197872       8.97367836       4.52869253         0.00000000       0.00000000       0.00000000          1
H        10.25575864       7.03382686       6.45161211         0.00000000       0.00000000       0.00000000          1
H        10.27913946       8.99689734       8.43909715         0.00000000       0.00000000       0.00000000          1
H         8.62922877       9.29157432       6.20408936         0.00000000       0.00000000       0.00000000          1
H        12.49189138       8.67899830       6.76369602         0.00000000       0.00000000       0.00000000          1
6
pbc=[F, F, F] list_num_par=6 frozen=false iter=20000 energy=-1.26974174 Lattice="15.00000000 0.00000000 0.00000000 0.00000000 15.00000000 0.00000000 0.00000000 0.00000000 15.00000000" energy_frozen_part=0.00000000 Properties=species:S:1:pos:R:3:velocities:R:3:Z:I:1
H        11.39196453      11.29905903       5.85535358         0.00000000       0.00000000       0.00000000          1
H         9.88960554      11.68349783       8.17901443         0.00000000       0.00000000       0.00000000          1
H         8.70251267      10.54613319       5.92036373         0.00000000       0.00000000       0.00000000          1
H        10.69867215       8.59284271       5.85482696         0.00000000       0.00000000       0.00000000          1
H        11.88576287       9.73020915       8.11347839         0.00000000       0.00000000       0.00000000          1
H         9.19631447       8.97727512       8.17849160         0.00000000       0.00000000       0.00000000          1
6
pbc=[F, F, F] list_num_par=6 frozen=false iter=20000 energy=-1.26974174 Lattice="15.00000000 0.00000000 0.00000000 0.00000000 15.00000000 0.00000000 0.00000000 0.00000000 15.00000000" energy_frozen_part=0.00000000 Properties=species:S:1:pos:R:3:velocities:R:3:Z:I:1
H        10.86440292      10.93708140       6.51804822         0.00000000       0.00000000       0.00000000          1
H        10.84047758       8.97444115       4.53014465         0.00000000       0.00000000       0.00000000          1
H        10.25668912       7.03387659       6.45307614         0.00000000       0.00000000       0.00000000          1
H        10.28061959       8.99651432       8.44098114         0.00000000       0.00000000       0.00000000          1
H         8.62884946       9.29086533       6.20731006         0.00000000       0.00000000       0.00000000          1
H        12.49224491       8.68009008       6.76382388         0.00000000       0.00000000       0.00000000          1
6
pbc=[F, F, F] list_num_par=6 frozen=false iter=20000 energy=-1.26974174 Lattice="15.00000000 0.00000000 0.00000000 0.00000000 15.00000000 0.00000000 0.00000000 0.00000000 15.00000000" energy_frozen_part=0.00000000 Properties=species:S:1:pos:R:3:velocities:R:3:Z:I:1
H        10.86444744      10.93708021       6.51802135         0.00000000       0.00000000       0.00000000          1
H        10.84049151       8.97444123       4.53011662         0.00000000       0.00000000       0.00000000          1
H        10.25669450       7.03387630       6.45304933         0.00000000       0.00000000       0.00000000          1
H        10.28064827       8.99651418       8.44095789         0.00000000       0.00000000       0.00000000          1
H         8.62887728       9.29088429       6.20729011         0.00000000       0.00000000       0.00000000          1
H        12.49226826       8.68006853       6.76378621         0.00000000       0.00000000       0.00000000          1
6
pbc=[F, F, F] list_num_par=6 frozen=false iter=20000 energy=-1.26974174 Lattice="15.00000000 0.00000000 0.00000000 0.00000000 15.00000000 0.00000000 0.00000000 0.00000000 15.00000000" energy_frozen_part=0.00000000 Properties=species:S:1:pos:R:3:velocities:R:3:Z:I:1
H        10.87181338      10.93438899       6.51217291         0.00000000       0.00000000       0.00000000          1
H        10.83615892       8.96657007       4.52957899         0.00000000       0.00000000       0.00000000          1
H        10.25198220       7.03290268       6.45933387         0.00000000       0.00000000       0.00000000          1
H        10.28763494       9.00072380       8.44192964         0.00000000       0.00000000       0.00000000          1
H         8.63034595       9.29421350       6.21223693         0.00000000       0.00000000       0.00000000          1
H        12.49344711       8.67307662       6.75927220         0.00000000       0.00000000       0.00000000          1
6
pbc=[F, F, F] list_num_par=6 frozen=false iter=20000 energy=-1.26974174 Lattice="15.00000000 0.00000000 0.00000000 0.00000000 15.00000000 0.00000000 0.00000000 0.00000000 15.00000000" energy_frozen_part=0.00000000 Properties=species:S:1:pos:R:3:velocities:R:3:Z:I:1
H        10.86440172      10.93708191       6.51805274         0.00000000       0.00000000       0.00000000          1
H        10.84047201       8.97443691       4.53015565         0.00000000       0.00000000       0.00000000          1
H        10.25668500       7.03387504       6.45308889         0.00000000       0.00000000       0.00000000          1
H        10.28061472       8.99651467       8.44099036         0.00000000       0.00000000       0.00000000          1
H         8.62884803       9.29086909       6.20731145         0.00000000       0.00000000       0.00000000          1
H        12.49223960       8.68008895       6.76383388         0.00000000       0.00000000       0.00000000          1
6
pbc=[F, F, F] list_num_par=6 frozen=false iter=20000 energy=-1.26974174 Lattice="15.00000000 0.00000000 0.00000000 0.00000000 15.00000000 0.00000000 0.00000000 0.00000000 15.00000000" energy_frozen_part=0.00000000 Properties=species:S:1:pos:R:3:velocities:R:3:Z:I:1
H        10.87171585      10.93438424       6.51226716         0.00000000       0.00000000       0.00000000          1
H        10.83607420       8.96654433       4.52969505         0.00000000       0.00000000       0.00000000          1
H        10.25207042       7.03287075       6.45949103         0.00000000       0.00000000       0.00000000          1
H        10.28771443       9.00071240       8.44206870         0.00000000       0.00000000       0.00000000          1
H         8.63031980       9.29410040       6.21243573         0.00000000       0.00000000       0.00000000          1
H        12.49346770       8.67315280       6.75932404         0.00000000       0.00000000       0.00000000          1
6
pbc=[F, F, F] list_num_par=6 frozen=false iter=20000 energy=-1.26974174 Lattice="15.00000000 0.00000000 0.00000000 0.00000000 15.00000000 0.00000000 0.00000000 0.00000000 15.00000000" energy_frozen_part=0.00000000 Properties=species:S:1:pos:R:3:velocities:R:3:Z:I:1
H        10.86592860      10.93700973       6.51703670         0.00000000       0.00000000       0.00000000          1
H        10.84118475       8.97347719       4.53002651         0.00000000       0.00000000       0.00000000          1
H        10.25721342       7.03392786       6.45392797         0.00000000       0.00000000       0.00000000          1
H        10.28196401       8.99745574       8.44093820         0.00000000       0.00000000       0.00000000          1
H         8.62990862       9.29122368       6.20739393         0.00000000       0.00000000       0.00000000          1
H        12.49323741       8.67971568       6.76356533         0.00000000       0.00000000       0.00000000          1
6
pbc=[F, F, F] list_num_par=6 frozen=false iter=20000 energy=-1.26974174 Lattice="15.00000000 0.00000000 0.00000000 0.00000000 15.00000000 0.00000000 0.00000000 0.00000000 15.00000000" energy_frozen_part=0.00000000 Properties=species:S:1:pos:R:3:velocities:R:3:Z:I:1
H        10.86592472      10.93702104       6.51703869         0.00000000       0.00000000       0.00000000          1
H        10.84117186       8.97349807       4.53001474         0.00000000       0.00000000       0.00000000          1
H        10.25720969       7.03393097       6.45390514         0.00000000       0.00000000       0.00000000          1
H        10.28196307       8.99744918       8.44092841         0.00000000       0.00000000       0.00000000          1
H         8.62990328       9.29123049       6.20739768         0.00000000       0.00000000       0.00000000          1
H        12.49323322       8.67972097       6.76354903         0.00000000       0.00000000       0.00000000          1
6
pbc=[F, F, F] list_num_par=6 frozen=false iter=20000 energy=-1.26974174 Lattice="15.00000000 0.00000000 0.00000000 0.00000000 15.00000000 0.00000000 0.00000000 0.00000000 15.00000000" energy_frozen_part=0.00000000 Properties=species:S:1:pos:R:3:velocities:R:3:Z:I:1
H        10.86439818      10.93707255       6.51804581         0.00000000       0.00000000       0.00000000          1
H        10.84047735       8.97444110       4.53013749         0.00000000       0.00000000       0.00000000          1
H        10.25670342       7.03386126       6.45305906         0.00000000       0.00000000       0.00000000          1
H        10.28062659       8.99649084       8.44097093         0.00000000       0.00000000       0.00000000          1
H         8.62885585       9.29084978       6.20729904         0.00000000       0.00000000       0.00000000          1
H        12.49225154       8.68008477       6.76380568         0.00000000       0.00000000       0.00000000          1
6
pbc=[F, F, F] list_num_par=6 frozen=false iter=20000 energy=-1.26974174 Lattice="15.00000000 0.00000000 0.00000000 0.00000000 15.00000000 0.00000000 0.00000000 0.00000000 15.00000000" energy_frozen_part=0.00000000 Properties=species:S:1:pos:R:3:velocities:R:3:Z:I:1
H        11.39192294      11.29896678       5.85531768         0.00000000       0.00000000       0.00000000          1
H         9.88955068      11.68346397       8.17896366         0.00000000       0.00000000       0.00000000          1
H         8.70246396      10.54605054       5.92032945         0.00000000       0.00000000       0.00000000          1
H        10.69861746       8.59275291       5.85485106         0.00000000       0.00000000       0.00000000          1
H        11.88570152       9.73016152       8.11348327         0.00000000       0.00000000       0.00000000          1
H         9.19624290       8.97724573       8.17849736         0.00000000       0.00000000       0.00000000          1
6
pbc=[F, F, F] list_num_par=6 frozen=false iter=20000 energy=-1.26974174 Lattice="15.00000000 0.00000000 0.00000000 0.00000000 15.00000000 0.00000000 0.00000000 0.00000000 15.00000000" energy_frozen_part=0.00000000 Properties=species:S:1:pos:R:3:velocities:R:3:Z:I:1
H        11.39196967      11.29903472       5.85532237         0.00000000       0.00000000       0.00000000          1
H         9.88962958      11.68348769       8.17899666         0.00000000       0.00000000       0.00000000          1
H         8.70251199      10.54612378       5.92036432         0.00000000       0.00000000       0.00000000          1
H        10.69866053       8.59282093       5.85481586         0.00000000       0.00000000       0.00000000          1
H        11.88578060       9.73018767       8.11344938         0.00000000       0.00000000       0.00000000          1
H         9.19632260       8.97726791       8.17849027         0.00000000       0.00000000       0.00000000          1
6
pbc=[F, F, F] list_num_par=6 frozen=false iter=20000 energy=-1.26974174 Lattice="15.00000000 0.00000000 0.00000000 0.00000000 15.00000000 0.00000000 0.00000000 0.00000000 15.00000000" energy_frozen_part=0.00000000 Properties=species:S:1:pos:R:3:velocities:R:3:Z:I:1
H        10.86440728      10.93709041       6.51796099         0.00000000       0.00000000       0.00000000          1
H        10.84046887       8.97442444       4.53008731         0.00000000       0.00000000       0.00000000          1
H        10.25675201       7.03387185       6.45305696         0.00000000       0.00000000       0.00000000          1
H        10.28069000       8.99654254       8.44093235         0.00000000       0.00000000       0.00000000          1
H         8.62887369       9.29083671       6.20728597         0.00000000       0.00000000       0.00000000          1
H        12.49228752       8.68012058       6.76373366         0.00000000       0.00000000       0.00000000          1
6
pbc=[F, F, F] list_num_par=6 frozen=false iter=20000 energy=-1.26974174 Lattice="15.00000000 0.00000000 0.00000000 0.00000000 15.00000000 0.00000000 0.00000000 0.00000000 15.00000000" energy_frozen_part=0.00000000 Properties=species:S:1:pos:R:3:velocities:R:3:Z:I:1
H        10.87181585      10.93438227       6.51217560         0.00000000       0.00000000       0.00000000          1
H        10.83615546       8.96656312       4.52958077         0.00000000       0.00000000       0.00000000          1
H        10.25198217       7.03289568       6.45933730         0.00000000       0.00000000       0.00000000          1
H        10.28764141       9.00071494       8.44193414         0.00000000       0.00000000       0.00000000          1
H         8.63035146       9.29421366       6.21224316         0.00000000       0.00000000       0.00000000          1
H        12.49344711       8.67307157       6.75927478         0.00000000       0.00000000       0.00000000          1
6
pbc=[F, F, F] list_num_par=6 frozen=false iter=20000 energy=-1.26974174 Lattice="15.00000000 0.00000000 0.00000000 0.00000000 15.00000000 0.00000000 0.00000000 0.00000000 15.00000000" energy_frozen_part=0.00000000 Properties=species:S:1:pos:R:3:velocities:R:3:Z:I:1
H        10.87180410      10.93434987       6.51216895         0.00000000       0.00000000       0.00000000          1
H        10.83613369       8.96654967       4.52955030         0.00000000       0.00000000       0.00000000          1
H        10.25197562       7.03286532       6.45929792         0.00000000       0.00000000       0.00000000          1
H        10.28764780       9.00066520       8.44191399         0.00000000       0.00000000       0.00000000          1
H         8.63034295       9.29417903       6.21223512         0.00000000       0.00000000       0.00000000          1
H        12.49344176       8.67304043       6.75923025         0.00000000       0.00000000       0.00000000          1
6
pbc=[F, F, F] list_num_par=6 frozen=false iter=20000 energy=-1.26974174 Lattice="15.00000000 0.00000000 0.00000000 0.00000000 15.00000000 0.00000000 0.00000000 0.00000000 15.00000000" energy_frozen_part=0.00000000 Properties=species:S:1:pos:R:3:velocities:R:3:Z:I:1
H        10.86444096      10.93710744       6.51787015         0.00000000       0.00000000       0.00000000          1
H        10.84048678       8.97437446       4.53006034         0.00000000       0.00000000       0.00000000          1
H        10.25672077       7.03389925       6.45309463         0.00000000       0.00000000       0.00000000          1
H        10.28067111       8.99662979       8.44090394         0.00000000       0.00000000       0.00000000          1
H         8.62888019       9.29088024       6.20723427         0.00000000       0.00000000       0.00000000          1
H        12.49227890       8.68012767       6.76372889         0.00000000       0.00000000       0.00000000          1
6
pbc=[F, F, F] list_num_par=6 frozen=false iter=20000 energy=-1.26974174 Lattice="15.00000000 0.00000000 0.00000000 0.00000000 15.00000000 0.00000000 0.00000000 0.00000000 15.00000000" energy_frozen_part=0.00000000 Properties=species:S:1:pos:R:3:velocities:R:3:Z:I:1
H        10.87180243      10.93435103       6.51216592         0.00000000       0.00000000       0.00000000          1
H        10.83613549       8.96655496       4.52954786         0.00000000       0.00000000       0.00000000          1
H        10.25198152       7.03286535       6.45928869         0.00000000       0.00000000       0.00000000          1
H        10.28764652       9.00066357       8.44190820         0.00000000       0.00000000       0.00000000          1
H         8.63033845       9.29417225       6.21222764         0.00000000       0.00000000       0.00000000          1
H        12.49344357       8.67303994       6.75922591         0.00000000       0.00000000       0.00000000          1
6
pbc=[F, F, F] list_num_par=6 frozen=false iter=20000 energy=-1.26974174 Lattice="15.00000000 0.00000000 0.00000000 0.00000000 15.00000000 0.00000000 0.00000000 0.00000000 15.00000000" energy_frozen_part=0.00000000 Properties=species:S:1:pos:R:3:velocities:R:3:Z:I:1
H        10.87169841      10.93430000       6.51218015         0.00000000       0.00000000       0.00000000          1
H        10.83611430       8.96645267       4.52961160         0.00000000       0.00000000       0.00000000          1
H        10.25214238       7.03276884       6.45941063         0.00000000       0.00000000       0.00000000          1
H        10.28772569       9.00061647       8.44198566         0.00000000       0.00000000       0.00000000          1
H         8.63033918       9.29396035       6.21234664         0.00000000       0.00000000       0.00000000          1
H        12.49350129       8.67310640       6.75925273         0.00000000       0.00000000       0.00000000          1
